NAME cfl_15x60
ROWS
 N  OBJ
 E  dem_0
 E  dem_1
 E  dem_2
 E  dem_3
 E  dem_4
 E  dem_5
 E  dem_6
 E  dem_7
 E  dem_8
 E  dem_9
 E  dem_10
 E  dem_11
 E  dem_12
 E  dem_13
 E  dem_14
 E  dem_15
 E  dem_16
 E  dem_17
 E  dem_18
 E  dem_19
 E  dem_20
 E  dem_21
 E  dem_22
 E  dem_23
 E  dem_24
 E  dem_25
 E  dem_26
 E  dem_27
 E  dem_28
 E  dem_29
 E  dem_30
 E  dem_31
 E  dem_32
 E  dem_33
 E  dem_34
 E  dem_35
 E  dem_36
 E  dem_37
 E  dem_38
 E  dem_39
 E  dem_40
 E  dem_41
 E  dem_42
 E  dem_43
 E  dem_44
 E  dem_45
 E  dem_46
 E  dem_47
 E  dem_48
 E  dem_49
 E  dem_50
 E  dem_51
 E  dem_52
 E  dem_53
 E  dem_54
 E  dem_55
 E  dem_56
 E  dem_57
 E  dem_58
 E  dem_59
 L  cap_0
 L  cap_1
 L  cap_2
 L  cap_3
 L  cap_4
 L  cap_5
 L  cap_6
 L  cap_7
 L  cap_8
 L  cap_9
 L  cap_10
 L  cap_11
 L  cap_12
 L  cap_13
 L  cap_14
COLUMNS
    M0  'MARKER'  'INTORG'
    open_0  OBJ  607.961208360157
    open_0  cap_0  -167.0
    open_1  OBJ  581.5875094946424
    open_1  cap_1  -134.0
    open_2  OBJ  467.1801678272026
    open_2  cap_2  -205.0
    open_3  OBJ  675.3337600390344
    open_3  cap_3  -211.0
    open_4  OBJ  692.7206496758472
    open_4  cap_4  -161.0
    open_5  OBJ  640.4923875022691
    open_5  cap_5  -200.0
    open_6  OBJ  481.8053731277545
    open_6  cap_6  -198.0
    open_7  OBJ  627.7654589155931
    open_7  cap_7  -148.0
    open_8  OBJ  406.6643337555858
    open_8  cap_8  -110.0
    open_9  OBJ  369.14554480216646
    open_9  cap_9  -217.0
    open_10  OBJ  330.25954543975934
    open_10  cap_10  -139.0
    open_11  OBJ  620.7040686591339
    open_11  cap_11  -111.0
    open_12  OBJ  690.3968999166839
    open_12  cap_12  -128.0
    open_13  OBJ  418.9453218368301
    open_13  cap_13  -138.0
    open_14  OBJ  587.8222342115482
    open_14  cap_14  -175.0
    M1  'MARKER'  'INTEND'
    x_0_0  OBJ  166.11254665988753
    x_0_0  dem_0  1.0
    x_0_0  cap_0  28.0
    x_0_1  OBJ  140.89425349671637
    x_0_1  dem_1  1.0
    x_0_1  cap_0  22.0
    x_0_2  OBJ  64.03762033588909
    x_0_2  dem_2  1.0
    x_0_2  cap_0  9.0
    x_0_3  OBJ  80.401525772412
    x_0_3  dem_3  1.0
    x_0_3  cap_0  8.0
    x_0_4  OBJ  199.79191200127443
    x_0_4  dem_4  1.0
    x_0_4  cap_0  27.0
    x_0_5  OBJ  101.50889391910167
    x_0_5  dem_5  1.0
    x_0_5  cap_0  17.0
    x_0_6  OBJ  27.127701163597123
    x_0_6  dem_6  1.0
    x_0_6  cap_0  12.0
    x_0_7  OBJ  115.16782193479182
    x_0_7  dem_7  1.0
    x_0_7  cap_0  24.0
    x_0_8  OBJ  128.30979723487468
    x_0_8  dem_8  1.0
    x_0_8  cap_0  23.0
    x_0_9  OBJ  70.0976706957822
    x_0_9  dem_9  1.0
    x_0_9  cap_0  17.0
    x_0_10  OBJ  67.55229201301171
    x_0_10  dem_10  1.0
    x_0_10  cap_0  11.0
    x_0_11  OBJ  131.85848702930383
    x_0_11  dem_11  1.0
    x_0_11  cap_0  33.0
    x_0_12  OBJ  26.20706660259367
    x_0_12  dem_12  1.0
    x_0_12  cap_0  27.0
    x_0_13  OBJ  38.72647451147246
    x_0_13  dem_13  1.0
    x_0_13  cap_0  15.0
    x_0_14  OBJ  165.21773313589455
    x_0_14  dem_14  1.0
    x_0_14  cap_0  19.0
    x_0_15  OBJ  83.1338258333536
    x_0_15  dem_15  1.0
    x_0_15  cap_0  31.0
    x_0_16  OBJ  95.32039486664749
    x_0_16  dem_16  1.0
    x_0_16  cap_0  24.0
    x_0_17  OBJ  33.197965603737416
    x_0_17  dem_17  1.0
    x_0_17  cap_0  14.0
    x_0_18  OBJ  37.269589639451226
    x_0_18  dem_18  1.0
    x_0_18  cap_0  12.0
    x_0_19  OBJ  87.19238838848595
    x_0_19  dem_19  1.0
    x_0_19  cap_0  16.0
    x_0_20  OBJ  116.08481897947169
    x_0_20  dem_20  1.0
    x_0_20  cap_0  12.0
    x_0_21  OBJ  148.40425480596926
    x_0_21  dem_21  1.0
    x_0_21  cap_0  26.0
    x_0_22  OBJ  38.889956658448604
    x_0_22  dem_22  1.0
    x_0_22  cap_0  10.0
    x_0_23  OBJ  72.37762515329204
    x_0_23  dem_23  1.0
    x_0_23  cap_0  21.0
    x_0_24  OBJ  44.97831269922979
    x_0_24  dem_24  1.0
    x_0_24  cap_0  10.0
    x_0_25  OBJ  98.03129699653005
    x_0_25  dem_25  1.0
    x_0_25  cap_0  32.0
    x_0_26  OBJ  37.664260227057405
    x_0_26  dem_26  1.0
    x_0_26  cap_0  16.0
    x_0_27  OBJ  90.76539090414197
    x_0_27  dem_27  1.0
    x_0_27  cap_0  31.0
    x_0_28  OBJ  38.170258238085864
    x_0_28  dem_28  1.0
    x_0_28  cap_0  9.0
    x_0_29  OBJ  125.74397434372683
    x_0_29  dem_29  1.0
    x_0_29  cap_0  13.0
    x_0_30  OBJ  13.393956602256669
    x_0_30  dem_30  1.0
    x_0_30  cap_0  26.0
    x_0_31  OBJ  80.515827862829
    x_0_31  dem_31  1.0
    x_0_31  cap_0  14.0
    x_0_32  OBJ  60.53172922906744
    x_0_32  dem_32  1.0
    x_0_32  cap_0  15.0
    x_0_33  OBJ  136.57333087326862
    x_0_33  dem_33  1.0
    x_0_33  cap_0  24.0
    x_0_34  OBJ  191.3758838478238
    x_0_34  dem_34  1.0
    x_0_34  cap_0  34.0
    x_0_35  OBJ  70.46583698768471
    x_0_35  dem_35  1.0
    x_0_35  cap_0  28.0
    x_0_36  OBJ  275.224406029723
    x_0_36  dem_36  1.0
    x_0_36  cap_0  32.0
    x_0_37  OBJ  57.310164273589635
    x_0_37  dem_37  1.0
    x_0_37  cap_0  8.0
    x_0_38  OBJ  108.39452774433423
    x_0_38  dem_38  1.0
    x_0_38  cap_0  28.0
    x_0_39  OBJ  172.6800213777996
    x_0_39  dem_39  1.0
    x_0_39  cap_0  32.0
    x_0_40  OBJ  144.1857940631408
    x_0_40  dem_40  1.0
    x_0_40  cap_0  31.0
    x_0_41  OBJ  78.92969022082734
    x_0_41  dem_41  1.0
    x_0_41  cap_0  15.0
    x_0_42  OBJ  129.151361023699
    x_0_42  dem_42  1.0
    x_0_42  cap_0  27.0
    x_0_43  OBJ  70.8971795150517
    x_0_43  dem_43  1.0
    x_0_43  cap_0  9.0
    x_0_44  OBJ  279.80700284612504
    x_0_44  dem_44  1.0
    x_0_44  cap_0  28.0
    x_0_45  OBJ  50.20597734982594
    x_0_45  dem_45  1.0
    x_0_45  cap_0  12.0
    x_0_46  OBJ  48.40158066517287
    x_0_46  dem_46  1.0
    x_0_46  cap_0  15.0
    x_0_47  OBJ  26.722985491858633
    x_0_47  dem_47  1.0
    x_0_47  cap_0  28.0
    x_0_48  OBJ  125.04654155520775
    x_0_48  dem_48  1.0
    x_0_48  cap_0  26.0
    x_0_49  OBJ  95.20969141106069
    x_0_49  dem_49  1.0
    x_0_49  cap_0  12.0
    x_0_50  OBJ  80.41771601826179
    x_0_50  dem_50  1.0
    x_0_50  cap_0  11.0
    x_0_51  OBJ  63.72207673609937
    x_0_51  dem_51  1.0
    x_0_51  cap_0  8.0
    x_0_52  OBJ  112.36849812791816
    x_0_52  dem_52  1.0
    x_0_52  cap_0  24.0
    x_0_53  OBJ  159.9832887577498
    x_0_53  dem_53  1.0
    x_0_53  cap_0  22.0
    x_0_54  OBJ  89.0890754156968
    x_0_54  dem_54  1.0
    x_0_54  cap_0  11.0
    x_0_55  OBJ  247.0628114569075
    x_0_55  dem_55  1.0
    x_0_55  cap_0  32.0
    x_0_56  OBJ  160.59999814559146
    x_0_56  dem_56  1.0
    x_0_56  cap_0  22.0
    x_0_57  OBJ  104.28369042303811
    x_0_57  dem_57  1.0
    x_0_57  cap_0  14.0
    x_0_58  OBJ  142.1093825789025
    x_0_58  dem_58  1.0
    x_0_58  cap_0  29.0
    x_0_59  OBJ  91.32633289346427
    x_0_59  dem_59  1.0
    x_0_59  cap_0  20.0
    x_1_0  OBJ  81.02680911070355
    x_1_0  dem_0  1.0
    x_1_0  cap_1  28.0
    x_1_1  OBJ  27.79720414661329
    x_1_1  dem_1  1.0
    x_1_1  cap_1  22.0
    x_1_2  OBJ  74.11436956973944
    x_1_2  dem_2  1.0
    x_1_2  cap_1  9.0
    x_1_3  OBJ  40.90907371066256
    x_1_3  dem_3  1.0
    x_1_3  cap_1  8.0
    x_1_4  OBJ  195.6955693975943
    x_1_4  dem_4  1.0
    x_1_4  cap_1  27.0
    x_1_5  OBJ  46.51547232669172
    x_1_5  dem_5  1.0
    x_1_5  cap_1  17.0
    x_1_6  OBJ  86.57173660205626
    x_1_6  dem_6  1.0
    x_1_6  cap_1  12.0
    x_1_7  OBJ  78.82088460112243
    x_1_7  dem_7  1.0
    x_1_7  cap_1  24.0
    x_1_8  OBJ  150.04913301003455
    x_1_8  dem_8  1.0
    x_1_8  cap_1  23.0
    x_1_9  OBJ  31.107683651107656
    x_1_9  dem_9  1.0
    x_1_9  cap_1  17.0
    x_1_10  OBJ  76.40976631808645
    x_1_10  dem_10  1.0
    x_1_10  cap_1  11.0
    x_1_11  OBJ  64.04764016723027
    x_1_11  dem_11  1.0
    x_1_11  cap_1  33.0
    x_1_12  OBJ  159.77187752875773
    x_1_12  dem_12  1.0
    x_1_12  cap_1  27.0
    x_1_13  OBJ  106.96632350411758
    x_1_13  dem_13  1.0
    x_1_13  cap_1  15.0
    x_1_14  OBJ  160.40240917563898
    x_1_14  dem_14  1.0
    x_1_14  cap_1  19.0
    x_1_15  OBJ  92.16581809707579
    x_1_15  dem_15  1.0
    x_1_15  cap_1  31.0
    x_1_16  OBJ  44.520932788837094
    x_1_16  dem_16  1.0
    x_1_16  cap_1  24.0
    x_1_17  OBJ  63.81274015037095
    x_1_17  dem_17  1.0
    x_1_17  cap_1  14.0
    x_1_18  OBJ  92.62279372766336
    x_1_18  dem_18  1.0
    x_1_18  cap_1  12.0
    x_1_19  OBJ  121.17662274992954
    x_1_19  dem_19  1.0
    x_1_19  cap_1  16.0
    x_1_20  OBJ  59.27348275301333
    x_1_20  dem_20  1.0
    x_1_20  cap_1  12.0
    x_1_21  OBJ  3.48671472276367
    x_1_21  dem_21  1.0
    x_1_21  cap_1  26.0
    x_1_22  OBJ  20.565925801419926
    x_1_22  dem_22  1.0
    x_1_22  cap_1  10.0
    x_1_23  OBJ  51.707991147861755
    x_1_23  dem_23  1.0
    x_1_23  cap_1  21.0
    x_1_24  OBJ  23.969809212901932
    x_1_24  dem_24  1.0
    x_1_24  cap_1  10.0
    x_1_25  OBJ  139.79238235086876
    x_1_25  dem_25  1.0
    x_1_25  cap_1  32.0
    x_1_26  OBJ  60.20119305857584
    x_1_26  dem_26  1.0
    x_1_26  cap_1  16.0
    x_1_27  OBJ  92.14230228012939
    x_1_27  dem_27  1.0
    x_1_27  cap_1  31.0
    x_1_28  OBJ  15.125301704393971
    x_1_28  dem_28  1.0
    x_1_28  cap_1  9.0
    x_1_29  OBJ  73.28373548838434
    x_1_29  dem_29  1.0
    x_1_29  cap_1  13.0
    x_1_30  OBJ  138.93115932483477
    x_1_30  dem_30  1.0
    x_1_30  cap_1  26.0
    x_1_31  OBJ  20.496923189756366
    x_1_31  dem_31  1.0
    x_1_31  cap_1  14.0
    x_1_32  OBJ  98.51857427267961
    x_1_32  dem_32  1.0
    x_1_32  cap_1  15.0
    x_1_33  OBJ  34.113522416493424
    x_1_33  dem_33  1.0
    x_1_33  cap_1  24.0
    x_1_34  OBJ  214.36132862066387
    x_1_34  dem_34  1.0
    x_1_34  cap_1  34.0
    x_1_35  OBJ  86.32271744403492
    x_1_35  dem_35  1.0
    x_1_35  cap_1  28.0
    x_1_36  OBJ  264.7497836820521
    x_1_36  dem_36  1.0
    x_1_36  cap_1  32.0
    x_1_37  OBJ  34.61599172003399
    x_1_37  dem_37  1.0
    x_1_37  cap_1  8.0
    x_1_38  OBJ  73.97322806705156
    x_1_38  dem_38  1.0
    x_1_38  cap_1  28.0
    x_1_39  OBJ  149.07633175596467
    x_1_39  dem_39  1.0
    x_1_39  cap_1  32.0
    x_1_40  OBJ  72.10692257295479
    x_1_40  dem_40  1.0
    x_1_40  cap_1  31.0
    x_1_41  OBJ  10.927260094841795
    x_1_41  dem_41  1.0
    x_1_41  cap_1  15.0
    x_1_42  OBJ  105.86250772326534
    x_1_42  dem_42  1.0
    x_1_42  cap_1  27.0
    x_1_43  OBJ  20.615887509117805
    x_1_43  dem_43  1.0
    x_1_43  cap_1  9.0
    x_1_44  OBJ  142.5539719736244
    x_1_44  dem_44  1.0
    x_1_44  cap_1  28.0
    x_1_45  OBJ  37.36848267277113
    x_1_45  dem_45  1.0
    x_1_45  cap_1  12.0
    x_1_46  OBJ  44.73897577560158
    x_1_46  dem_46  1.0
    x_1_46  cap_1  15.0
    x_1_47  OBJ  129.73447008456773
    x_1_47  dem_47  1.0
    x_1_47  cap_1  28.0
    x_1_48  OBJ  35.85443080503285
    x_1_48  dem_48  1.0
    x_1_48  cap_1  26.0
    x_1_49  OBJ  44.05891028763301
    x_1_49  dem_49  1.0
    x_1_49  cap_1  12.0
    x_1_50  OBJ  86.3054322442043
    x_1_50  dem_50  1.0
    x_1_50  cap_1  11.0
    x_1_51  OBJ  26.81157286931387
    x_1_51  dem_51  1.0
    x_1_51  cap_1  8.0
    x_1_52  OBJ  180.81644440966798
    x_1_52  dem_52  1.0
    x_1_52  cap_1  24.0
    x_1_53  OBJ  100.84997678633827
    x_1_53  dem_53  1.0
    x_1_53  cap_1  22.0
    x_1_54  OBJ  78.32334966679765
    x_1_54  dem_54  1.0
    x_1_54  cap_1  11.0
    x_1_55  OBJ  128.44778732218725
    x_1_55  dem_55  1.0
    x_1_55  cap_1  32.0
    x_1_56  OBJ  134.8308875413271
    x_1_56  dem_56  1.0
    x_1_56  cap_1  22.0
    x_1_57  OBJ  27.64089292043
    x_1_57  dem_57  1.0
    x_1_57  cap_1  14.0
    x_1_58  OBJ  194.80510347061693
    x_1_58  dem_58  1.0
    x_1_58  cap_1  29.0
    x_1_59  OBJ  88.9667399515497
    x_1_59  dem_59  1.0
    x_1_59  cap_1  20.0
    x_2_0  OBJ  129.9605634046588
    x_2_0  dem_0  1.0
    x_2_0  cap_2  28.0
    x_2_1  OBJ  58.95832161072191
    x_2_1  dem_1  1.0
    x_2_1  cap_2  22.0
    x_2_2  OBJ  89.96641370610423
    x_2_2  dem_2  1.0
    x_2_2  cap_2  9.0
    x_2_3  OBJ  47.316698999485446
    x_2_3  dem_3  1.0
    x_2_3  cap_2  8.0
    x_2_4  OBJ  243.8009382519419
    x_2_4  dem_4  1.0
    x_2_4  cap_2  27.0
    x_2_5  OBJ  76.05921082119306
    x_2_5  dem_5  1.0
    x_2_5  cap_2  17.0
    x_2_6  OBJ  100.71982414091426
    x_2_6  dem_6  1.0
    x_2_6  cap_2  12.0
    x_2_7  OBJ  63.306458864679826
    x_2_7  dem_7  1.0
    x_2_7  cap_2  24.0
    x_2_8  OBJ  190.1166924588078
    x_2_8  dem_8  1.0
    x_2_8  cap_2  23.0
    x_2_9  OBJ  58.21647013463704
    x_2_9  dem_9  1.0
    x_2_9  cap_2  17.0
    x_2_10  OBJ  95.75338246381048
    x_2_10  dem_10  1.0
    x_2_10  cap_2  11.0
    x_2_11  OBJ  81.80078304526907
    x_2_11  dem_11  1.0
    x_2_11  cap_2  33.0
    x_2_12  OBJ  189.23664099484589
    x_2_12  dem_12  1.0
    x_2_12  cap_2  27.0
    x_2_13  OBJ  126.12085084119944
    x_2_13  dem_13  1.0
    x_2_13  cap_2  15.0
    x_2_14  OBJ  194.12789513027244
    x_2_14  dem_14  1.0
    x_2_14  cap_2  19.0
    x_2_15  OBJ  118.12988051766561
    x_2_15  dem_15  1.0
    x_2_15  cap_2  31.0
    x_2_16  OBJ  81.07203997987934
    x_2_16  dem_16  1.0
    x_2_16  cap_2  24.0
    x_2_17  OBJ  83.702732753052
    x_2_17  dem_17  1.0
    x_2_17  cap_2  14.0
    x_2_18  OBJ  108.0869978411401
    x_2_18  dem_18  1.0
    x_2_18  cap_2  12.0
    x_2_19  OBJ  148.0025949207781
    x_2_19  dem_19  1.0
    x_2_19  cap_2  16.0
    x_2_20  OBJ  70.84208544840355
    x_2_20  dem_20  1.0
    x_2_20  cap_2  12.0
    x_2_21  OBJ  43.79789787175688
    x_2_21  dem_21  1.0
    x_2_21  cap_2  26.0
    x_2_22  OBJ  36.07811729355115
    x_2_22  dem_22  1.0
    x_2_22  cap_2  10.0
    x_2_23  OBJ  63.565262354413804
    x_2_23  dem_23  1.0
    x_2_23  cap_2  21.0
    x_2_24  OBJ  41.36439866518224
    x_2_24  dem_24  1.0
    x_2_24  cap_2  10.0
    x_2_25  OBJ  189.42003728378484
    x_2_25  dem_25  1.0
    x_2_25  cap_2  32.0
    x_2_26  OBJ  81.72874826056133
    x_2_26  dem_26  1.0
    x_2_26  cap_2  16.0
    x_2_27  OBJ  134.84516503296044
    x_2_27  dem_27  1.0
    x_2_27  cap_2  31.0
    x_2_28  OBJ  20.21959011300219
    x_2_28  dem_28  1.0
    x_2_28  cap_2  9.0
    x_2_29  OBJ  89.65051677572616
    x_2_29  dem_29  1.0
    x_2_29  cap_2  13.0
    x_2_30  OBJ  159.022514310098
    x_2_30  dem_30  1.0
    x_2_30  cap_2  26.0
    x_2_31  OBJ  10.091562626641693
    x_2_31  dem_31  1.0
    x_2_31  cap_2  14.0
    x_2_32  OBJ  122.36412106381752
    x_2_32  dem_32  1.0
    x_2_32  cap_2  15.0
    x_2_33  OBJ  18.772752919122034
    x_2_33  dem_33  1.0
    x_2_33  cap_2  24.0
    x_2_34  OBJ  273.95234225830063
    x_2_34  dem_34  1.0
    x_2_34  cap_2  34.0
    x_2_35  OBJ  112.67180097053452
    x_2_35  dem_35  1.0
    x_2_35  cap_2  28.0
    x_2_36  OBJ  321.51717005380004
    x_2_36  dem_36  1.0
    x_2_36  cap_2  32.0
    x_2_37  OBJ  48.00872210661933
    x_2_37  dem_37  1.0
    x_2_37  cap_2  8.0
    x_2_38  OBJ  119.88658438651787
    x_2_38  dem_38  1.0
    x_2_38  cap_2  28.0
    x_2_39  OBJ  205.9364858655246
    x_2_39  dem_39  1.0
    x_2_39  cap_2  32.0
    x_2_40  OBJ  126.52979135916857
    x_2_40  dem_40  1.0
    x_2_40  cap_2  31.0
    x_2_41  OBJ  37.58528012487545
    x_2_41  dem_41  1.0
    x_2_41  cap_2  15.0
    x_2_42  OBJ  87.52471775286378
    x_2_42  dem_42  1.0
    x_2_42  cap_2  27.0
    x_2_43  OBJ  21.041473238020938
    x_2_43  dem_43  1.0
    x_2_43  cap_2  9.0
    x_2_44  OBJ  165.80127896710243
    x_2_44  dem_44  1.0
    x_2_44  cap_2  28.0
    x_2_45  OBJ  57.912735939056994
    x_2_45  dem_45  1.0
    x_2_45  cap_2  12.0
    x_2_46  OBJ  50.128882778124904
    x_2_46  dem_46  1.0
    x_2_46  cap_2  15.0
    x_2_47  OBJ  155.83388479906733
    x_2_47  dem_47  1.0
    x_2_47  cap_2  28.0
    x_2_48  OBJ  81.15947368341256
    x_2_48  dem_48  1.0
    x_2_48  cap_2  26.0
    x_2_49  OBJ  60.38292015119739
    x_2_49  dem_49  1.0
    x_2_49  cap_2  12.0
    x_2_50  OBJ  105.85695040221864
    x_2_50  dem_50  1.0
    x_2_50  cap_2  11.0
    x_2_51  OBJ  36.70293776445915
    x_2_51  dem_51  1.0
    x_2_51  cap_2  8.0
    x_2_52  OBJ  219.03186713763026
    x_2_52  dem_52  1.0
    x_2_52  cap_2  24.0
    x_2_53  OBJ  137.82088889720654
    x_2_53  dem_53  1.0
    x_2_53  cap_2  22.0
    x_2_54  OBJ  97.67300048294967
    x_2_54  dem_54  1.0
    x_2_54  cap_2  11.0
    x_2_55  OBJ  176.8971783231229
    x_2_55  dem_55  1.0
    x_2_55  cap_2  32.0
    x_2_56  OBJ  173.6558857479576
    x_2_56  dem_56  1.0
    x_2_56  cap_2  22.0
    x_2_57  OBJ  37.37945346304165
    x_2_57  dem_57  1.0
    x_2_57  cap_2  14.0
    x_2_58  OBJ  243.46816331831678
    x_2_58  dem_58  1.0
    x_2_58  cap_2  29.0
    x_2_59  OBJ  123.7092886538821
    x_2_59  dem_59  1.0
    x_2_59  cap_2  20.0
    x_3_0  OBJ  162.75863151482767
    x_3_0  dem_0  1.0
    x_3_0  cap_3  28.0
    x_3_1  OBJ  88.58972190021873
    x_3_1  dem_1  1.0
    x_3_1  cap_3  22.0
    x_3_2  OBJ  97.57189596699894
    x_3_2  dem_2  1.0
    x_3_2  cap_3  9.0
    x_3_3  OBJ  58.81806714219724
    x_3_3  dem_3  1.0
    x_3_3  cap_3  8.0
    x_3_4  OBJ  271.1432416044959
    x_3_4  dem_4  1.0
    x_3_4  cap_3  27.0
    x_3_5  OBJ  96.24633605342386
    x_3_5  dem_5  1.0
    x_3_5  cap_3  17.0
    x_3_6  OBJ  101.18780726804786
    x_3_6  dem_6  1.0
    x_3_6  cap_3  12.0
    x_3_7  OBJ  40.99876795244219
    x_3_7  dem_7  1.0
    x_3_7  cap_3  24.0
    x_3_8  OBJ  208.56417338080405
    x_3_8  dem_8  1.0
    x_3_8  cap_3  23.0
    x_3_9  OBJ  71.03731986714197
    x_3_9  dem_9  1.0
    x_3_9  cap_3  17.0
    x_3_10  OBJ  105.06750399803141
    x_3_10  dem_10  1.0
    x_3_10  cap_3  11.0
    x_3_11  OBJ  86.76116588006104
    x_3_11  dem_11  1.0
    x_3_11  cap_3  33.0
    x_3_12  OBJ  189.3361292734366
    x_3_12  dem_12  1.0
    x_3_12  cap_3  27.0
    x_3_13  OBJ  128.20712039758376
    x_3_13  dem_13  1.0
    x_3_13  cap_3  15.0
    x_3_14  OBJ  214.41682890746537
    x_3_14  dem_14  1.0
    x_3_14  cap_3  19.0
    x_3_15  OBJ  119.72183820940711
    x_3_15  dem_15  1.0
    x_3_15  cap_3  31.0
    x_3_16  OBJ  97.62781860832288
    x_3_16  dem_16  1.0
    x_3_16  cap_3  24.0
    x_3_17  OBJ  89.0761996593456
    x_3_17  dem_17  1.0
    x_3_17  cap_3  14.0
    x_3_18  OBJ  109.71846650538085
    x_3_18  dem_18  1.0
    x_3_18  cap_3  12.0
    x_3_19  OBJ  158.32859394580478
    x_3_19  dem_19  1.0
    x_3_19  cap_3  16.0
    x_3_20  OBJ  88.16374620109224
    x_3_20  dem_20  1.0
    x_3_20  cap_3  12.0
    x_3_21  OBJ  74.76657135313977
    x_3_21  dem_21  1.0
    x_3_21  cap_3  26.0
    x_3_22  OBJ  42.99010104023896
    x_3_22  dem_22  1.0
    x_3_22  cap_3  10.0
    x_3_23  OBJ  63.47335091684501
    x_3_23  dem_23  1.0
    x_3_23  cap_3  21.0
    x_3_24  OBJ  50.33670873549888
    x_3_24  dem_24  1.0
    x_3_24  cap_3  10.0
    x_3_25  OBJ  206.6363265119866
    x_3_25  dem_25  1.0
    x_3_25  cap_3  32.0
    x_3_26  OBJ  87.43227461658924
    x_3_26  dem_26  1.0
    x_3_26  cap_3  16.0
    x_3_27  OBJ  148.76004458434693
    x_3_27  dem_27  1.0
    x_3_27  cap_3  31.0
    x_3_28  OBJ  22.63272870635823
    x_3_28  dem_28  1.0
    x_3_28  cap_3  9.0
    x_3_29  OBJ  108.17946139289663
    x_3_29  dem_29  1.0
    x_3_29  cap_3  13.0
    x_3_30  OBJ  152.96513565703012
    x_3_30  dem_30  1.0
    x_3_30  cap_3  26.0
    x_3_31  OBJ  20.560265976800554
    x_3_31  dem_31  1.0
    x_3_31  cap_3  14.0
    x_3_32  OBJ  130.2071766284211
    x_3_32  dem_32  1.0
    x_3_32  cap_3  15.0
    x_3_33  OBJ  36.35985265904101
    x_3_33  dem_33  1.0
    x_3_33  cap_3  24.0
    x_3_34  OBJ  302.35251695014165
    x_3_34  dem_34  1.0
    x_3_34  cap_3  34.0
    x_3_35  OBJ  115.59679642393613
    x_3_35  dem_35  1.0
    x_3_35  cap_3  28.0
    x_3_36  OBJ  355.8776151691682
    x_3_36  dem_36  1.0
    x_3_36  cap_3  32.0
    x_3_37  OBJ  58.06631704629682
    x_3_37  dem_37  1.0
    x_3_37  cap_3  8.0
    x_3_38  OBJ  140.4939845094014
    x_3_38  dem_38  1.0
    x_3_38  cap_3  28.0
    x_3_39  OBJ  236.50343935821365
    x_3_39  dem_39  1.0
    x_3_39  cap_3  32.0
    x_3_40  OBJ  155.51472314048897
    x_3_40  dem_40  1.0
    x_3_40  cap_3  31.0
    x_3_41  OBJ  53.74093439012866
    x_3_41  dem_41  1.0
    x_3_41  cap_3  15.0
    x_3_42  OBJ  58.28493533845294
    x_3_42  dem_42  1.0
    x_3_42  cap_3  27.0
    x_3_43  OBJ  33.70355216456736
    x_3_43  dem_43  1.0
    x_3_43  cap_3  9.0
    x_3_44  OBJ  206.10706258419071
    x_3_44  dem_44  1.0
    x_3_44  cap_3  28.0
    x_3_45  OBJ  67.70335453696691
    x_3_45  dem_45  1.0
    x_3_45  cap_3  12.0
    x_3_46  OBJ  46.4466044074212
    x_3_46  dem_46  1.0
    x_3_46  cap_3  15.0
    x_3_47  OBJ  154.190278910573
    x_3_47  dem_47  1.0
    x_3_47  cap_3  28.0
    x_3_48  OBJ  106.15173892886882
    x_3_48  dem_48  1.0
    x_3_48  cap_3  26.0
    x_3_49  OBJ  77.1554410067439
    x_3_49  dem_49  1.0
    x_3_49  cap_3  12.0
    x_3_50  OBJ  116.05901296779959
    x_3_50  dem_50  1.0
    x_3_50  cap_3  11.0
    x_3_51  OBJ  48.05341234079404
    x_3_51  dem_51  1.0
    x_3_51  cap_3  8.0
    x_3_52  OBJ  231.2234716775065
    x_3_52  dem_52  1.0
    x_3_52  cap_3  24.0
    x_3_53  OBJ  165.35210780380177
    x_3_53  dem_53  1.0
    x_3_53  cap_3  22.0
    x_3_54  OBJ  110.09933128751081
    x_3_54  dem_54  1.0
    x_3_54  cap_3  11.0
    x_3_55  OBJ  220.16213485659213
    x_3_55  dem_55  1.0
    x_3_55  cap_3  32.0
    x_3_56  OBJ  198.22419369943526
    x_3_56  dem_56  1.0
    x_3_56  cap_3  22.0
    x_3_57  OBJ  57.58119093724906
    x_3_57  dem_57  1.0
    x_3_57  cap_3  14.0
    x_3_58  OBJ  262.63846715826674
    x_3_58  dem_58  1.0
    x_3_58  cap_3  29.0
    x_3_59  OBJ  140.2227658421356
    x_3_59  dem_59  1.0
    x_3_59  cap_3  20.0
    x_4_0  OBJ  107.16320433621937
    x_4_0  dem_0  1.0
    x_4_0  cap_4  28.0
    x_4_1  OBJ  126.37801101219902
    x_4_1  dem_1  1.0
    x_4_1  cap_4  22.0
    x_4_2  OBJ  37.000036064082934
    x_4_2  dem_2  1.0
    x_4_2  cap_4  9.0
    x_4_3  OBJ  42.79601387796698
    x_4_3  dem_3  1.0
    x_4_3  cap_4  8.0
    x_4_4  OBJ  63.81364258008747
    x_4_4  dem_4  1.0
    x_4_4  cap_4  27.0
    x_4_5  OBJ  67.46427881844886
    x_4_5  dem_5  1.0
    x_4_5  cap_4  17.0
    x_4_6  OBJ  100.35517965564223
    x_4_6  dem_6  1.0
    x_4_6  cap_4  12.0
    x_4_7  OBJ  230.7459689809963
    x_4_7  dem_7  1.0
    x_4_7  cap_4  24.0
    x_4_8  OBJ  88.51856761147552
    x_4_8  dem_8  1.0
    x_4_8  cap_4  23.0
    x_4_9  OBJ  100.42445753058263
    x_4_9  dem_9  1.0
    x_4_9  cap_4  17.0
    x_4_10  OBJ  39.6259448451264
    x_4_10  dem_10  1.0
    x_4_10  cap_4  11.0
    x_4_11  OBJ  256.22278295451264
    x_4_11  dem_11  1.0
    x_4_11  cap_4  33.0
    x_4_12  OBJ  216.99890007345402
    x_4_12  dem_12  1.0
    x_4_12  cap_4  27.0
    x_4_13  OBJ  117.80403402652799
    x_4_13  dem_13  1.0
    x_4_13  cap_4  15.0
    x_4_14  OBJ  49.12091283103323
    x_4_14  dem_14  1.0
    x_4_14  cap_4  19.0
    x_4_15  OBJ  236.3502324689654
    x_4_15  dem_15  1.0
    x_4_15  cap_4  31.0
    x_4_16  OBJ  146.44911848277056
    x_4_16  dem_16  1.0
    x_4_16  cap_4  24.0
    x_4_17  OBJ  86.79040476949925
    x_4_17  dem_17  1.0
    x_4_17  cap_4  14.0
    x_4_18  OBJ  97.50564936350956
    x_4_18  dem_18  1.0
    x_4_18  cap_4  12.0
    x_4_19  OBJ  83.03266881817663
    x_4_19  dem_19  1.0
    x_4_19  cap_4  16.0
    x_4_20  OBJ  57.3311241625099
    x_4_20  dem_20  1.0
    x_4_20  cap_4  12.0
    x_4_21  OBJ  175.7296960519568
    x_4_21  dem_21  1.0
    x_4_21  cap_4  26.0
    x_4_22  OBJ  59.457761205859946
    x_4_22  dem_22  1.0
    x_4_22  cap_4  10.0
    x_4_23  OBJ  166.01486362514655
    x_4_23  dem_23  1.0
    x_4_23  cap_4  21.0
    x_4_24  OBJ  49.821978269088014
    x_4_24  dem_24  1.0
    x_4_24  cap_4  10.0
    x_4_25  OBJ  176.2001766571162
    x_4_25  dem_25  1.0
    x_4_25  cap_4  32.0
    x_4_26  OBJ  102.70250331760424
    x_4_26  dem_26  1.0
    x_4_26  cap_4  16.0
    x_4_27  OBJ  195.21490895912424
    x_4_27  dem_27  1.0
    x_4_27  cap_4  31.0
    x_4_28  OBJ  68.92510653415563
    x_4_28  dem_28  1.0
    x_4_28  cap_4  9.0
    x_4_29  OBJ  44.8692028194309
    x_4_29  dem_29  1.0
    x_4_29  cap_4  13.0
    x_4_30  OBJ  227.90533758401526
    x_4_30  dem_30  1.0
    x_4_30  cap_4  26.0
    x_4_31  OBJ  114.20275718574842
    x_4_31  dem_31  1.0
    x_4_31  cap_4  14.0
    x_4_32  OBJ  84.58142377069393
    x_4_32  dem_32  1.0
    x_4_32  cap_4  15.0
    x_4_33  OBJ  194.68109691014843
    x_4_33  dem_33  1.0
    x_4_33  cap_4  24.0
    x_4_34  OBJ  122.12647683621265
    x_4_34  dem_34  1.0
    x_4_34  cap_4  34.0
    x_4_35  OBJ  208.39564073879143
    x_4_35  dem_35  1.0
    x_4_35  cap_4  28.0
    x_4_36  OBJ  77.40328194521007
    x_4_36  dem_36  1.0
    x_4_36  cap_4  32.0
    x_4_37  OBJ  19.13825554374314
    x_4_37  dem_37  1.0
    x_4_37  cap_4  8.0
    x_4_38  OBJ  150.74987749827358
    x_4_38  dem_38  1.0
    x_4_38  cap_4  28.0
    x_4_39  OBJ  101.64729547964616
    x_4_39  dem_39  1.0
    x_4_39  cap_4  32.0
    x_4_40  OBJ  152.44296869997837
    x_4_40  dem_40  1.0
    x_4_40  cap_4  31.0
    x_4_41  OBJ  90.9105932387552
    x_4_41  dem_41  1.0
    x_4_41  cap_4  15.0
    x_4_42  OBJ  274.4601940658072
    x_4_42  dem_42  1.0
    x_4_42  cap_4  27.0
    x_4_43  OBJ  64.05897617000342
    x_4_43  dem_43  1.0
    x_4_43  cap_4  9.0
    x_4_44  OBJ  146.9347883831275
    x_4_44  dem_44  1.0
    x_4_44  cap_4  28.0
    x_4_45  OBJ  57.18849312527332
    x_4_45  dem_45  1.0
    x_4_45  cap_4  12.0
    x_4_46  OBJ  126.03045832851288
    x_4_46  dem_46  1.0
    x_4_46  cap_4  15.0
    x_4_47  OBJ  223.42388566307986
    x_4_47  dem_47  1.0
    x_4_47  cap_4  28.0
    x_4_48  OBJ  147.65851908994375
    x_4_48  dem_48  1.0
    x_4_48  cap_4  26.0
    x_4_49  OBJ  46.57111018333034
    x_4_49  dem_49  1.0
    x_4_49  cap_4  12.0
    x_4_50  OBJ  36.33075873406953
    x_4_50  dem_50  1.0
    x_4_50  cap_4  11.0
    x_4_51  OBJ  35.59137412950323
    x_4_51  dem_51  1.0
    x_4_51  cap_4  8.0
    x_4_52  OBJ  144.6635532890344
    x_4_52  dem_52  1.0
    x_4_52  cap_4  24.0
    x_4_53  OBJ  46.79669933013766
    x_4_53  dem_53  1.0
    x_4_53  cap_4  22.0
    x_4_54  OBJ  13.850801872520801
    x_4_54  dem_54  1.0
    x_4_54  cap_4  11.0
    x_4_55  OBJ  100.09333764897089
    x_4_55  dem_55  1.0
    x_4_55  cap_4  32.0
    x_4_56  OBJ  29.92432411038221
    x_4_56  dem_56  1.0
    x_4_56  cap_4  22.0
    x_4_57  OBJ  87.90940587464357
    x_4_57  dem_57  1.0
    x_4_57  cap_4  14.0
    x_4_58  OBJ  140.0436345201806
    x_4_58  dem_58  1.0
    x_4_58  cap_4  29.0
    x_4_59  OBJ  80.07703279849214
    x_4_59  dem_59  1.0
    x_4_59  cap_4  20.0
    x_5_0  OBJ  154.79470642096405
    x_5_0  dem_0  1.0
    x_5_0  cap_5  28.0
    x_5_1  OBJ  160.10267769276007
    x_5_1  dem_1  1.0
    x_5_1  cap_5  22.0
    x_5_2  OBJ  26.088520252094337
    x_5_2  dem_2  1.0
    x_5_2  cap_5  9.0
    x_5_3  OBJ  77.32338603301355
    x_5_3  dem_3  1.0
    x_5_3  cap_5  8.0
    x_5_4  OBJ  104.54495315083845
    x_5_4  dem_4  1.0
    x_5_4  cap_5  27.0
    x_5_5  OBJ  96.66146034745145
    x_5_5  dem_5  1.0
    x_5_5  cap_5  17.0
    x_5_6  OBJ  35.69496796838258
    x_5_6  dem_6  1.0
    x_5_6  cap_5  12.0
    x_5_7  OBJ  198.76226702841566
    x_5_7  dem_7  1.0
    x_5_7  cap_5  24.0
    x_5_8  OBJ  47.30940692282038
    x_5_8  dem_8  1.0
    x_5_8  cap_5  23.0
    x_5_9  OBJ  91.97773733382084
    x_5_9  dem_9  1.0
    x_5_9  cap_5  17.0
    x_5_10  OBJ  26.52836175173736
    x_5_10  dem_10  1.0
    x_5_10  cap_5  11.0
    x_5_11  OBJ  220.96130550241145
    x_5_11  dem_11  1.0
    x_5_11  cap_5  33.0
    x_5_12  OBJ  94.79406028543411
    x_5_12  dem_12  1.0
    x_5_12  cap_5  27.0
    x_5_13  OBJ  35.76773274318685
    x_5_13  dem_13  1.0
    x_5_13  cap_5  15.0
    x_5_14  OBJ  93.30679323129456
    x_5_14  dem_14  1.0
    x_5_14  cap_5  19.0
    x_5_15  OBJ  173.65865118959545
    x_5_15  dem_15  1.0
    x_5_15  cap_5  31.0
    x_5_16  OBJ  130.45984628611714
    x_5_16  dem_16  1.0
    x_5_16  cap_5  24.0
    x_5_17  OBJ  41.81723084895066
    x_5_17  dem_17  1.0
    x_5_17  cap_5  14.0
    x_5_18  OBJ  28.920789657741445
    x_5_18  dem_18  1.0
    x_5_18  cap_5  12.0
    x_5_19  OBJ  17.31745514721637
    x_5_19  dem_19  1.0
    x_5_19  cap_5  16.0
    x_5_20  OBJ  109.5631646015336
    x_5_20  dem_20  1.0
    x_5_20  cap_5  12.0
    x_5_21  OBJ  191.16310161904693
    x_5_21  dem_21  1.0
    x_5_21  cap_5  26.0
    x_5_22  OBJ  52.09306840589151
    x_5_22  dem_22  1.0
    x_5_22  cap_5  10.0
    x_5_23  OBJ  134.05052847186312
    x_5_23  dem_23  1.0
    x_5_23  cap_5  21.0
    x_5_24  OBJ  49.20431868221861
    x_5_24  dem_24  1.0
    x_5_24  cap_5  10.0
    x_5_25  OBJ  92.58429816347612
    x_5_25  dem_25  1.0
    x_5_25  cap_5  32.0
    x_5_26  OBJ  62.00652733413227
    x_5_26  dem_26  1.0
    x_5_26  cap_5  16.0
    x_5_27  OBJ  140.30207258851442
    x_5_27  dem_27  1.0
    x_5_27  cap_5  31.0
    x_5_28  OBJ  61.28554059759974
    x_5_28  dem_28  1.0
    x_5_28  cap_5  9.0
    x_5_29  OBJ  109.73728521496521
    x_5_29  dem_29  1.0
    x_5_29  cap_5  13.0
    x_5_30  OBJ  127.43256219758207
    x_5_30  dem_30  1.0
    x_5_30  cap_5  26.0
    x_5_31  OBJ  114.60500227647476
    x_5_31  dem_31  1.0
    x_5_31  cap_5  14.0
    x_5_32  OBJ  9.812430470785952
    x_5_32  dem_32  1.0
    x_5_32  cap_5  15.0
    x_5_33  OBJ  194.84760453660837
    x_5_33  dem_33  1.0
    x_5_33  cap_5  24.0
    x_5_34  OBJ  78.717628281644
    x_5_34  dem_34  1.0
    x_5_34  cap_5  34.0
    x_5_35  OBJ  148.89645295569406
    x_5_35  dem_35  1.0
    x_5_35  cap_5  28.0
    x_5_36  OBJ  156.06546302063407
    x_5_36  dem_36  1.0
    x_5_36  cap_5  32.0
    x_5_37  OBJ  46.53408025483138
    x_5_37  dem_37  1.0
    x_5_37  cap_5  8.0
    x_5_38  OBJ  128.22101309687372
    x_5_38  dem_38  1.0
    x_5_38  cap_5  28.0
    x_5_39  OBJ  114.3923961146005
    x_5_39  dem_39  1.0
    x_5_39  cap_5  32.0
    x_5_40  OBJ  156.22054787275442
    x_5_40  dem_40  1.0
    x_5_40  cap_5  31.0
    x_5_41  OBJ  98.28166356472518
    x_5_41  dem_41  1.0
    x_5_41  cap_5  15.0
    x_5_42  OBJ  230.1696368336623
    x_5_42  dem_42  1.0
    x_5_42  cap_5  27.0
    x_5_43  OBJ  82.06908824209647
    x_5_43  dem_43  1.0
    x_5_43  cap_5  9.0
    x_5_44  OBJ  268.15700161982534
    x_5_44  dem_44  1.0
    x_5_44  cap_5  28.0
    x_5_45  OBJ  50.22467912796123
    x_5_45  dem_45  1.0
    x_5_45  cap_5  12.0
    x_5_46  OBJ  98.15013492821683
    x_5_46  dem_46  1.0
    x_5_46  cap_5  15.0
    x_5_47  OBJ  126.9652241972841
    x_5_47  dem_47  1.0
    x_5_47  cap_5  28.0
    x_5_48  OBJ  152.8035681675246
    x_5_48  dem_48  1.0
    x_5_48  cap_5  26.0
    x_5_49  OBJ  88.99485509762442
    x_5_49  dem_49  1.0
    x_5_49  cap_5  12.0
    x_5_50  OBJ  37.002297682211434
    x_5_50  dem_50  1.0
    x_5_50  cap_5  11.0
    x_5_51  OBJ  62.02283035415072
    x_5_51  dem_51  1.0
    x_5_51  cap_5  8.0
    x_5_52  OBJ  7.577412793455801
    x_5_52  dem_52  1.0
    x_5_52  cap_5  24.0
    x_5_53  OBJ  126.54405390848498
    x_5_53  dem_53  1.0
    x_5_53  cap_5  22.0
    x_5_54  OBJ  54.20238465304575
    x_5_54  dem_54  1.0
    x_5_54  cap_5  11.0
    x_5_55  OBJ  218.1148520207076
    x_5_55  dem_55  1.0
    x_5_55  cap_5  32.0
    x_5_56  OBJ  100.50563001519365
    x_5_56  dem_56  1.0
    x_5_56  cap_5  22.0
    x_5_57  OBJ  117.18679848127843
    x_5_57  dem_57  1.0
    x_5_57  cap_5  14.0
    x_5_58  OBJ  31.19173977245727
    x_5_58  dem_58  1.0
    x_5_58  cap_5  29.0
    x_5_59  OBJ  62.56105544611789
    x_5_59  dem_59  1.0
    x_5_59  cap_5  20.0
    x_6_0  OBJ  119.89313534746536
    x_6_0  dem_0  1.0
    x_6_0  cap_6  28.0
    x_6_1  OBJ  104.19459384749594
    x_6_1  dem_1  1.0
    x_6_1  cap_6  22.0
    x_6_2  OBJ  71.2243255316327
    x_6_2  dem_2  1.0
    x_6_2  cap_6  9.0
    x_6_3  OBJ  14.328995293145345
    x_6_3  dem_3  1.0
    x_6_3  cap_6  8.0
    x_6_4  OBJ  166.7924705375875
    x_6_4  dem_4  1.0
    x_6_4  cap_6  27.0
    x_6_5  OBJ  72.30342787146563
    x_6_5  dem_5  1.0
    x_6_5  cap_6  17.0
    x_6_6  OBJ  129.70931450064893
    x_6_6  dem_6  1.0
    x_6_6  cap_6  12.0
    x_6_7  OBJ  222.7424133056502
    x_6_7  dem_7  1.0
    x_6_7  cap_6  24.0
    x_6_8  OBJ  164.36396289453984
    x_6_8  dem_8  1.0
    x_6_8  cap_6  23.0
    x_6_9  OBJ  108.07371887768514
    x_6_9  dem_9  1.0
    x_6_9  cap_6  17.0
    x_6_10  OBJ  78.2303951019671
    x_6_10  dem_10  1.0
    x_6_10  cap_6  11.0
    x_6_11  OBJ  256.4306696384241
    x_6_11  dem_11  1.0
    x_6_11  cap_6  33.0
    x_6_12  OBJ  270.6474761091041
    x_6_12  dem_12  1.0
    x_6_12  cap_6  27.0
    x_6_13  OBJ  156.35195161419645
    x_6_13  dem_13  1.0
    x_6_13  cap_6  15.0
    x_6_14  OBJ  123.72594070255522
    x_6_14  dem_14  1.0
    x_6_14  cap_6  19.0
    x_6_15  OBJ  256.99041491256
    x_6_15  dem_15  1.0
    x_6_15  cap_6  31.0
    x_6_16  OBJ  157.39807079390687
    x_6_16  dem_16  1.0
    x_6_16  cap_6  24.0
    x_6_17  OBJ  113.30482564905196
    x_6_17  dem_17  1.0
    x_6_17  cap_6  14.0
    x_6_18  OBJ  130.18617071667495
    x_6_18  dem_18  1.0
    x_6_18  cap_6  12.0
    x_6_19  OBJ  137.65506017501076
    x_6_19  dem_19  1.0
    x_6_19  cap_6  16.0
    x_6_20  OBJ  16.935832059910915
    x_6_20  dem_20  1.0
    x_6_20  cap_6  12.0
    x_6_21  OBJ  155.54163918237103
    x_6_21  dem_21  1.0
    x_6_21  cap_6  26.0
    x_6_22  OBJ  65.34935876369512
    x_6_22  dem_22  1.0
    x_6_22  cap_6  10.0
    x_6_23  OBJ  171.39162040586058
    x_6_23  dem_23  1.0
    x_6_23  cap_6  21.0
    x_6_24  OBJ  57.43079162848518
    x_6_24  dem_24  1.0
    x_6_24  cap_6  10.0
    x_6_25  OBJ  238.61410406558156
    x_6_25  dem_25  1.0
    x_6_25  cap_6  32.0
    x_6_26  OBJ  125.7796385435186
    x_6_26  dem_26  1.0
    x_6_26  cap_6  16.0
    x_6_27  OBJ  227.94397580405166
    x_6_27  dem_27  1.0
    x_6_27  cap_6  31.0
    x_6_28  OBJ  67.98944239867917
    x_6_28  dem_28  1.0
    x_6_28  cap_6  9.0
    x_6_29  OBJ  7.682857221628682
    x_6_29  dem_29  1.0
    x_6_29  cap_6  13.0
    x_6_30  OBJ  265.6051544614343
    x_6_30  dem_30  1.0
    x_6_30  cap_6  26.0
    x_6_31  OBJ  101.84322671405288
    x_6_31  dem_31  1.0
    x_6_31  cap_6  14.0
    x_6_32  OBJ  128.63163030012555
    x_6_32  dem_32  1.0
    x_6_32  cap_6  15.0
    x_6_33  OBJ  174.2108315955583
    x_6_33  dem_33  1.0
    x_6_33  cap_6  24.0
    x_6_34  OBJ  232.6470849923422
    x_6_34  dem_34  1.0
    x_6_34  cap_6  34.0
    x_6_35  OBJ  230.5630134233755
    x_6_35  dem_35  1.0
    x_6_35  cap_6  28.0
    x_6_36  OBJ  203.2164430366827
    x_6_36  dem_36  1.0
    x_6_36  cap_6  32.0
    x_6_37  OBJ  26.14737306234344
    x_6_37  dem_37  1.0
    x_6_37  cap_6  8.0
    x_6_38  OBJ  178.09931303578722
    x_6_38  dem_38  1.0
    x_6_38  cap_6  28.0
    x_6_39  OBJ  176.5971411197364
    x_6_39  dem_39  1.0
    x_6_39  cap_6  32.0
    x_6_40  OBJ  173.52375286485545
    x_6_40  dem_40  1.0
    x_6_40  cap_6  31.0
    x_6_41  OBJ  85.67101063686161
    x_6_41  dem_41  1.0
    x_6_41  cap_6  15.0
    x_6_42  OBJ  267.82145028006283
    x_6_42  dem_42  1.0
    x_6_42  cap_6  27.0
    x_6_43  OBJ  45.58869283243378
    x_6_43  dem_43  1.0
    x_6_43  cap_6  9.0
    x_6_44  OBJ  47.82538614250676
    x_6_44  dem_44  1.0
    x_6_44  cap_6  28.0
    x_6_45  OBJ  72.58628257231632
    x_6_45  dem_45  1.0
    x_6_45  cap_6  12.0
    x_6_46  OBJ  130.82178850240064
    x_6_46  dem_46  1.0
    x_6_46  cap_6  15.0
    x_6_47  OBJ  262.5103770026371
    x_6_47  dem_47  1.0
    x_6_47  cap_6  28.0
    x_6_48  OBJ  150.1131129921072
    x_6_48  dem_48  1.0
    x_6_48  cap_6  26.0
    x_6_49  OBJ  28.811513824404262
    x_6_49  dem_49  1.0
    x_6_49  cap_6  12.0
    x_6_50  OBJ  78.47133520397668
    x_6_50  dem_50  1.0
    x_6_50  cap_6  11.0
    x_6_51  OBJ  21.180521873921315
    x_6_51  dem_51  1.0
    x_6_51  cap_6  8.0
    x_6_52  OBJ  221.76035123301844
    x_6_52  dem_52  1.0
    x_6_52  cap_6  24.0
    x_6_53  OBJ  72.38368548374335
    x_6_53  dem_53  1.0
    x_6_53  cap_6  22.0
    x_6_54  OBJ  56.92378279108567
    x_6_54  dem_54  1.0
    x_6_54  cap_6  11.0
    x_6_55  OBJ  79.87312653809727
    x_6_55  dem_55  1.0
    x_6_55  cap_6  32.0
    x_6_56  OBJ  105.79179417285354
    x_6_56  dem_56  1.0
    x_6_56  cap_6  22.0
    x_6_57  OBJ  62.920521820145154
    x_6_57  dem_57  1.0
    x_6_57  cap_6  14.0
    x_6_58  OBJ  232.2210213780721
    x_6_58  dem_58  1.0
    x_6_58  cap_6  29.0
    x_6_59  OBJ  123.90362268617682
    x_6_59  dem_59  1.0
    x_6_59  cap_6  20.0
    x_7_0  OBJ  178.8280890847361
    x_7_0  dem_0  1.0
    x_7_0  cap_7  28.0
    x_7_1  OBJ  111.24071706828553
    x_7_1  dem_1  1.0
    x_7_1  cap_7  22.0
    x_7_2  OBJ  96.22355088377863
    x_7_2  dem_2  1.0
    x_7_2  cap_7  9.0
    x_7_3  OBJ  70.00908327785851
    x_7_3  dem_3  1.0
    x_7_3  cap_7  8.0
    x_7_4  OBJ  274.72848335933395
    x_7_4  dem_4  1.0
    x_7_4  cap_7  27.0
    x_7_5  OBJ  106.64241034324502
    x_7_5  dem_5  1.0
    x_7_5  cap_7  17.0
    x_7_6  OBJ  88.08889129395153
    x_7_6  dem_6  1.0
    x_7_6  cap_7  12.0
    x_7_7  OBJ  13.54836286565257
    x_7_7  dem_7  1.0
    x_7_7  cap_7  24.0
    x_7_8  OBJ  204.82239223573362
    x_7_8  dem_8  1.0
    x_7_8  cap_7  23.0
    x_7_9  OBJ  73.33867151008708
    x_7_9  dem_9  1.0
    x_7_9  cap_7  17.0
    x_7_10  OBJ  103.82684096393764
    x_7_10  dem_10  1.0
    x_7_10  cap_7  11.0
    x_7_11  OBJ  80.52728009363895
    x_7_11  dem_11  1.0
    x_7_11  cap_7  33.0
    x_7_12  OBJ  160.36518911609562
    x_7_12  dem_12  1.0
    x_7_12  cap_7  27.0
    x_7_13  OBJ  113.42182715957787
    x_7_13  dem_13  1.0
    x_7_13  cap_7  15.0
    x_7_14  OBJ  218.18945093463782
    x_7_14  dem_14  1.0
    x_7_14  cap_7  19.0
    x_7_15  OBJ  98.1801945236354
    x_7_15  dem_15  1.0
    x_7_15  cap_7  31.0
    x_7_16  OBJ  99.32916890604182
    x_7_16  dem_16  1.0
    x_7_16  cap_7  24.0
    x_7_17  OBJ  80.89416110457735
    x_7_17  dem_17  1.0
    x_7_17  cap_7  14.0
    x_7_18  OBJ  97.62303859524448
    x_7_18  dem_18  1.0
    x_7_18  cap_7  12.0
    x_7_19  OBJ  151.8025679977614
    x_7_19  dem_19  1.0
    x_7_19  cap_7  16.0
    x_7_20  OBJ  103.89991153124033
    x_7_20  dem_20  1.0
    x_7_20  cap_7  12.0
    x_7_21  OBJ  99.01051812678644
    x_7_21  dem_21  1.0
    x_7_21  cap_7  26.0
    x_7_22  OBJ  43.337966566668314
    x_7_22  dem_22  1.0
    x_7_22  cap_7  10.0
    x_7_23  OBJ  52.095188019831745
    x_7_23  dem_23  1.0
    x_7_23  cap_7  21.0
    x_7_24  OBJ  52.510175254384215
    x_7_24  dem_24  1.0
    x_7_24  cap_7  10.0
    x_7_25  OBJ  194.0148473641137
    x_7_25  dem_25  1.0
    x_7_25  cap_7  32.0
    x_7_26  OBJ  78.7515862823486
    x_7_26  dem_26  1.0
    x_7_26  cap_7  16.0
    x_7_27  OBJ  137.9417849590323
    x_7_27  dem_27  1.0
    x_7_27  cap_7  31.0
    x_7_28  OBJ  22.687182626492465
    x_7_28  dem_28  1.0
    x_7_28  cap_7  9.0
    x_7_29  OBJ  122.70171904201109
    x_7_29  dem_29  1.0
    x_7_29  cap_7  13.0
    x_7_30  OBJ  120.06149637979198
    x_7_30  dem_30  1.0
    x_7_30  cap_7  26.0
    x_7_31  OBJ  36.067115375452154
    x_7_31  dem_31  1.0
    x_7_31  cap_7  14.0
    x_7_32  OBJ  122.27056451225553
    x_7_32  dem_32  1.0
    x_7_32  cap_7  15.0
    x_7_33  OBJ  61.81998854473632
    x_7_33  dem_33  1.0
    x_7_33  cap_7  24.0
    x_7_34  OBJ  298.6765161655836
    x_7_34  dem_34  1.0
    x_7_34  cap_7  34.0
    x_7_35  OBJ  96.58642465990188
    x_7_35  dem_35  1.0
    x_7_35  cap_7  28.0
    x_7_36  OBJ  362.66850753284933
    x_7_36  dem_36  1.0
    x_7_36  cap_7  32.0
    x_7_37  OBJ  63.39214203976881
    x_7_37  dem_37  1.0
    x_7_37  cap_7  8.0
    x_7_38  OBJ  140.44484272815527
    x_7_38  dem_38  1.0
    x_7_38  cap_7  28.0
    x_7_39  OBJ  240.81353907958118
    x_7_39  dem_39  1.0
    x_7_39  cap_7  32.0
    x_7_40  OBJ  163.96149883396396
    x_7_40  dem_40  1.0
    x_7_40  cap_7  31.0
    x_7_41  OBJ  63.59209811494843
    x_7_41  dem_41  1.0
    x_7_41  cap_7  15.0
    x_7_42  OBJ  10.098951743800303
    x_7_42  dem_42  1.0
    x_7_42  cap_7  27.0
    x_7_43  OBJ  47.60850922167283
    x_7_43  dem_43  1.0
    x_7_43  cap_7  9.0
    x_7_44  OBJ  244.860659821307
    x_7_44  dem_44  1.0
    x_7_44  cap_7  28.0
    x_7_45  OBJ  68.24481691655208
    x_7_45  dem_45  1.0
    x_7_45  cap_7  12.0
    x_7_46  OBJ  33.17742988038231
    x_7_46  dem_46  1.0
    x_7_46  cap_7  15.0
    x_7_47  OBJ  124.88770464989886
    x_7_47  dem_47  1.0
    x_7_47  cap_7  28.0
    x_7_48  OBJ  117.162571232325
    x_7_48  dem_48  1.0
    x_7_48  cap_7  26.0
    x_7_49  OBJ  89.68138029460752
    x_7_49  dem_49  1.0
    x_7_49  cap_7  12.0
    x_7_50  OBJ  115.8723442587258
    x_7_50  dem_50  1.0
    x_7_50  cap_7  11.0
    x_7_51  OBJ  57.13429517212472
    x_7_51  dem_51  1.0
    x_7_51  cap_7  8.0
    x_7_52  OBJ  217.29304219717454
    x_7_52  dem_52  1.0
    x_7_52  cap_7  24.0
    x_7_53  OBJ  179.5334953187791
    x_7_53  dem_53  1.0
    x_7_53  cap_7  22.0
    x_7_54  OBJ  113.80494676832875
    x_7_54  dem_54  1.0
    x_7_54  cap_7  11.0
    x_7_55  OBJ  248.83863696193703
    x_7_55  dem_55  1.0
    x_7_55  cap_7  32.0
    x_7_56  OBJ  205.70067707661764
    x_7_56  dem_56  1.0
    x_7_56  cap_7  22.0
    x_7_57  OBJ  76.50946350178597
    x_7_57  dem_57  1.0
    x_7_57  cap_7  14.0
    x_7_58  OBJ  252.19871575913652
    x_7_58  dem_58  1.0
    x_7_58  cap_7  29.0
    x_7_59  OBJ  139.46686150709647
    x_7_59  dem_59  1.0
    x_7_59  cap_7  20.0
    x_8_0  OBJ  31.743439994192393
    x_8_0  dem_0  1.0
    x_8_0  cap_8  28.0
    x_8_1  OBJ  40.5334421764791
    x_8_1  dem_1  1.0
    x_8_1  cap_8  22.0
    x_8_2  OBJ  58.88480143117256
    x_8_2  dem_2  1.0
    x_8_2  cap_8  9.0
    x_8_3  OBJ  25.554031177803743
    x_8_3  dem_3  1.0
    x_8_3  cap_8  8.0
    x_8_4  OBJ  138.48999138335745
    x_8_4  dem_4  1.0
    x_8_4  cap_8  27.0
    x_8_5  OBJ  17.408234650000956
    x_8_5  dem_5  1.0
    x_8_5  cap_8  17.0
    x_8_6  OBJ  93.74982131937702
    x_8_6  dem_6  1.0
    x_8_6  cap_8  12.0
    x_8_7  OBJ  148.39427278931302
    x_8_7  dem_7  1.0
    x_8_7  cap_8  24.0
    x_8_8  OBJ  118.6867918079679
    x_8_8  dem_8  1.0
    x_8_8  cap_8  23.0
    x_8_9  OBJ  51.23687906097134
    x_8_9  dem_9  1.0
    x_8_9  cap_8  17.0
    x_8_10  OBJ  59.19079762785674
    x_8_10  dem_10  1.0
    x_8_10  cap_8  11.0
    x_8_11  OBJ  149.17486069787054
    x_8_11  dem_11  1.0
    x_8_11  cap_8  33.0
    x_8_12  OBJ  185.26830366016029
    x_8_12  dem_12  1.0
    x_8_12  cap_8  27.0
    x_8_13  OBJ  112.64599818799391
    x_8_13  dem_13  1.0
    x_8_13  cap_8  15.0
    x_8_14  OBJ  115.82172504160413
    x_8_14  dem_14  1.0
    x_8_14  cap_8  19.0
    x_8_15  OBJ  153.40389384715164
    x_8_15  dem_15  1.0
    x_8_15  cap_8  31.0
    x_8_16  OBJ  77.16947978265384
    x_8_16  dem_16  1.0
    x_8_16  cap_8  24.0
    x_8_17  OBJ  69.83602949536564
    x_8_17  dem_17  1.0
    x_8_17  cap_8  14.0
    x_8_18  OBJ  96.07842001083031
    x_8_18  dem_18  1.0
    x_8_18  cap_8  12.0
    x_8_19  OBJ  104.57291596062714
    x_8_19  dem_19  1.0
    x_8_19  cap_8  16.0
    x_8_20  OBJ  33.020497989955295
    x_8_20  dem_20  1.0
    x_8_20  cap_8  12.0
    x_8_21  OBJ  77.85354049094073
    x_8_21  dem_21  1.0
    x_8_21  cap_8  26.0
    x_8_22  OBJ  31.93342961718407
    x_8_22  dem_22  1.0
    x_8_22  cap_8  10.0
    x_8_23  OBJ  102.13482459071501
    x_8_23  dem_23  1.0
    x_8_23  cap_8  21.0
    x_8_24  OBJ  24.505330701865372
    x_8_24  dem_24  1.0
    x_8_24  cap_8  10.0
    x_8_25  OBJ  141.72795127755182
    x_8_25  dem_25  1.0
    x_8_25  cap_8  32.0
    x_8_26  OBJ  73.85983091074283
    x_8_26  dem_26  1.0
    x_8_26  cap_8  16.0
    x_8_27  OBJ  125.35252290398402
    x_8_27  dem_27  1.0
    x_8_27  cap_8  31.0
    x_8_28  OBJ  38.97042375260552
    x_8_28  dem_28  1.0
    x_8_28  cap_8  9.0
    x_8_29  OBJ  37.263681027238576
    x_8_29  dem_29  1.0
    x_8_29  cap_8  13.0
    x_8_30  OBJ  179.71272819208298
    x_8_30  dem_30  1.0
    x_8_30  cap_8  26.0
    x_8_31  OBJ  61.62394120115285
    x_8_31  dem_31  1.0
    x_8_31  cap_8  14.0
    x_8_32  OBJ  90.70062831392747
    x_8_32  dem_32  1.0
    x_8_32  cap_8  15.0
    x_8_33  OBJ  104.8115538214951
    x_8_33  dem_33  1.0
    x_8_33  cap_8  24.0
    x_8_34  OBJ  165.5109980274861
    x_8_34  dem_34  1.0
    x_8_34  cap_8  34.0
    x_8_35  OBJ  136.95258826108656
    x_8_35  dem_35  1.0
    x_8_35  cap_8  28.0
    x_8_36  OBJ  189.35210884337363
    x_8_36  dem_36  1.0
    x_8_36  cap_8  32.0
    x_8_37  OBJ  12.63915739414867
    x_8_37  dem_37  1.0
    x_8_37  cap_8  8.0
    x_8_38  OBJ  86.16870705237217
    x_8_38  dem_38  1.0
    x_8_38  cap_8  28.0
    x_8_39  OBJ  100.47202544973246
    x_8_39  dem_39  1.0
    x_8_39  cap_8  32.0
    x_8_40  OBJ  71.21696426270448
    x_8_40  dem_40  1.0
    x_8_40  cap_8  31.0
    x_8_41  OBJ  37.44531212766269
    x_8_41  dem_41  1.0
    x_8_41  cap_8  15.0
    x_8_42  OBJ  183.59122957813457
    x_8_42  dem_42  1.0
    x_8_42  cap_8  27.0
    x_8_43  OBJ  29.0823778519288
    x_8_43  dem_43  1.0
    x_8_43  cap_8  9.0
    x_8_44  OBJ  87.41780291977372
    x_8_44  dem_44  1.0
    x_8_44  cap_8  28.0
    x_8_45  OBJ  34.696791066713125
    x_8_45  dem_45  1.0
    x_8_45  cap_8  12.0
    x_8_46  OBJ  81.32260013360495
    x_8_46  dem_46  1.0
    x_8_46  cap_8  15.0
    x_8_47  OBJ  170.1336608157147
    x_8_47  dem_47  1.0
    x_8_47  cap_8  28.0
    x_8_48  OBJ  63.60355216075819
    x_8_48  dem_48  1.0
    x_8_48  cap_8  26.0
    x_8_49  OBJ  11.830806456781684
    x_8_49  dem_49  1.0
    x_8_49  cap_8  12.0
    x_8_50  OBJ  65.35552424162229
    x_8_50  dem_50  1.0
    x_8_50  cap_8  11.0
    x_8_51  OBJ  9.14174057418127
    x_8_51  dem_51  1.0
    x_8_51  cap_8  8.0
    x_8_52  OBJ  165.3896993336513
    x_8_52  dem_52  1.0
    x_8_52  cap_8  24.0
    x_8_53  OBJ  40.56342674740413
    x_8_53  dem_53  1.0
    x_8_53  cap_8  22.0
    x_8_54  OBJ  51.17015816123443
    x_8_54  dem_54  1.0
    x_8_54  cap_8  11.0
    x_8_55  OBJ  33.68981353232618
    x_8_55  dem_55  1.0
    x_8_55  cap_8  32.0
    x_8_56  OBJ  82.68751800655895
    x_8_56  dem_56  1.0
    x_8_56  cap_8  22.0
    x_8_57  OBJ  33.240557757254464
    x_8_57  dem_57  1.0
    x_8_57  cap_8  14.0
    x_8_58  OBJ  167.08826238520484
    x_8_58  dem_58  1.0
    x_8_58  cap_8  29.0
    x_8_59  OBJ  70.0541109244699
    x_8_59  dem_59  1.0
    x_8_59  cap_8  20.0
    x_9_0  OBJ  42.655297204922526
    x_9_0  dem_0  1.0
    x_9_0  cap_9  28.0
    x_9_1  OBJ  40.91945104452661
    x_9_1  dem_1  1.0
    x_9_1  cap_9  22.0
    x_9_2  OBJ  61.77902796156341
    x_9_2  dem_2  1.0
    x_9_2  cap_9  9.0
    x_9_3  OBJ  22.501355638161222
    x_9_3  dem_3  1.0
    x_9_3  cap_9  8.0
    x_9_4  OBJ  146.03878391142138
    x_9_4  dem_4  1.0
    x_9_4  cap_9  27.0
    x_9_5  OBJ  23.9393259646928
    x_9_5  dem_5  1.0
    x_9_5  cap_9  17.0
    x_9_6  OBJ  98.34018806282637
    x_9_6  dem_6  1.0
    x_9_6  cap_9  12.0
    x_9_7  OBJ  151.78575526971048
    x_9_7  dem_7  1.0
    x_9_7  cap_9  24.0
    x_9_8  OBJ  126.92470700907681
    x_9_8  dem_8  1.0
    x_9_8  cap_9  23.0
    x_9_9  OBJ  56.23039204091576
    x_9_9  dem_9  1.0
    x_9_9  cap_9  17.0
    x_9_10  OBJ  62.94585984810301
    x_9_10  dem_10  1.0
    x_9_10  cap_9  11.0
    x_9_11  OBJ  155.83211581832677
    x_9_11  dem_11  1.0
    x_9_11  cap_9  33.0
    x_9_12  OBJ  195.2026159259986
    x_9_12  dem_12  1.0
    x_9_12  cap_9  27.0
    x_9_13  OBJ  118.44746994011898
    x_9_13  dem_13  1.0
    x_9_13  cap_9  15.0
    x_9_14  OBJ  120.20345775028898
    x_9_14  dem_14  1.0
    x_9_14  cap_9  19.0
    x_9_15  OBJ  162.0998840470195
    x_9_15  dem_15  1.0
    x_9_15  cap_9  31.0
    x_9_16  OBJ  84.09980951382144
    x_9_16  dem_16  1.0
    x_9_16  cap_9  24.0
    x_9_17  OBJ  75.12676901857625
    x_9_17  dem_17  1.0
    x_9_17  cap_9  14.0
    x_9_18  OBJ  100.74225003471369
    x_9_18  dem_18  1.0
    x_9_18  cap_9  12.0
    x_9_19  OBJ  110.48137259843588
    x_9_19  dem_19  1.0
    x_9_19  cap_9  16.0
    x_9_20  OBJ  28.62357988618218
    x_9_20  dem_20  1.0
    x_9_20  cap_9  12.0
    x_9_21  OBJ  79.94649851237943
    x_9_21  dem_21  1.0
    x_9_21  cap_9  26.0
    x_9_22  OBJ  34.996972425808
    x_9_22  dem_22  1.0
    x_9_22  cap_9  10.0
    x_9_23  OBJ  107.00359839156411
    x_9_23  dem_23  1.0
    x_9_23  cap_9  21.0
    x_9_24  OBJ  28.019469489162766
    x_9_24  dem_24  1.0
    x_9_24  cap_9  10.0
    x_9_25  OBJ  154.0450693061641
    x_9_25  dem_25  1.0
    x_9_25  cap_9  32.0
    x_9_26  OBJ  79.57123779510407
    x_9_26  dem_26  1.0
    x_9_26  cap_9  16.0
    x_9_27  OBJ  135.75985367267023
    x_9_27  dem_27  1.0
    x_9_27  cap_9  31.0
    x_9_28  OBJ  40.659936630087586
    x_9_28  dem_28  1.0
    x_9_28  cap_9  9.0
    x_9_29  OBJ  34.19194523095037
    x_9_29  dem_29  1.0
    x_9_29  cap_9  13.0
    x_9_30  OBJ  188.36682118778432
    x_9_30  dem_30  1.0
    x_9_30  cap_9  26.0
    x_9_31  OBJ  62.46384758272391
    x_9_31  dem_31  1.0
    x_9_31  cap_9  14.0
    x_9_32  OBJ  96.51232747992108
    x_9_32  dem_32  1.0
    x_9_32  cap_9  15.0
    x_9_33  OBJ  106.37633018012858
    x_9_33  dem_33  1.0
    x_9_33  cap_9  24.0
    x_9_34  OBJ  177.595906157042
    x_9_34  dem_34  1.0
    x_9_34  cap_9  34.0
    x_9_35  OBJ  145.21497987152517
    x_9_35  dem_35  1.0
    x_9_35  cap_9  28.0
    x_9_36  OBJ  196.71323285940733
    x_9_36  dem_36  1.0
    x_9_36  cap_9  32.0
    x_9_37  OBJ  14.315271811032787
    x_9_37  dem_37  1.0
    x_9_37  cap_9  8.0
    x_9_38  OBJ  96.00461640934402
    x_9_38  dem_38  1.0
    x_9_38  cap_9  28.0
    x_9_39  OBJ  112.2765329032784
    x_9_39  dem_39  1.0
    x_9_39  cap_9  32.0
    x_9_40  OBJ  82.04007342479653
    x_9_40  dem_40  1.0
    x_9_40  cap_9  31.0
    x_9_41  OBJ  40.0580223313984
    x_9_41  dem_41  1.0
    x_9_41  cap_9  15.0
    x_9_42  OBJ  187.66206566678974
    x_9_42  dem_42  1.0
    x_9_42  cap_9  27.0
    x_9_43  OBJ  27.364260317480188
    x_9_43  dem_43  1.0
    x_9_43  cap_9  9.0
    x_9_44  OBJ  76.79356578982708
    x_9_44  dem_44  1.0
    x_9_44  cap_9  28.0
    x_9_45  OBJ  39.24069357667493
    x_9_45  dem_45  1.0
    x_9_45  cap_9  12.0
    x_9_46  OBJ  84.82775043259679
    x_9_46  dem_46  1.0
    x_9_46  cap_9  15.0
    x_9_47  OBJ  179.54380562662513
    x_9_47  dem_47  1.0
    x_9_47  cap_9  28.0
    x_9_48  OBJ  70.33789538530083
    x_9_48  dem_48  1.0
    x_9_48  cap_9  26.0
    x_9_49  OBJ  8.04429000104795
    x_9_49  dem_49  1.0
    x_9_49  cap_9  12.0
    x_9_50  OBJ  68.67696200442286
    x_9_50  dem_50  1.0
    x_9_50  cap_9  11.0
    x_9_51  OBJ  6.019676673268815
    x_9_51  dem_51  1.0
    x_9_51  cap_9  8.0
    x_9_52  OBJ  174.5817738564816
    x_9_52  dem_52  1.0
    x_9_52  cap_9  24.0
    x_9_53  OBJ  44.92139950884502
    x_9_53  dem_53  1.0
    x_9_53  cap_9  22.0
    x_9_54  OBJ  53.564788833150715
    x_9_54  dem_54  1.0
    x_9_54  cap_9  11.0
    x_9_55  OBJ  32.49150400601804
    x_9_55  dem_55  1.0
    x_9_55  cap_9  32.0
    x_9_56  OBJ  88.24987112938231
    x_9_56  dem_56  1.0
    x_9_56  cap_9  22.0
    x_9_57  OBJ  30.801028798222866
    x_9_57  dem_57  1.0
    x_9_57  cap_9  14.0
    x_9_58  OBJ  177.99518837594806
    x_9_58  dem_58  1.0
    x_9_58  cap_9  29.0
    x_9_59  OBJ  77.80497927667166
    x_9_59  dem_59  1.0
    x_9_59  cap_9  20.0
    x_10_0  OBJ  55.5609506869928
    x_10_0  dem_0  1.0
    x_10_0  cap_10  28.0
    x_10_1  OBJ  43.61471620925373
    x_10_1  dem_1  1.0
    x_10_1  cap_10  22.0
    x_10_2  OBJ  65.27658810246143
    x_10_2  dem_2  1.0
    x_10_2  cap_10  9.0
    x_10_3  OBJ  18.922620772342196
    x_10_3  dem_3  1.0
    x_10_3  cap_10  8.0
    x_10_4  OBJ  155.4048721993118
    x_10_4  dem_4  1.0
    x_10_4  cap_10  27.0
    x_10_5  OBJ  31.71487882925615
    x_10_5  dem_5  1.0
    x_10_5  cap_10  17.0
    x_10_6  OBJ  103.77667701119768
    x_10_6  dem_6  1.0
    x_10_6  cap_10  12.0
    x_10_7  OBJ  156.42984450902446
    x_10_7  dem_7  1.0
    x_10_7  cap_10  24.0
    x_10_8  OBJ  136.77845907840103
    x_10_8  dem_8  1.0
    x_10_8  cap_10  23.0
    x_10_9  OBJ  62.529750487333025
    x_10_9  dem_9  1.0
    x_10_9  cap_10  17.0
    x_10_10  OBJ  67.46531305024466
    x_10_10  dem_10  1.0
    x_10_10  cap_10  11.0
    x_10_11  OBJ  164.66234436661347
    x_10_11  dem_11  1.0
    x_10_11  cap_10  33.0
    x_10_12  OBJ  207.02283842822627
    x_10_12  dem_12  1.0
    x_10_12  cap_10  27.0
    x_10_13  OBJ  125.31082919085638
    x_10_13  dem_13  1.0
    x_10_13  cap_10  15.0
    x_10_14  OBJ  125.74561396506745
    x_10_14  dem_14  1.0
    x_10_14  cap_10  19.0
    x_10_15  OBJ  172.91147973501316
    x_10_15  dem_15  1.0
    x_10_15  cap_10  31.0
    x_10_16  OBJ  92.84778784923532
    x_10_16  dem_16  1.0
    x_10_16  cap_10  24.0
    x_10_17  OBJ  81.41011393443465
    x_10_17  dem_17  1.0
    x_10_17  cap_10  14.0
    x_10_18  OBJ  106.25672948729661
    x_10_18  dem_18  1.0
    x_10_18  cap_10  12.0
    x_10_19  OBJ  117.50784342296603
    x_10_19  dem_19  1.0
    x_10_19  cap_10  16.0
    x_10_20  OBJ  23.568937513463567
    x_10_20  dem_20  1.0
    x_10_20  cap_10  12.0
    x_10_21  OBJ  83.95543704084876
    x_10_21  dem_21  1.0
    x_10_21  cap_10  26.0
    x_10_22  OBJ  38.81398571771583
    x_10_22  dem_22  1.0
    x_10_22  cap_10  10.0
    x_10_23  OBJ  113.25829191031058
    x_10_23  dem_23  1.0
    x_10_23  cap_10  21.0
    x_10_24  OBJ  32.28916646636827
    x_10_24  dem_24  1.0
    x_10_24  cap_10  10.0
    x_10_25  OBJ  168.6362539891275
    x_10_25  dem_25  1.0
    x_10_25  cap_10  32.0
    x_10_26  OBJ  86.41816120336206
    x_10_26  dem_26  1.0
    x_10_26  cap_10  16.0
    x_10_27  OBJ  148.39511924564027
    x_10_27  dem_27  1.0
    x_10_27  cap_10  31.0
    x_10_28  OBJ  42.944542172813215
    x_10_28  dem_28  1.0
    x_10_28  cap_10  9.0
    x_10_29  OBJ  31.23920235709403
    x_10_29  dem_29  1.0
    x_10_29  cap_10  13.0
    x_10_30  OBJ  198.78047905370556
    x_10_30  dem_30  1.0
    x_10_30  cap_10  26.0
    x_10_31  OBJ  64.04999511321763
    x_10_31  dem_31  1.0
    x_10_31  cap_10  14.0
    x_10_32  OBJ  103.38668039809666
    x_10_32  dem_32  1.0
    x_10_32  cap_10  15.0
    x_10_33  OBJ  109.24379006330796
    x_10_33  dem_33  1.0
    x_10_33  cap_10  24.0
    x_10_34  OBJ  192.07695132279164
    x_10_34  dem_34  1.0
    x_10_34  cap_10  34.0
    x_10_35  OBJ  155.40976623716443
    x_10_35  dem_35  1.0
    x_10_35  cap_10  28.0
    x_10_36  OBJ  206.0443912617493
    x_10_36  dem_36  1.0
    x_10_36  cap_10  32.0
    x_10_37  OBJ  16.835036860649183
    x_10_37  dem_37  1.0
    x_10_37  cap_10  8.0
    x_10_38  OBJ  107.90377586997224
    x_10_38  dem_38  1.0
    x_10_38  cap_10  28.0
    x_10_39  OBJ  126.39544712536517
    x_10_39  dem_39  1.0
    x_10_39  cap_10  32.0
    x_10_40  OBJ  95.23185796723794
    x_10_40  dem_40  1.0
    x_10_40  cap_10  31.0
    x_10_41  OBJ  43.96203974883959
    x_10_41  dem_41  1.0
    x_10_41  cap_10  15.0
    x_10_42  OBJ  193.11189470154602
    x_10_42  dem_42  1.0
    x_10_42  cap_10  27.0
    x_10_43  OBJ  25.809668073860433
    x_10_43  dem_43  1.0
    x_10_43  cap_10  9.0
    x_10_44  OBJ  64.36751553879644
    x_10_44  dem_44  1.0
    x_10_44  cap_10  28.0
    x_10_45  OBJ  44.64895418113382
    x_10_45  dem_45  1.0
    x_10_45  cap_10  12.0
    x_10_46  OBJ  89.29162119037002
    x_10_46  dem_46  1.0
    x_10_46  cap_10  15.0
    x_10_47  OBJ  190.87761849346677
    x_10_47  dem_47  1.0
    x_10_47  cap_10  28.0
    x_10_48  OBJ  79.2451622695754
    x_10_48  dem_48  1.0
    x_10_48  cap_10  26.0
    x_10_49  OBJ  5.68465194701106
    x_10_49  dem_49  1.0
    x_10_49  cap_10  12.0
    x_10_50  OBJ  72.73195604735244
    x_10_50  dem_50  1.0
    x_10_50  cap_10  11.0
    x_10_51  OBJ  2.333252571151705
    x_10_51  dem_51  1.0
    x_10_51  cap_10  8.0
    x_10_52  OBJ  185.4668611611903
    x_10_52  dem_52  1.0
    x_10_52  cap_10  24.0
    x_10_53  OBJ  51.45819572874437
    x_10_53  dem_53  1.0
    x_10_53  cap_10  22.0
    x_10_54  OBJ  56.68218581391144
    x_10_54  dem_54  1.0
    x_10_54  cap_10  11.0
    x_10_55  OBJ  36.92924770215961
    x_10_55  dem_55  1.0
    x_10_55  cap_10  32.0
    x_10_56  OBJ  95.39981333096051
    x_10_56  dem_56  1.0
    x_10_56  cap_10  22.0
    x_10_57  OBJ  29.005269034446304
    x_10_57  dem_57  1.0
    x_10_57  cap_10  14.0
    x_10_58  OBJ  190.94546578065803
    x_10_58  dem_58  1.0
    x_10_58  cap_10  29.0
    x_10_59  OBJ  86.9776539648083
    x_10_59  dem_59  1.0
    x_10_59  cap_10  20.0
    x_11_0  OBJ  203.08570366555026
    x_11_0  dem_0  1.0
    x_11_0  cap_11  28.0
    x_11_1  OBJ  119.9972752497381
    x_11_1  dem_1  1.0
    x_11_1  cap_11  22.0
    x_11_2  OBJ  109.56550246520571
    x_11_2  dem_2  1.0
    x_11_2  cap_11  9.0
    x_11_3  OBJ  68.9233381662786
    x_11_3  dem_3  1.0
    x_11_3  cap_11  8.0
    x_11_4  OBJ  308.8852367100821
    x_11_4  dem_4  1.0
    x_11_4  cap_11  27.0
    x_11_5  OBJ  120.75643586901128
    x_11_5  dem_5  1.0
    x_11_5  cap_11  17.0
    x_11_6  OBJ  111.67150554197033
    x_11_6  dem_6  1.0
    x_11_6  cap_11  12.0
    x_11_7  OBJ  55.315239245067616
    x_11_7  dem_7  1.0
    x_11_7  cap_11  24.0
    x_11_8  OBJ  238.98439842164234
    x_11_8  dem_8  1.0
    x_11_8  cap_11  23.0
    x_11_9  OBJ  94.16351999001017
    x_11_9  dem_9  1.0
    x_11_9  cap_11  17.0
    x_11_10  OBJ  119.79546804665081
    x_11_10  dem_10  1.0
    x_11_10  cap_11  11.0
    x_11_11  OBJ  126.64602839823726
    x_11_11  dem_11  1.0
    x_11_11  cap_11  33.0
    x_11_12  OBJ  213.09884535809047
    x_11_12  dem_12  1.0
    x_11_12  cap_11  27.0
    x_11_13  OBJ  142.38576044279108
    x_11_13  dem_13  1.0
    x_11_13  cap_11  15.0
    x_11_14  OBJ  241.24181778796756
    x_11_14  dem_14  1.0
    x_11_14  cap_11  19.0
    x_11_15  OBJ  152.30390258003527
    x_11_15  dem_15  1.0
    x_11_15  cap_11  31.0
    x_11_16  OBJ  129.83909169508303
    x_11_16  dem_16  1.0
    x_11_16  cap_11  24.0
    x_11_17  OBJ  105.12258024753692
    x_11_17  dem_17  1.0
    x_11_17  cap_11  14.0
    x_11_18  OBJ  120.91538463209527
    x_11_18  dem_18  1.0
    x_11_18  cap_11  12.0
    x_11_19  OBJ  178.20920006521038
    x_11_19  dem_19  1.0
    x_11_19  cap_11  16.0
    x_11_20  OBJ  103.89323804317694
    x_11_20  dem_20  1.0
    x_11_20  cap_11  12.0
    x_11_21  OBJ  112.2889403146623
    x_11_21  dem_21  1.0
    x_11_21  cap_11  26.0
    x_11_22  OBJ  56.358145617667994
    x_11_22  dem_22  1.0
    x_11_22  cap_11  10.0
    x_11_23  OBJ  86.32902002731387
    x_11_23  dem_23  1.0
    x_11_23  cap_11  21.0
    x_11_24  OBJ  64.23193013522905
    x_11_24  dem_24  1.0
    x_11_24  cap_11  10.0
    x_11_25  OBJ  245.88472369972396
    x_11_25  dem_25  1.0
    x_11_25  cap_11  32.0
    x_11_26  OBJ  105.89792713115351
    x_11_26  dem_26  1.0
    x_11_26  cap_11  16.0
    x_11_27  OBJ  186.64603657535423
    x_11_27  dem_27  1.0
    x_11_27  cap_11  31.0
    x_11_28  OBJ  34.06007810923594
    x_11_28  dem_28  1.0
    x_11_28  cap_11  9.0
    x_11_29  OBJ  126.10083491793712
    x_11_29  dem_29  1.0
    x_11_29  cap_11  13.0
    x_11_30  OBJ  171.99112670279243
    x_11_30  dem_30  1.0
    x_11_30  cap_11  26.0
    x_11_31  OBJ  40.767064353594186
    x_11_31  dem_31  1.0
    x_11_31  cap_11  14.0
    x_11_32  OBJ  148.0195718655101
    x_11_32  dem_32  1.0
    x_11_32  cap_11  15.0
    x_11_33  OBJ  70.97310119185666
    x_11_33  dem_33  1.0
    x_11_33  cap_11  24.0
    x_11_34  OBJ  347.8311402615342
    x_11_34  dem_34  1.0
    x_11_34  cap_11  34.0
    x_11_35  OBJ  145.44849892154616
    x_11_35  dem_35  1.0
    x_11_35  cap_11  28.0
    x_11_36  OBJ  401.11631798874856
    x_11_36  dem_36  1.0
    x_11_36  cap_11  32.0
    x_11_37  OBJ  69.61523506782294
    x_11_37  dem_37  1.0
    x_11_37  cap_11  8.0
    x_11_38  OBJ  177.95436764577656
    x_11_38  dem_38  1.0
    x_11_38  cap_11  28.0
    x_11_39  OBJ  280.9556058323213
    x_11_39  dem_39  1.0
    x_11_39  cap_11  32.0
    x_11_40  OBJ  198.9101871303764
    x_11_40  dem_40  1.0
    x_11_40  cap_11  31.0
    x_11_41  OBJ  75.30037977618153
    x_11_41  dem_41  1.0
    x_11_41  cap_11  15.0
    x_11_42  OBJ  64.12585374518179
    x_11_42  dem_42  1.0
    x_11_42  cap_11  27.0
    x_11_43  OBJ  44.754745147707936
    x_11_43  dem_43  1.0
    x_11_43  cap_11  9.0
    x_11_44  OBJ  241.72109007198605
    x_11_44  dem_44  1.0
    x_11_44  cap_11  28.0
    x_11_45  OBJ  83.9874194331461
    x_11_45  dem_45  1.0
    x_11_45  cap_11  12.0
    x_11_46  OBJ  60.31487231735413
    x_11_46  dem_46  1.0
    x_11_46  cap_11  15.0
    x_11_47  OBJ  178.99804770033086
    x_11_47  dem_47  1.0
    x_11_47  cap_11  28.0
    x_11_48  OBJ  142.95362946111135
    x_11_48  dem_48  1.0
    x_11_48  cap_11  26.0
    x_11_49  OBJ  94.04565453473653
    x_11_49  dem_49  1.0
    x_11_49  cap_11  12.0
    x_11_50  OBJ  131.0958448792229
    x_11_50  dem_50  1.0
    x_11_50  cap_11  11.0
    x_11_51  OBJ  59.15958770286185
    x_11_51  dem_51  1.0
    x_11_51  cap_11  8.0
    x_11_52  OBJ  259.2872480425734
    x_11_52  dem_52  1.0
    x_11_52  cap_11  24.0
    x_11_53  OBJ  197.1125121256744
    x_11_53  dem_53  1.0
    x_11_53  cap_11  22.0
    x_11_54  OBJ  125.8129502547775
    x_11_54  dem_54  1.0
    x_11_54  cap_11  11.0
    x_11_55  OBJ  265.9209578351849
    x_11_55  dem_55  1.0
    x_11_55  cap_11  32.0
    x_11_56  OBJ  229.62105281383305
    x_11_56  dem_56  1.0
    x_11_56  cap_11  22.0
    x_11_57  OBJ  76.29094516872809
    x_11_57  dem_57  1.0
    x_11_57  cap_11  14.0
    x_11_58  OBJ  299.089639353062
    x_11_58  dem_58  1.0
    x_11_58  cap_11  29.0
    x_11_59  OBJ  167.15737872744472
    x_11_59  dem_59  1.0
    x_11_59  cap_11  20.0
    x_12_0  OBJ  167.31329135739105
    x_12_0  dem_0  1.0
    x_12_0  cap_12  28.0
    x_12_1  OBJ  92.95384113649197
    x_12_1  dem_1  1.0
    x_12_1  cap_12  22.0
    x_12_2  OBJ  98.44545895057198
    x_12_2  dem_2  1.0
    x_12_2  cap_12  9.0
    x_12_3  OBJ  60.6394534076602
    x_12_3  dem_3  1.0
    x_12_3  cap_12  8.0
    x_12_4  OBJ  274.5788552858304
    x_12_4  dem_4  1.0
    x_12_4  cap_12  27.0
    x_12_5  OBJ  99.06574930567345
    x_12_5  dem_5  1.0
    x_12_5  cap_12  17.0
    x_12_6  OBJ  100.82704724486537
    x_12_6  dem_6  1.0
    x_12_6  cap_12  12.0
    x_12_7  OBJ  37.829990522650085
    x_12_7  dem_7  1.0
    x_12_7  cap_12  24.0
    x_12_8  OBJ  210.69184248215623
    x_12_8  dem_8  1.0
    x_12_8  cap_12  23.0
    x_12_9  OBJ  72.82630619798776
    x_12_9  dem_9  1.0
    x_12_9  cap_12  17.0
    x_12_10  OBJ  106.15878950708809
    x_12_10  dem_10  1.0
    x_12_10  cap_12  11.0
    x_12_11  OBJ  88.06276759440539
    x_12_11  dem_11  1.0
    x_12_11  cap_12  33.0
    x_12_12  OBJ  188.49740857455998
    x_12_12  dem_12  1.0
    x_12_12  cap_12  27.0
    x_12_13  OBJ  127.99119516778323
    x_12_13  dem_13  1.0
    x_12_13  cap_12  15.0
    x_12_14  OBJ  216.99821223222207
    x_12_14  dem_14  1.0
    x_12_14  cap_12  19.0
    x_12_15  OBJ  119.70183353271356
    x_12_15  dem_15  1.0
    x_12_15  cap_12  31.0
    x_12_16  OBJ  99.9453969132982
    x_12_16  dem_16  1.0
    x_12_16  cap_12  24.0
    x_12_17  OBJ  89.5328049095278
    x_12_17  dem_17  1.0
    x_12_17  cap_12  14.0
    x_12_18  OBJ  109.52193360832807
    x_12_18  dem_18  1.0
    x_12_18  cap_12  12.0
    x_12_19  OBJ  159.36589713555438
    x_12_19  dem_19  1.0
    x_12_19  cap_12  16.0
    x_12_20  OBJ  90.85015710499223
    x_12_20  dem_20  1.0
    x_12_20  cap_12  12.0
    x_12_21  OBJ  79.47347260223448
    x_12_21  dem_21  1.0
    x_12_21  cap_12  26.0
    x_12_22  OBJ  43.935639149529216
    x_12_22  dem_22  1.0
    x_12_22  cap_12  10.0
    x_12_23  OBJ  63.567518054318725
    x_12_23  dem_23  1.0
    x_12_23  cap_12  21.0
    x_12_24  OBJ  51.547868815284254
    x_12_24  dem_24  1.0
    x_12_24  cap_12  10.0
    x_12_25  OBJ  208.4563612575261
    x_12_25  dem_25  1.0
    x_12_25  cap_12  32.0
    x_12_26  OBJ  87.96353482431047
    x_12_26  dem_26  1.0
    x_12_26  cap_12  16.0
    x_12_27  OBJ  150.39215108391784
    x_12_27  dem_27  1.0
    x_12_27  cap_12  31.0
    x_12_28  OBJ  23.184522511414404
    x_12_28  dem_28  1.0
    x_12_28  cap_12  9.0
    x_12_29  OBJ  110.95192406919959
    x_12_29  dem_29  1.0
    x_12_29  cap_12  13.0
    x_12_30  OBJ  151.30532529903334
    x_12_30  dem_30  1.0
    x_12_30  cap_12  26.0
    x_12_31  OBJ  23.0205517383794
    x_12_31  dem_31  1.0
    x_12_31  cap_12  14.0
    x_12_32  OBJ  130.9151917821651
    x_12_32  dem_32  1.0
    x_12_32  cap_12  15.0
    x_12_33  OBJ  40.457527945012025
    x_12_33  dem_33  1.0
    x_12_33  cap_12  24.0
    x_12_34  OBJ  305.69925335243863
    x_12_34  dem_34  1.0
    x_12_34  cap_12  34.0
    x_12_35  OBJ  115.72625321521159
    x_12_35  dem_35  1.0
    x_12_35  cap_12  28.0
    x_12_36  OBJ  360.26445325254224
    x_12_36  dem_36  1.0
    x_12_36  cap_12  32.0
    x_12_37  OBJ  59.46994144188094
    x_12_37  dem_37  1.0
    x_12_37  cap_12  8.0
    x_12_38  OBJ  143.180855027959
    x_12_38  dem_38  1.0
    x_12_38  cap_12  28.0
    x_12_39  OBJ  240.40360918286865
    x_12_39  dem_39  1.0
    x_12_39  cap_12  32.0
    x_12_40  OBJ  159.456397833032
    x_12_40  dem_40  1.0
    x_12_40  cap_12  31.0
    x_12_41  OBJ  56.11791368120273
    x_12_41  dem_41  1.0
    x_12_41  cap_12  15.0
    x_12_42  OBJ  53.51395965852146
    x_12_42  dem_42  1.0
    x_12_42  cap_12  27.0
    x_12_43  OBJ  35.777741812104516
    x_12_43  dem_43  1.0
    x_12_43  cap_12  9.0
    x_12_44  OBJ  212.46610921991024
    x_12_44  dem_44  1.0
    x_12_44  cap_12  28.0
    x_12_45  OBJ  68.96435664583831
    x_12_45  dem_45  1.0
    x_12_45  cap_12  12.0
    x_12_46  OBJ  45.88202418630027
    x_12_46  dem_46  1.0
    x_12_46  cap_12  15.0
    x_12_47  OBJ  153.25051139791879
    x_12_47  dem_47  1.0
    x_12_47  cap_12  28.0
    x_12_48  OBJ  109.72028626009595
    x_12_48  dem_48  1.0
    x_12_48  cap_12  26.0
    x_12_49  OBJ  79.62668946717108
    x_12_49  dem_49  1.0
    x_12_49  cap_12  12.0
    x_12_50  OBJ  117.28735299371483
    x_12_50  dem_50  1.0
    x_12_50  cap_12  11.0
    x_12_51  OBJ  49.74883563894247
    x_12_51  dem_51  1.0
    x_12_51  cap_12  8.0
    x_12_52  OBJ  232.24782119053975
    x_12_52  dem_52  1.0
    x_12_52  cap_12  24.0
    x_12_53  OBJ  169.18051960303902
    x_12_53  dem_53  1.0
    x_12_53  cap_12  22.0
    x_12_54  OBJ  111.73169876372648
    x_12_54  dem_54  1.0
    x_12_54  cap_12  11.0
    x_12_55  OBJ  226.40170048292853
    x_12_55  dem_55  1.0
    x_12_55  cap_12  32.0
    x_12_56  OBJ  201.4614883158494
    x_12_56  dem_56  1.0
    x_12_56  cap_12  22.0
    x_12_57  OBJ  60.69969241429508
    x_12_57  dem_57  1.0
    x_12_57  cap_12  14.0
    x_12_58  OBJ  264.6404812762632
    x_12_58  dem_58  1.0
    x_12_58  cap_12  29.0
    x_12_59  OBJ  142.25063899960503
    x_12_59  dem_59  1.0
    x_12_59  cap_12  20.0
    x_13_0  OBJ  95.75068311135058
    x_13_0  dem_0  1.0
    x_13_0  cap_13  28.0
    x_13_1  OBJ  72.94439093132266
    x_13_1  dem_1  1.0
    x_13_1  cap_13  22.0
    x_13_2  OBJ  63.994760182985445
    x_13_2  dem_2  1.0
    x_13_2  cap_13  9.0
    x_13_3  OBJ  56.85394179590404
    x_13_3  dem_3  1.0
    x_13_3  cap_13  8.0
    x_13_4  OBJ  178.8875882675629
    x_13_4  dem_4  1.0
    x_13_4  cap_13  27.0
    x_13_5  OBJ  57.50205843294979
    x_13_5  dem_5  1.0
    x_13_5  cap_13  17.0
    x_13_6  OBJ  57.78606444439714
    x_13_6  dem_6  1.0
    x_13_6  cap_13  12.0
    x_13_7  OBJ  73.24104999794444
    x_13_7  dem_7  1.0
    x_13_7  cap_13  24.0
    x_13_8  OBJ  122.42015631349338
    x_13_8  dem_8  1.0
    x_13_8  cap_13  23.0
    x_13_9  OBJ  20.269526658261732
    x_13_9  dem_9  1.0
    x_13_9  cap_13  17.0
    x_13_10  OBJ  64.38107589897952
    x_13_10  dem_10  1.0
    x_13_10  cap_13  11.0
    x_13_11  OBJ  43.48042231543853
    x_13_11  dem_11  1.0
    x_13_11  cap_13  33.0
    x_13_12  OBJ  93.78112581618663
    x_13_12  dem_12  1.0
    x_13_12  cap_13  27.0
    x_13_13  OBJ  72.01898778983852
    x_13_13  dem_13  1.0
    x_13_13  cap_13  15.0
    x_13_14  OBJ  151.0337487592284
    x_13_14  dem_14  1.0
    x_13_14  cap_13  19.0
    x_13_15  OBJ  23.321952121168458
    x_13_15  dem_15  1.0
    x_13_15  cap_13  31.0
    x_13_16  OBJ  23.781603314124748
    x_13_16  dem_16  1.0
    x_13_16  cap_13  24.0
    x_13_17  OBJ  33.967000522478884
    x_13_17  dem_17  1.0
    x_13_17  cap_13  14.0
    x_13_18  OBJ  64.79672015915968
    x_13_18  dem_18  1.0
    x_13_18  cap_13  12.0
    x_13_19  OBJ  95.91802789869313
    x_13_19  dem_19  1.0
    x_13_19  cap_13  16.0
    x_13_20  OBJ  81.54131582536682
    x_13_20  dem_20  1.0
    x_13_20  cap_13  12.0
    x_13_21  OBJ  67.33222353019035
    x_13_21  dem_21  1.0
    x_13_21  cap_13  26.0
    x_13_22  OBJ  10.395279016203935
    x_13_22  dem_22  1.0
    x_13_22  cap_13  10.0
    x_13_23  OBJ  23.23359942153534
    x_13_23  dem_23  1.0
    x_13_23  cap_13  21.0
    x_13_24  OBJ  19.790288991552977
    x_13_24  dem_24  1.0
    x_13_24  cap_13  10.0
    x_13_25  OBJ  81.29854892085882
    x_13_25  dem_25  1.0
    x_13_25  cap_13  32.0
    x_13_26  OBJ  24.491516828511603
    x_13_26  dem_26  1.0
    x_13_26  cap_13  16.0
    x_13_27  OBJ  27.27988258417297
    x_13_27  dem_27  1.0
    x_13_27  cap_13  31.0
    x_13_28  OBJ  12.98565350234197
    x_13_28  dem_28  1.0
    x_13_28  cap_13  9.0
    x_13_29  OBJ  91.83833538422955
    x_13_29  dem_29  1.0
    x_13_29  cap_13  13.0
    x_13_30  OBJ  76.00811720186735
    x_13_30  dem_30  1.0
    x_13_30  cap_13  26.0
    x_13_31  OBJ  40.85871700711002
    x_13_31  dem_31  1.0
    x_13_31  cap_13  14.0
    x_13_32  OBJ  71.1233702706104
    x_13_32  dem_32  1.0
    x_13_32  cap_13  15.0
    x_13_33  OBJ  68.43386438358861
    x_13_33  dem_33  1.0
    x_13_33  cap_13  24.0
    x_13_34  OBJ  176.73704730113894
    x_13_34  dem_34  1.0
    x_13_34  cap_13  34.0
    x_13_35  OBJ  19.571217431725774
    x_13_35  dem_35  1.0
    x_13_35  cap_13  28.0
    x_13_36  OBJ  249.78195730319356
    x_13_36  dem_36  1.0
    x_13_36  cap_13  32.0
    x_13_37  OBJ  39.32910156518723
    x_13_37  dem_37  1.0
    x_13_37  cap_13  8.0
    x_13_38  OBJ  43.06451266267803
    x_13_38  dem_38  1.0
    x_13_38  cap_13  28.0
    x_13_39  OBJ  128.4314794840629
    x_13_39  dem_39  1.0
    x_13_39  cap_13  32.0
    x_13_40  OBJ  64.57330412871299
    x_13_40  dem_40  1.0
    x_13_40  cap_13  31.0
    x_13_41  OBJ  32.31276776031559
    x_13_41  dem_41  1.0
    x_13_41  cap_13  15.0
    x_13_42  OBJ  93.35226705649077
    x_13_42  dem_42  1.0
    x_13_42  cap_13  27.0
    x_13_43  OBJ  42.77567745293539
    x_13_43  dem_43  1.0
    x_13_43  cap_13  9.0
    x_13_44  OBJ  197.705245670009
    x_13_44  dem_44  1.0
    x_13_44  cap_13  28.0
    x_13_45  OBJ  26.297376560900013
    x_13_45  dem_45  1.0
    x_13_45  cap_13  12.0
    x_13_46  OBJ  22.64804358623703
    x_13_46  dem_46  1.0
    x_13_46  cap_13  15.0
    x_13_47  OBJ  60.89239204916673
    x_13_47  dem_47  1.0
    x_13_47  cap_13  28.0
    x_13_48  OBJ  47.08590417376715
    x_13_48  dem_48  1.0
    x_13_48  cap_13  26.0
    x_13_49  OBJ  61.95643395213845
    x_13_49  dem_49  1.0
    x_13_49  cap_13  12.0
    x_13_50  OBJ  76.44755944230721
    x_13_50  dem_50  1.0
    x_13_50  cap_13  11.0
    x_13_51  OBJ  40.60686848775707
    x_13_51  dem_51  1.0
    x_13_51  cap_13  8.0
    x_13_52  OBJ  136.61008351027115
    x_13_52  dem_52  1.0
    x_13_52  cap_13  24.0
    x_13_53  OBJ  112.31640087548467
    x_13_53  dem_53  1.0
    x_13_53  cap_13  22.0
    x_13_54  OBJ  75.88187693685941
    x_13_54  dem_54  1.0
    x_13_54  cap_13  11.0
    x_13_55  OBJ  164.70848074864145
    x_13_55  dem_55  1.0
    x_13_55  cap_13  32.0
    x_13_56  OBJ  130.3459641785562
    x_13_56  dem_56  1.0
    x_13_56  cap_13  22.0
    x_13_57  OBJ  60.59515145059273
    x_13_57  dem_57  1.0
    x_13_57  cap_13  14.0
    x_13_58  OBJ  150.04146157372602
    x_13_58  dem_58  1.0
    x_13_58  cap_13  29.0
    x_13_59  OBJ  68.0245492463921
    x_13_59  dem_59  1.0
    x_13_59  cap_13  20.0
    x_14_0  OBJ  211.83954150739206
    x_14_0  dem_0  1.0
    x_14_0  cap_14  28.0
    x_14_1  OBJ  183.12477753771748
    x_14_1  dem_1  1.0
    x_14_1  cap_14  22.0
    x_14_2  OBJ  65.58030600534644
    x_14_2  dem_2  1.0
    x_14_2  cap_14  9.0
    x_14_3  OBJ  94.55513182920421
    x_14_3  dem_3  1.0
    x_14_3  cap_14  8.0
    x_14_4  OBJ  216.5778577828126
    x_14_4  dem_4  1.0
    x_14_4  cap_14  27.0
    x_14_5  OBJ  129.81818615476095
    x_14_5  dem_5  1.0
    x_14_5  cap_14  17.0
    x_14_6  OBJ  16.989175278876104
    x_14_6  dem_6  1.0
    x_14_6  cap_14  12.0
    x_14_7  OBJ  161.54603467900543
    x_14_7  dem_7  1.0
    x_14_7  cap_14  24.0
    x_14_8  OBJ  140.4044954876099
    x_14_8  dem_8  1.0
    x_14_8  cap_14  23.0
    x_14_9  OBJ  102.29688574878492
    x_14_9  dem_9  1.0
    x_14_9  cap_14  17.0
    x_14_10  OBJ  72.66498214367155
    x_14_10  dem_10  1.0
    x_14_10  cap_14  11.0
    x_14_11  OBJ  199.2067049255012
    x_14_11  dem_11  1.0
    x_14_11  cap_14  33.0
    x_14_12  OBJ  48.28866764047356
    x_14_12  dem_12  1.0
    x_14_12  cap_14  27.0
    x_14_13  OBJ  30.090115973488093
    x_14_13  dem_13  1.0
    x_14_13  cap_14  15.0
    x_14_14  OBJ  174.85368361995955
    x_14_14  dem_14  1.0
    x_14_14  cap_14  19.0
    x_14_15  OBJ  146.3059145439241
    x_14_15  dem_15  1.0
    x_14_15  cap_14  31.0
    x_14_16  OBJ  141.3283916152151
    x_14_16  dem_16  1.0
    x_14_16  cap_14  24.0
    x_14_17  OBJ  51.80823449844015
    x_14_17  dem_17  1.0
    x_14_17  cap_14  14.0
    x_14_18  OBJ  25.93097979654461
    x_14_18  dem_18  1.0
    x_14_18  cap_14  12.0
    x_14_19  OBJ  87.54292701143324
    x_14_19  dem_19  1.0
    x_14_19  cap_14  16.0
    x_14_20  OBJ  136.81387331640772
    x_14_20  dem_20  1.0
    x_14_20  cap_14  12.0
    x_14_21  OBJ  200.4742982836907
    x_14_21  dem_21  1.0
    x_14_21  cap_14  26.0
    x_14_22  OBJ  57.731827563690615
    x_14_22  dem_22  1.0
    x_14_22  cap_14  10.0
    x_14_23  OBJ  115.21133596423184
    x_14_23  dem_23  1.0
    x_14_23  cap_14  21.0
    x_14_24  OBJ  62.323306339536884
    x_14_24  dem_24  1.0
    x_14_24  cap_14  10.0
    x_14_25  OBJ  139.18943460270083
    x_14_25  dem_25  1.0
    x_14_25  cap_14  32.0
    x_14_26  OBJ  65.15834856094457
    x_14_26  dem_26  1.0
    x_14_26  cap_14  16.0
    x_14_27  OBJ  148.1104637033915
    x_14_27  dem_27  1.0
    x_14_27  cap_14  31.0
    x_14_28  OBJ  56.53285600619199
    x_14_28  dem_28  1.0
    x_14_28  cap_14  9.0
    x_14_29  OBJ  145.95598607857383
    x_14_29  dem_29  1.0
    x_14_29  cap_14  13.0
    x_14_30  OBJ  63.116630997562496
    x_14_30  dem_30  1.0
    x_14_30  cap_14  26.0
    x_14_31  OBJ  109.08290160053289
    x_14_31  dem_31  1.0
    x_14_31  cap_14  14.0
    x_14_32  OBJ  63.93767473283814
    x_14_32  dem_32  1.0
    x_14_32  cap_14  15.0
    x_14_33  OBJ  185.54908096151868
    x_14_33  dem_33  1.0
    x_14_33  cap_14  24.0
    x_14_34  OBJ  212.54153801713696
    x_14_34  dem_34  1.0
    x_14_34  cap_14  34.0
    x_14_35  OBJ  127.1981342758323
    x_14_35  dem_35  1.0
    x_14_35  cap_14  28.0
    x_14_36  OBJ  292.59933764130307
    x_14_36  dem_36  1.0
    x_14_36  cap_14  32.0
    x_14_37  OBJ  68.82993132871364
    x_14_37  dem_37  1.0
    x_14_37  cap_14  8.0
    x_14_38  OBJ  157.21203400988784
    x_14_38  dem_38  1.0
    x_14_38  cap_14  28.0
    x_14_39  OBJ  209.97070740928234
    x_14_39  dem_39  1.0
    x_14_39  cap_14  32.0
    x_14_40  OBJ  198.09713479757858
    x_14_40  dem_40  1.0
    x_14_40  cap_14  31.0
    x_14_41  OBJ  108.1496353446635
    x_14_41  dem_41  1.0
    x_14_41  cap_14  15.0
    x_14_42  OBJ  178.98264927934028
    x_14_42  dem_42  1.0
    x_14_42  cap_14  27.0
    x_14_43  OBJ  88.84474756403722
    x_14_43  dem_43  1.0
    x_14_43  cap_14  9.0
    x_14_44  OBJ  329.1291129708441
    x_14_44  dem_44  1.0
    x_14_44  cap_14  28.0
    x_14_45  OBJ  69.28055378002429
    x_14_45  dem_45  1.0
    x_14_45  cap_14  12.0
    x_14_46  OBJ  78.65074814039666
    x_14_46  dem_46  1.0
    x_14_46  cap_14  15.0
    x_14_47  OBJ  83.19367083846814
    x_14_47  dem_47  1.0
    x_14_47  cap_14  28.0
    x_14_48  OBJ  174.26115173846466
    x_14_48  dem_48  1.0
    x_14_48  cap_14  26.0
    x_14_49  OBJ  115.49803495502174
    x_14_49  dem_49  1.0
    x_14_49  cap_14  12.0
    x_14_50  OBJ  84.58543811085596
    x_14_50  dem_50  1.0
    x_14_50  cap_14  11.0
    x_14_51  OBJ  77.8082815676696
    x_14_51  dem_51  1.0
    x_14_51  cap_14  8.0
    x_14_52  OBJ  108.2519015161458
    x_14_52  dem_52  1.0
    x_14_52  cap_14  24.0
    x_14_53  OBJ  190.62822999769895
    x_14_53  dem_53  1.0
    x_14_53  cap_14  22.0
    x_14_54  OBJ  98.07314899407795
    x_14_54  dem_54  1.0
    x_14_54  cap_14  11.0
    x_14_55  OBJ  297.83891444434613
    x_14_55  dem_55  1.0
    x_14_55  cap_14  32.0
    x_14_56  OBJ  181.99656375635033
    x_14_56  dem_56  1.0
    x_14_56  cap_14  22.0
    x_14_57  OBJ  131.58287103364648
    x_14_57  dem_57  1.0
    x_14_57  cap_14  14.0
    x_14_58  OBJ  151.1737395085407
    x_14_58  dem_58  1.0
    x_14_58  cap_14  29.0
    x_14_59  OBJ  115.0796607797333
    x_14_59  dem_59  1.0
    x_14_59  cap_14  20.0
RHS
    RHS  dem_0  1.0
    RHS  dem_1  1.0
    RHS  dem_2  1.0
    RHS  dem_3  1.0
    RHS  dem_4  1.0
    RHS  dem_5  1.0
    RHS  dem_6  1.0
    RHS  dem_7  1.0
    RHS  dem_8  1.0
    RHS  dem_9  1.0
    RHS  dem_10  1.0
    RHS  dem_11  1.0
    RHS  dem_12  1.0
    RHS  dem_13  1.0
    RHS  dem_14  1.0
    RHS  dem_15  1.0
    RHS  dem_16  1.0
    RHS  dem_17  1.0
    RHS  dem_18  1.0
    RHS  dem_19  1.0
    RHS  dem_20  1.0
    RHS  dem_21  1.0
    RHS  dem_22  1.0
    RHS  dem_23  1.0
    RHS  dem_24  1.0
    RHS  dem_25  1.0
    RHS  dem_26  1.0
    RHS  dem_27  1.0
    RHS  dem_28  1.0
    RHS  dem_29  1.0
    RHS  dem_30  1.0
    RHS  dem_31  1.0
    RHS  dem_32  1.0
    RHS  dem_33  1.0
    RHS  dem_34  1.0
    RHS  dem_35  1.0
    RHS  dem_36  1.0
    RHS  dem_37  1.0
    RHS  dem_38  1.0
    RHS  dem_39  1.0
    RHS  dem_40  1.0
    RHS  dem_41  1.0
    RHS  dem_42  1.0
    RHS  dem_43  1.0
    RHS  dem_44  1.0
    RHS  dem_45  1.0
    RHS  dem_46  1.0
    RHS  dem_47  1.0
    RHS  dem_48  1.0
    RHS  dem_49  1.0
    RHS  dem_50  1.0
    RHS  dem_51  1.0
    RHS  dem_52  1.0
    RHS  dem_53  1.0
    RHS  dem_54  1.0
    RHS  dem_55  1.0
    RHS  dem_56  1.0
    RHS  dem_57  1.0
    RHS  dem_58  1.0
    RHS  dem_59  1.0
RANGES
BOUNDS
 UP BND  open_0  1.0
 UP BND  open_1  1.0
 UP BND  open_2  1.0
 UP BND  open_3  1.0
 UP BND  open_4  1.0
 UP BND  open_5  1.0
 UP BND  open_6  1.0
 UP BND  open_7  1.0
 UP BND  open_8  1.0
 UP BND  open_9  1.0
 UP BND  open_10  1.0
 UP BND  open_11  1.0
 UP BND  open_12  1.0
 UP BND  open_13  1.0
 UP BND  open_14  1.0
ENDATA
