NAME blendqp_12p
ROWS
 N  OBJ
 E  vol_0
 E  qdef_0
 E  sdef_0
 E  vol_1
 E  qdef_1
 E  sdef_1
 E  vol_2
 E  qdef_2
 E  sdef_2
 E  vol_3
 E  qdef_3
 E  sdef_3
 E  vol_4
 E  qdef_4
 E  sdef_4
 E  vol_5
 E  qdef_5
 E  sdef_5
 E  vol_6
 E  qdef_6
 E  sdef_6
 E  vol_7
 E  qdef_7
 E  sdef_7
 E  vol_8
 E  qdef_8
 E  sdef_8
 E  vol_9
 E  qdef_9
 E  sdef_9
 E  vol_10
 E  qdef_10
 E  sdef_10
 E  vol_11
 E  qdef_11
 E  sdef_11
COLUMNS
    x_0_0  OBJ  62.93078431405001
    x_0_0  vol_0  1.0
    x_0_0  qdef_0  96.90149585595803
    x_0_0  sdef_0  21.980060455586813
    x_1_0  OBJ  94.92172883230418
    x_1_0  vol_0  1.0
    x_1_0  qdef_0  83.21946182338213
    x_1_0  sdef_0  30.955812316450046
    x_2_0  OBJ  89.13211435752464
    x_2_0  vol_0  1.0
    x_2_0  qdef_0  91.15489094731385
    x_2_0  sdef_0  37.08290765515104
    x_3_0  OBJ  61.28720751835637
    x_3_0  vol_0  1.0
    x_3_0  qdef_0  87.36159883328543
    x_3_0  sdef_0  1.7491931732388661
    x_4_0  OBJ  79.86389346019556
    x_4_0  vol_0  1.0
    x_4_0  qdef_0  84.29883927123537
    x_4_0  sdef_0  13.448004775839324
    x_5_0  OBJ  81.32690479657862
    x_5_0  vol_0  1.0
    x_5_0  qdef_0  87.71648075178396
    x_5_0  sdef_0  30.603146873632575
    devq_0  qdef_0  -1.0
    devs_0  sdef_0  -1.0
    x_0_1  OBJ  62.93078431405001
    x_0_1  vol_1  1.0
    x_0_1  qdef_1  96.90149585595803
    x_0_1  sdef_1  21.980060455586813
    x_1_1  OBJ  94.92172883230418
    x_1_1  vol_1  1.0
    x_1_1  qdef_1  83.21946182338213
    x_1_1  sdef_1  30.955812316450046
    x_2_1  OBJ  89.13211435752464
    x_2_1  vol_1  1.0
    x_2_1  qdef_1  91.15489094731385
    x_2_1  sdef_1  37.08290765515104
    x_3_1  OBJ  61.28720751835637
    x_3_1  vol_1  1.0
    x_3_1  qdef_1  87.36159883328543
    x_3_1  sdef_1  1.7491931732388661
    x_4_1  OBJ  79.86389346019556
    x_4_1  vol_1  1.0
    x_4_1  qdef_1  84.29883927123537
    x_4_1  sdef_1  13.448004775839324
    x_5_1  OBJ  81.32690479657862
    x_5_1  vol_1  1.0
    x_5_1  qdef_1  87.71648075178396
    x_5_1  sdef_1  30.603146873632575
    devq_1  qdef_1  -1.0
    devs_1  sdef_1  -1.0
    x_0_2  OBJ  62.93078431405001
    x_0_2  vol_2  1.0
    x_0_2  qdef_2  96.90149585595803
    x_0_2  sdef_2  21.980060455586813
    x_1_2  OBJ  94.92172883230418
    x_1_2  vol_2  1.0
    x_1_2  qdef_2  83.21946182338213
    x_1_2  sdef_2  30.955812316450046
    x_2_2  OBJ  89.13211435752464
    x_2_2  vol_2  1.0
    x_2_2  qdef_2  91.15489094731385
    x_2_2  sdef_2  37.08290765515104
    x_3_2  OBJ  61.28720751835637
    x_3_2  vol_2  1.0
    x_3_2  qdef_2  87.36159883328543
    x_3_2  sdef_2  1.7491931732388661
    x_4_2  OBJ  79.86389346019556
    x_4_2  vol_2  1.0
    x_4_2  qdef_2  84.29883927123537
    x_4_2  sdef_2  13.448004775839324
    x_5_2  OBJ  81.32690479657862
    x_5_2  vol_2  1.0
    x_5_2  qdef_2  87.71648075178396
    x_5_2  sdef_2  30.603146873632575
    devq_2  qdef_2  -1.0
    devs_2  sdef_2  -1.0
    x_0_3  OBJ  62.93078431405001
    x_0_3  vol_3  1.0
    x_0_3  qdef_3  96.90149585595803
    x_0_3  sdef_3  21.980060455586813
    x_1_3  OBJ  94.92172883230418
    x_1_3  vol_3  1.0
    x_1_3  qdef_3  83.21946182338213
    x_1_3  sdef_3  30.955812316450046
    x_2_3  OBJ  89.13211435752464
    x_2_3  vol_3  1.0
    x_2_3  qdef_3  91.15489094731385
    x_2_3  sdef_3  37.08290765515104
    x_3_3  OBJ  61.28720751835637
    x_3_3  vol_3  1.0
    x_3_3  qdef_3  87.36159883328543
    x_3_3  sdef_3  1.7491931732388661
    x_4_3  OBJ  79.86389346019556
    x_4_3  vol_3  1.0
    x_4_3  qdef_3  84.29883927123537
    x_4_3  sdef_3  13.448004775839324
    x_5_3  OBJ  81.32690479657862
    x_5_3  vol_3  1.0
    x_5_3  qdef_3  87.71648075178396
    x_5_3  sdef_3  30.603146873632575
    devq_3  qdef_3  -1.0
    devs_3  sdef_3  -1.0
    x_0_4  OBJ  62.93078431405001
    x_0_4  vol_4  1.0
    x_0_4  qdef_4  96.90149585595803
    x_0_4  sdef_4  21.980060455586813
    x_1_4  OBJ  94.92172883230418
    x_1_4  vol_4  1.0
    x_1_4  qdef_4  83.21946182338213
    x_1_4  sdef_4  30.955812316450046
    x_2_4  OBJ  89.13211435752464
    x_2_4  vol_4  1.0
    x_2_4  qdef_4  91.15489094731385
    x_2_4  sdef_4  37.08290765515104
    x_3_4  OBJ  61.28720751835637
    x_3_4  vol_4  1.0
    x_3_4  qdef_4  87.36159883328543
    x_3_4  sdef_4  1.7491931732388661
    x_4_4  OBJ  79.86389346019556
    x_4_4  vol_4  1.0
    x_4_4  qdef_4  84.29883927123537
    x_4_4  sdef_4  13.448004775839324
    x_5_4  OBJ  81.32690479657862
    x_5_4  vol_4  1.0
    x_5_4  qdef_4  87.71648075178396
    x_5_4  sdef_4  30.603146873632575
    devq_4  qdef_4  -1.0
    devs_4  sdef_4  -1.0
    x_0_5  OBJ  62.93078431405001
    x_0_5  vol_5  1.0
    x_0_5  qdef_5  96.90149585595803
    x_0_5  sdef_5  21.980060455586813
    x_1_5  OBJ  94.92172883230418
    x_1_5  vol_5  1.0
    x_1_5  qdef_5  83.21946182338213
    x_1_5  sdef_5  30.955812316450046
    x_2_5  OBJ  89.13211435752464
    x_2_5  vol_5  1.0
    x_2_5  qdef_5  91.15489094731385
    x_2_5  sdef_5  37.08290765515104
    x_3_5  OBJ  61.28720751835637
    x_3_5  vol_5  1.0
    x_3_5  qdef_5  87.36159883328543
    x_3_5  sdef_5  1.7491931732388661
    x_4_5  OBJ  79.86389346019556
    x_4_5  vol_5  1.0
    x_4_5  qdef_5  84.29883927123537
    x_4_5  sdef_5  13.448004775839324
    x_5_5  OBJ  81.32690479657862
    x_5_5  vol_5  1.0
    x_5_5  qdef_5  87.71648075178396
    x_5_5  sdef_5  30.603146873632575
    devq_5  qdef_5  -1.0
    devs_5  sdef_5  -1.0
    x_0_6  OBJ  62.93078431405001
    x_0_6  vol_6  1.0
    x_0_6  qdef_6  96.90149585595803
    x_0_6  sdef_6  21.980060455586813
    x_1_6  OBJ  94.92172883230418
    x_1_6  vol_6  1.0
    x_1_6  qdef_6  83.21946182338213
    x_1_6  sdef_6  30.955812316450046
    x_2_6  OBJ  89.13211435752464
    x_2_6  vol_6  1.0
    x_2_6  qdef_6  91.15489094731385
    x_2_6  sdef_6  37.08290765515104
    x_3_6  OBJ  61.28720751835637
    x_3_6  vol_6  1.0
    x_3_6  qdef_6  87.36159883328543
    x_3_6  sdef_6  1.7491931732388661
    x_4_6  OBJ  79.86389346019556
    x_4_6  vol_6  1.0
    x_4_6  qdef_6  84.29883927123537
    x_4_6  sdef_6  13.448004775839324
    x_5_6  OBJ  81.32690479657862
    x_5_6  vol_6  1.0
    x_5_6  qdef_6  87.71648075178396
    x_5_6  sdef_6  30.603146873632575
    devq_6  qdef_6  -1.0
    devs_6  sdef_6  -1.0
    x_0_7  OBJ  62.93078431405001
    x_0_7  vol_7  1.0
    x_0_7  qdef_7  96.90149585595803
    x_0_7  sdef_7  21.980060455586813
    x_1_7  OBJ  94.92172883230418
    x_1_7  vol_7  1.0
    x_1_7  qdef_7  83.21946182338213
    x_1_7  sdef_7  30.955812316450046
    x_2_7  OBJ  89.13211435752464
    x_2_7  vol_7  1.0
    x_2_7  qdef_7  91.15489094731385
    x_2_7  sdef_7  37.08290765515104
    x_3_7  OBJ  61.28720751835637
    x_3_7  vol_7  1.0
    x_3_7  qdef_7  87.36159883328543
    x_3_7  sdef_7  1.7491931732388661
    x_4_7  OBJ  79.86389346019556
    x_4_7  vol_7  1.0
    x_4_7  qdef_7  84.29883927123537
    x_4_7  sdef_7  13.448004775839324
    x_5_7  OBJ  81.32690479657862
    x_5_7  vol_7  1.0
    x_5_7  qdef_7  87.71648075178396
    x_5_7  sdef_7  30.603146873632575
    devq_7  qdef_7  -1.0
    devs_7  sdef_7  -1.0
    x_0_8  OBJ  62.93078431405001
    x_0_8  vol_8  1.0
    x_0_8  qdef_8  96.90149585595803
    x_0_8  sdef_8  21.980060455586813
    x_1_8  OBJ  94.92172883230418
    x_1_8  vol_8  1.0
    x_1_8  qdef_8  83.21946182338213
    x_1_8  sdef_8  30.955812316450046
    x_2_8  OBJ  89.13211435752464
    x_2_8  vol_8  1.0
    x_2_8  qdef_8  91.15489094731385
    x_2_8  sdef_8  37.08290765515104
    x_3_8  OBJ  61.28720751835637
    x_3_8  vol_8  1.0
    x_3_8  qdef_8  87.36159883328543
    x_3_8  sdef_8  1.7491931732388661
    x_4_8  OBJ  79.86389346019556
    x_4_8  vol_8  1.0
    x_4_8  qdef_8  84.29883927123537
    x_4_8  sdef_8  13.448004775839324
    x_5_8  OBJ  81.32690479657862
    x_5_8  vol_8  1.0
    x_5_8  qdef_8  87.71648075178396
    x_5_8  sdef_8  30.603146873632575
    devq_8  qdef_8  -1.0
    devs_8  sdef_8  -1.0
    x_0_9  OBJ  62.93078431405001
    x_0_9  vol_9  1.0
    x_0_9  qdef_9  96.90149585595803
    x_0_9  sdef_9  21.980060455586813
    x_1_9  OBJ  94.92172883230418
    x_1_9  vol_9  1.0
    x_1_9  qdef_9  83.21946182338213
    x_1_9  sdef_9  30.955812316450046
    x_2_9  OBJ  89.13211435752464
    x_2_9  vol_9  1.0
    x_2_9  qdef_9  91.15489094731385
    x_2_9  sdef_9  37.08290765515104
    x_3_9  OBJ  61.28720751835637
    x_3_9  vol_9  1.0
    x_3_9  qdef_9  87.36159883328543
    x_3_9  sdef_9  1.7491931732388661
    x_4_9  OBJ  79.86389346019556
    x_4_9  vol_9  1.0
    x_4_9  qdef_9  84.29883927123537
    x_4_9  sdef_9  13.448004775839324
    x_5_9  OBJ  81.32690479657862
    x_5_9  vol_9  1.0
    x_5_9  qdef_9  87.71648075178396
    x_5_9  sdef_9  30.603146873632575
    devq_9  qdef_9  -1.0
    devs_9  sdef_9  -1.0
    x_0_10  OBJ  62.93078431405001
    x_0_10  vol_10  1.0
    x_0_10  qdef_10  96.90149585595803
    x_0_10  sdef_10  21.980060455586813
    x_1_10  OBJ  94.92172883230418
    x_1_10  vol_10  1.0
    x_1_10  qdef_10  83.21946182338213
    x_1_10  sdef_10  30.955812316450046
    x_2_10  OBJ  89.13211435752464
    x_2_10  vol_10  1.0
    x_2_10  qdef_10  91.15489094731385
    x_2_10  sdef_10  37.08290765515104
    x_3_10  OBJ  61.28720751835637
    x_3_10  vol_10  1.0
    x_3_10  qdef_10  87.36159883328543
    x_3_10  sdef_10  1.7491931732388661
    x_4_10  OBJ  79.86389346019556
    x_4_10  vol_10  1.0
    x_4_10  qdef_10  84.29883927123537
    x_4_10  sdef_10  13.448004775839324
    x_5_10  OBJ  81.32690479657862
    x_5_10  vol_10  1.0
    x_5_10  qdef_10  87.71648075178396
    x_5_10  sdef_10  30.603146873632575
    devq_10  qdef_10  -1.0
    devs_10  sdef_10  -1.0
    x_0_11  OBJ  62.93078431405001
    x_0_11  vol_11  1.0
    x_0_11  qdef_11  96.90149585595803
    x_0_11  sdef_11  21.980060455586813
    x_1_11  OBJ  94.92172883230418
    x_1_11  vol_11  1.0
    x_1_11  qdef_11  83.21946182338213
    x_1_11  sdef_11  30.955812316450046
    x_2_11  OBJ  89.13211435752464
    x_2_11  vol_11  1.0
    x_2_11  qdef_11  91.15489094731385
    x_2_11  sdef_11  37.08290765515104
    x_3_11  OBJ  61.28720751835637
    x_3_11  vol_11  1.0
    x_3_11  qdef_11  87.36159883328543
    x_3_11  sdef_11  1.7491931732388661
    x_4_11  OBJ  79.86389346019556
    x_4_11  vol_11  1.0
    x_4_11  qdef_11  84.29883927123537
    x_4_11  sdef_11  13.448004775839324
    x_5_11  OBJ  81.32690479657862
    x_5_11  vol_11  1.0
    x_5_11  qdef_11  87.71648075178396
    x_5_11  sdef_11  30.603146873632575
    devq_11  qdef_11  -1.0
    devs_11  sdef_11  -1.0
RHS
    RHS  vol_0  100.0
    RHS  qdef_0  9200.0
    RHS  sdef_0  1000.0
    RHS  vol_1  100.0
    RHS  qdef_1  9200.0
    RHS  sdef_1  1000.0
    RHS  vol_2  100.0
    RHS  qdef_2  9200.0
    RHS  sdef_2  1000.0
    RHS  vol_3  100.0
    RHS  qdef_3  9200.0
    RHS  sdef_3  1000.0
    RHS  vol_4  100.0
    RHS  qdef_4  9200.0
    RHS  sdef_4  1000.0
    RHS  vol_5  100.0
    RHS  qdef_5  9200.0
    RHS  sdef_5  1000.0
    RHS  vol_6  100.0
    RHS  qdef_6  9200.0
    RHS  sdef_6  1000.0
    RHS  vol_7  100.0
    RHS  qdef_7  9200.0
    RHS  sdef_7  1000.0
    RHS  vol_8  100.0
    RHS  qdef_8  9200.0
    RHS  sdef_8  1000.0
    RHS  vol_9  100.0
    RHS  qdef_9  9200.0
    RHS  sdef_9  1000.0
    RHS  vol_10  100.0
    RHS  qdef_10  9200.0
    RHS  sdef_10  1000.0
    RHS  vol_11  100.0
    RHS  qdef_11  9200.0
    RHS  sdef_11  1000.0
RANGES
BOUNDS
 UP BND  x_0_0  60.0
 UP BND  x_1_0  60.0
 UP BND  x_2_0  60.0
 UP BND  x_3_0  60.0
 UP BND  x_4_0  60.0
 UP BND  x_5_0  60.0
 FR BND  devq_0
 FR BND  devs_0
 UP BND  x_0_1  60.0
 UP BND  x_1_1  60.0
 UP BND  x_2_1  60.0
 UP BND  x_3_1  60.0
 UP BND  x_4_1  60.0
 UP BND  x_5_1  60.0
 FR BND  devq_1
 FR BND  devs_1
 UP BND  x_0_2  60.0
 UP BND  x_1_2  60.0
 UP BND  x_2_2  60.0
 UP BND  x_3_2  60.0
 UP BND  x_4_2  60.0
 UP BND  x_5_2  60.0
 FR BND  devq_2
 FR BND  devs_2
 UP BND  x_0_3  60.0
 UP BND  x_1_3  60.0
 UP BND  x_2_3  60.0
 UP BND  x_3_3  60.0
 UP BND  x_4_3  60.0
 UP BND  x_5_3  60.0
 FR BND  devq_3
 FR BND  devs_3
 UP BND  x_0_4  60.0
 UP BND  x_1_4  60.0
 UP BND  x_2_4  60.0
 UP BND  x_3_4  60.0
 UP BND  x_4_4  60.0
 UP BND  x_5_4  60.0
 FR BND  devq_4
 FR BND  devs_4
 UP BND  x_0_5  60.0
 UP BND  x_1_5  60.0
 UP BND  x_2_5  60.0
 UP BND  x_3_5  60.0
 UP BND  x_4_5  60.0
 UP BND  x_5_5  60.0
 FR BND  devq_5
 FR BND  devs_5
 UP BND  x_0_6  60.0
 UP BND  x_1_6  60.0
 UP BND  x_2_6  60.0
 UP BND  x_3_6  60.0
 UP BND  x_4_6  60.0
 UP BND  x_5_6  60.0
 FR BND  devq_6
 FR BND  devs_6
 UP BND  x_0_7  60.0
 UP BND  x_1_7  60.0
 UP BND  x_2_7  60.0
 UP BND  x_3_7  60.0
 UP BND  x_4_7  60.0
 UP BND  x_5_7  60.0
 FR BND  devq_7
 FR BND  devs_7
 UP BND  x_0_8  60.0
 UP BND  x_1_8  60.0
 UP BND  x_2_8  60.0
 UP BND  x_3_8  60.0
 UP BND  x_4_8  60.0
 UP BND  x_5_8  60.0
 FR BND  devq_8
 FR BND  devs_8
 UP BND  x_0_9  60.0
 UP BND  x_1_9  60.0
 UP BND  x_2_9  60.0
 UP BND  x_3_9  60.0
 UP BND  x_4_9  60.0
 UP BND  x_5_9  60.0
 FR BND  devq_9
 FR BND  devs_9
 UP BND  x_0_10  60.0
 UP BND  x_1_10  60.0
 UP BND  x_2_10  60.0
 UP BND  x_3_10  60.0
 UP BND  x_4_10  60.0
 UP BND  x_5_10  60.0
 FR BND  devq_10
 FR BND  devs_10
 UP BND  x_0_11  60.0
 UP BND  x_1_11  60.0
 UP BND  x_2_11  60.0
 UP BND  x_3_11  60.0
 UP BND  x_4_11  60.0
 UP BND  x_5_11  60.0
 FR BND  devq_11
 FR BND  devs_11
QUADOBJ
    x_0_0  x_0_0  0.3
    x_0_0  x_0_1  -0.3
    x_1_0  x_1_0  0.3
    x_1_0  x_1_1  -0.3
    x_2_0  x_2_0  0.3
    x_2_0  x_2_1  -0.3
    x_3_0  x_3_0  0.3
    x_3_0  x_3_1  -0.3
    x_4_0  x_4_0  0.3
    x_4_0  x_4_1  -0.3
    x_5_0  x_5_0  0.3
    x_5_0  x_5_1  -0.3
    devq_0  devq_0  2.0
    devs_0  devs_0  0.5
    x_0_1  x_0_1  0.6
    x_0_1  x_0_2  -0.3
    x_1_1  x_1_1  0.6
    x_1_1  x_1_2  -0.3
    x_2_1  x_2_1  0.6
    x_2_1  x_2_2  -0.3
    x_3_1  x_3_1  0.6
    x_3_1  x_3_2  -0.3
    x_4_1  x_4_1  0.6
    x_4_1  x_4_2  -0.3
    x_5_1  x_5_1  0.6
    x_5_1  x_5_2  -0.3
    devq_1  devq_1  2.0
    devs_1  devs_1  0.5
    x_0_2  x_0_2  0.6
    x_0_2  x_0_3  -0.3
    x_1_2  x_1_2  0.6
    x_1_2  x_1_3  -0.3
    x_2_2  x_2_2  0.6
    x_2_2  x_2_3  -0.3
    x_3_2  x_3_2  0.6
    x_3_2  x_3_3  -0.3
    x_4_2  x_4_2  0.6
    x_4_2  x_4_3  -0.3
    x_5_2  x_5_2  0.6
    x_5_2  x_5_3  -0.3
    devq_2  devq_2  2.0
    devs_2  devs_2  0.5
    x_0_3  x_0_3  0.6
    x_0_3  x_0_4  -0.3
    x_1_3  x_1_3  0.6
    x_1_3  x_1_4  -0.3
    x_2_3  x_2_3  0.6
    x_2_3  x_2_4  -0.3
    x_3_3  x_3_3  0.6
    x_3_3  x_3_4  -0.3
    x_4_3  x_4_3  0.6
    x_4_3  x_4_4  -0.3
    x_5_3  x_5_3  0.6
    x_5_3  x_5_4  -0.3
    devq_3  devq_3  2.0
    devs_3  devs_3  0.5
    x_0_4  x_0_4  0.6
    x_0_4  x_0_5  -0.3
    x_1_4  x_1_4  0.6
    x_1_4  x_1_5  -0.3
    x_2_4  x_2_4  0.6
    x_2_4  x_2_5  -0.3
    x_3_4  x_3_4  0.6
    x_3_4  x_3_5  -0.3
    x_4_4  x_4_4  0.6
    x_4_4  x_4_5  -0.3
    x_5_4  x_5_4  0.6
    x_5_4  x_5_5  -0.3
    devq_4  devq_4  2.0
    devs_4  devs_4  0.5
    x_0_5  x_0_5  0.6
    x_0_5  x_0_6  -0.3
    x_1_5  x_1_5  0.6
    x_1_5  x_1_6  -0.3
    x_2_5  x_2_5  0.6
    x_2_5  x_2_6  -0.3
    x_3_5  x_3_5  0.6
    x_3_5  x_3_6  -0.3
    x_4_5  x_4_5  0.6
    x_4_5  x_4_6  -0.3
    x_5_5  x_5_5  0.6
    x_5_5  x_5_6  -0.3
    devq_5  devq_5  2.0
    devs_5  devs_5  0.5
    x_0_6  x_0_6  0.6
    x_0_6  x_0_7  -0.3
    x_1_6  x_1_6  0.6
    x_1_6  x_1_7  -0.3
    x_2_6  x_2_6  0.6
    x_2_6  x_2_7  -0.3
    x_3_6  x_3_6  0.6
    x_3_6  x_3_7  -0.3
    x_4_6  x_4_6  0.6
    x_4_6  x_4_7  -0.3
    x_5_6  x_5_6  0.6
    x_5_6  x_5_7  -0.3
    devq_6  devq_6  2.0
    devs_6  devs_6  0.5
    x_0_7  x_0_7  0.6
    x_0_7  x_0_8  -0.3
    x_1_7  x_1_7  0.6
    x_1_7  x_1_8  -0.3
    x_2_7  x_2_7  0.6
    x_2_7  x_2_8  -0.3
    x_3_7  x_3_7  0.6
    x_3_7  x_3_8  -0.3
    x_4_7  x_4_7  0.6
    x_4_7  x_4_8  -0.3
    x_5_7  x_5_7  0.6
    x_5_7  x_5_8  -0.3
    devq_7  devq_7  2.0
    devs_7  devs_7  0.5
    x_0_8  x_0_8  0.6
    x_0_8  x_0_9  -0.3
    x_1_8  x_1_8  0.6
    x_1_8  x_1_9  -0.3
    x_2_8  x_2_8  0.6
    x_2_8  x_2_9  -0.3
    x_3_8  x_3_8  0.6
    x_3_8  x_3_9  -0.3
    x_4_8  x_4_8  0.6
    x_4_8  x_4_9  -0.3
    x_5_8  x_5_8  0.6
    x_5_8  x_5_9  -0.3
    devq_8  devq_8  2.0
    devs_8  devs_8  0.5
    x_0_9  x_0_9  0.6
    x_0_9  x_0_10  -0.3
    x_1_9  x_1_9  0.6
    x_1_9  x_1_10  -0.3
    x_2_9  x_2_9  0.6
    x_2_9  x_2_10  -0.3
    x_3_9  x_3_9  0.6
    x_3_9  x_3_10  -0.3
    x_4_9  x_4_9  0.6
    x_4_9  x_4_10  -0.3
    x_5_9  x_5_9  0.6
    x_5_9  x_5_10  -0.3
    devq_9  devq_9  2.0
    devs_9  devs_9  0.5
    x_0_10  x_0_10  0.6
    x_0_10  x_0_11  -0.3
    x_1_10  x_1_10  0.6
    x_1_10  x_1_11  -0.3
    x_2_10  x_2_10  0.6
    x_2_10  x_2_11  -0.3
    x_3_10  x_3_10  0.6
    x_3_10  x_3_11  -0.3
    x_4_10  x_4_10  0.6
    x_4_10  x_4_11  -0.3
    x_5_10  x_5_10  0.6
    x_5_10  x_5_11  -0.3
    devq_10  devq_10  2.0
    devs_10  devs_10  0.5
    x_0_11  x_0_11  0.3
    x_1_11  x_1_11  0.3
    x_2_11  x_2_11  0.3
    x_3_11  x_3_11  0.3
    x_4_11  x_4_11  0.3
    x_5_11  x_5_11  0.3
    devq_11  devq_11  2.0
    devs_11  devs_11  0.5
ENDATA
