NAME bls_400x300
ROWS
 N  OBJ
 G  sum
COLUMNS
    x0  OBJ  -7.249861697691529
    x0  sum  1.0
    x1  OBJ  0.6284536958497161
    x1  sum  1.0
    x2  OBJ  -5.694906754891811
    x2  sum  1.0
    x3  OBJ  -0.5793931200277502
    x3  sum  1.0
    x4  OBJ  0.5495080558158463
    x4  sum  1.0
    x5  OBJ  0.42440388777366644
    x5  sum  1.0
    x6  OBJ  2.544550445049763
    x6  sum  1.0
    x7  OBJ  0.47054330476320083
    x7  sum  1.0
    x8  OBJ  -3.3589592130383634
    x8  sum  1.0
    x9  OBJ  -0.16583961402528224
    x9  sum  1.0
    x10  OBJ  1.7137904468718532
    x10  sum  1.0
    x11  OBJ  4.075289817752065
    x11  sum  1.0
    x12  OBJ  5.647093600620661
    x12  sum  1.0
    x13  OBJ  0.6302918226524732
    x13  sum  1.0
    x14  OBJ  3.544810053581946
    x14  sum  1.0
    x15  OBJ  -1.3046635539583464
    x15  sum  1.0
    x16  OBJ  -2.9396031039421016
    x16  sum  1.0
    x17  OBJ  0.07193981032002827
    x17  sum  1.0
    x18  OBJ  2.5236037137026104
    x18  sum  1.0
    x19  OBJ  -0.9607887507200573
    x19  sum  1.0
    x20  OBJ  0.7806602490822558
    x20  sum  1.0
    x21  OBJ  -3.2167662320872634
    x21  sum  1.0
    x22  OBJ  -6.030274987250241
    x22  sum  1.0
    x23  OBJ  -6.9307922818894845
    x23  sum  1.0
    x24  OBJ  -0.7269346003201307
    x24  sum  1.0
    x25  OBJ  1.242634772904852
    x25  sum  1.0
    x26  OBJ  -0.07289816896803258
    x26  sum  1.0
    x27  OBJ  5.158500045564006
    x27  sum  1.0
    x28  OBJ  2.3825041404364145
    x28  sum  1.0
    x29  OBJ  2.219348076308808
    x29  sum  1.0
    x30  OBJ  -1.5865390660558043
    x30  sum  1.0
    x31  OBJ  -1.3960466443764192
    x31  sum  1.0
    x32  OBJ  -1.656017846993789
    x32  sum  1.0
    x33  OBJ  -0.5781228115316326
    x33  sum  1.0
    x34  OBJ  0.809724666147153
    x34  sum  1.0
    x35  OBJ  0.8290391991489774
    x35  sum  1.0
    x36  OBJ  -1.1304634027230034
    x36  sum  1.0
    x37  OBJ  -2.0813492575941783
    x37  sum  1.0
    x38  OBJ  -0.09266476247356126
    x38  sum  1.0
    x39  OBJ  2.6448504657297716
    x39  sum  1.0
    x40  OBJ  -0.2639098926542558
    x40  sum  1.0
    x41  OBJ  -0.38622183537356836
    x41  sum  1.0
    x42  OBJ  1.9752170342264852
    x42  sum  1.0
    x43  OBJ  4.300332784492225
    x43  sum  1.0
    x44  OBJ  -3.0658642394945783
    x44  sum  1.0
    x45  OBJ  0.7084719242409743
    x45  sum  1.0
    x46  OBJ  0.7358135208543279
    x46  sum  1.0
    x47  OBJ  0.03880620886278001
    x47  sum  1.0
    x48  OBJ  -0.5577046400410071
    x48  sum  1.0
    x49  OBJ  3.122765699469882
    x49  sum  1.0
    x50  OBJ  1.4239256221098258
    x50  sum  1.0
    x51  OBJ  1.5879337052030755
    x51  sum  1.0
    x52  OBJ  -3.2092736006052607
    x52  sum  1.0
    x53  OBJ  1.107540331785575
    x53  sum  1.0
    x54  OBJ  2.0038724513855404
    x54  sum  1.0
    x55  OBJ  -2.943799734841421
    x55  sum  1.0
    x56  OBJ  -0.6245937435794907
    x56  sum  1.0
    x57  OBJ  3.4871772205243077
    x57  sum  1.0
    x58  OBJ  -1.3479607389215769
    x58  sum  1.0
    x59  OBJ  -1.8043625769430187
    x59  sum  1.0
    x60  OBJ  -2.7477573236854513
    x60  sum  1.0
    x61  OBJ  -2.8018000124342803
    x61  sum  1.0
    x62  OBJ  -2.7504262406606816
    x62  sum  1.0
    x63  OBJ  -1.2997255674356438
    x63  sum  1.0
    x64  OBJ  1.893784503524442
    x64  sum  1.0
    x65  OBJ  0.04838454499407402
    x65  sum  1.0
    x66  OBJ  -6.297386733817254
    x66  sum  1.0
    x67  OBJ  -1.8373561325068553
    x67  sum  1.0
    x68  OBJ  3.702740361015452
    x68  sum  1.0
    x69  OBJ  2.4720383803542814
    x69  sum  1.0
    x70  OBJ  -1.2093869876361503
    x70  sum  1.0
    x71  OBJ  3.83509473737369
    x71  sum  1.0
    x72  OBJ  0.658653106881747
    x72  sum  1.0
    x73  OBJ  -4.724797936172736
    x73  sum  1.0
    x74  OBJ  -3.34901204447305
    x74  sum  1.0
    x75  OBJ  0.8738822036136136
    x75  sum  1.0
    x76  OBJ  -1.460342591451071
    x76  sum  1.0
    x77  OBJ  5.496895758816788
    x77  sum  1.0
    x78  OBJ  -0.5478088520945589
    x78  sum  1.0
    x79  OBJ  1.938498144103957
    x79  sum  1.0
    x80  OBJ  -4.63553476496563
    x80  sum  1.0
    x81  OBJ  5.0937570148628035
    x81  sum  1.0
    x82  OBJ  1.161471700522815
    x82  sum  1.0
    x83  OBJ  -2.4341534701966863
    x83  sum  1.0
    x84  OBJ  -2.496694671461208
    x84  sum  1.0
    x85  OBJ  3.426361395791013
    x85  sum  1.0
    x86  OBJ  0.8204641984676615
    x86  sum  1.0
    x87  OBJ  1.3366386655200921
    x87  sum  1.0
    x88  OBJ  -0.9068116084590228
    x88  sum  1.0
    x89  OBJ  0.8080591161928926
    x89  sum  1.0
    x90  OBJ  1.035168077013913
    x90  sum  1.0
    x91  OBJ  0.6019575942238063
    x91  sum  1.0
    x92  OBJ  3.158274797109821
    x92  sum  1.0
    x93  OBJ  0.8246618436495694
    x93  sum  1.0
    x94  OBJ  0.1260544482459073
    x94  sum  1.0
    x95  OBJ  -0.21287397454000498
    x95  sum  1.0
    x96  OBJ  0.09851368957187634
    x96  sum  1.0
    x97  OBJ  1.0574403171135578
    x97  sum  1.0
    x98  OBJ  1.2662338548212406
    x98  sum  1.0
    x99  OBJ  3.949218581380369
    x99  sum  1.0
    x100  OBJ  -3.6351913632257182
    x100  sum  1.0
    x101  OBJ  -3.867187933897121
    x101  sum  1.0
    x102  OBJ  1.4190420767695493
    x102  sum  1.0
    x103  OBJ  0.022510115887234616
    x103  sum  1.0
    x104  OBJ  1.8875398421576068
    x104  sum  1.0
    x105  OBJ  -2.03406585416216
    x105  sum  1.0
    x106  OBJ  -3.2248521577193636
    x106  sum  1.0
    x107  OBJ  -1.0278348052226904
    x107  sum  1.0
    x108  OBJ  1.403735713244027
    x108  sum  1.0
    x109  OBJ  -1.0621321371344528
    x109  sum  1.0
    x110  OBJ  -4.759075758927349
    x110  sum  1.0
    x111  OBJ  1.2918384078115248
    x111  sum  1.0
    x112  OBJ  -0.9286640709122874
    x112  sum  1.0
    x113  OBJ  -0.11205469325146422
    x113  sum  1.0
    x114  OBJ  0.6481522189921636
    x114  sum  1.0
    x115  OBJ  1.5398927707589916
    x115  sum  1.0
    x116  OBJ  0.05560591623340505
    x116  sum  1.0
    x117  OBJ  3.115959784736759
    x117  sum  1.0
    x118  OBJ  -3.4417475160485402
    x118  sum  1.0
    x119  OBJ  -1.324236224633762
    x119  sum  1.0
    x120  OBJ  0.2895064898604152
    x120  sum  1.0
    x121  OBJ  -3.0417165631864926
    x121  sum  1.0
    x122  OBJ  -3.0442238265827344
    x122  sum  1.0
    x123  OBJ  -1.3957307055769919
    x123  sum  1.0
    x124  OBJ  1.2614843345500582
    x124  sum  1.0
    x125  OBJ  -3.6375401008139323
    x125  sum  1.0
    x126  OBJ  -2.3203831082006277
    x126  sum  1.0
    x127  OBJ  -2.0722500121356835
    x127  sum  1.0
    x128  OBJ  1.0634154860190943
    x128  sum  1.0
    x129  OBJ  -2.682729552657432
    x129  sum  1.0
    x130  OBJ  5.34662804638728
    x130  sum  1.0
    x131  OBJ  8.286747874962629
    x131  sum  1.0
    x132  OBJ  -4.297728688096276
    x132  sum  1.0
    x133  OBJ  5.0245693390875745
    x133  sum  1.0
    x134  OBJ  1.2151995753804616
    x134  sum  1.0
    x135  OBJ  0.5243630558605717
    x135  sum  1.0
    x136  OBJ  -3.5450732118450876
    x136  sum  1.0
    x137  OBJ  -3.154726591192456
    x137  sum  1.0
    x138  OBJ  0.6935238953371821
    x138  sum  1.0
    x139  OBJ  -0.23413380673090695
    x139  sum  1.0
    x140  OBJ  1.7719563894668031
    x140  sum  1.0
    x141  OBJ  -1.984164367846215
    x141  sum  1.0
    x142  OBJ  1.081005817871634
    x142  sum  1.0
    x143  OBJ  -0.12340758108144989
    x143  sum  1.0
    x144  OBJ  3.747072094164521
    x144  sum  1.0
    x145  OBJ  1.568597177242606
    x145  sum  1.0
    x146  OBJ  -4.90197667132387
    x146  sum  1.0
    x147  OBJ  -0.10611307855456031
    x147  sum  1.0
    x148  OBJ  1.5804800617830512
    x148  sum  1.0
    x149  OBJ  0.2759464754736644
    x149  sum  1.0
    x150  OBJ  3.8764387718298856
    x150  sum  1.0
    x151  OBJ  3.278184801541159
    x151  sum  1.0
    x152  OBJ  4.588817004843957
    x152  sum  1.0
    x153  OBJ  4.505464659478285
    x153  sum  1.0
    x154  OBJ  0.3482596960444502
    x154  sum  1.0
    x155  OBJ  -0.7151293415820595
    x155  sum  1.0
    x156  OBJ  -0.40231962673711363
    x156  sum  1.0
    x157  OBJ  -1.232225203778861
    x157  sum  1.0
    x158  OBJ  2.6963725340417666
    x158  sum  1.0
    x159  OBJ  -0.22581479071575264
    x159  sum  1.0
    x160  OBJ  1.0815773285120949
    x160  sum  1.0
    x161  OBJ  -0.3719483539817694
    x161  sum  1.0
    x162  OBJ  3.744669722638277
    x162  sum  1.0
    x163  OBJ  2.024481034339003
    x163  sum  1.0
    x164  OBJ  -3.128286760842574
    x164  sum  1.0
    x165  OBJ  0.45807655364946687
    x165  sum  1.0
    x166  OBJ  -1.2108052951748163
    x166  sum  1.0
    x167  OBJ  -2.0613625583384816
    x167  sum  1.0
    x168  OBJ  -0.5412893758087743
    x168  sum  1.0
    x169  OBJ  1.480290856883544
    x169  sum  1.0
    x170  OBJ  -1.0414856515246202
    x170  sum  1.0
    x171  OBJ  1.74282621661169
    x171  sum  1.0
    x172  OBJ  -0.4256751355441655
    x172  sum  1.0
    x173  OBJ  0.7224052243116063
    x173  sum  1.0
    x174  OBJ  2.0790473366889013
    x174  sum  1.0
    x175  OBJ  -4.193075080167876
    x175  sum  1.0
    x176  OBJ  2.8611447818140867
    x176  sum  1.0
    x177  OBJ  -1.5820532006279788
    x177  sum  1.0
    x178  OBJ  1.3349310499640226
    x178  sum  1.0
    x179  OBJ  0.026704543967378758
    x179  sum  1.0
    x180  OBJ  -3.345647372566093
    x180  sum  1.0
    x181  OBJ  1.3214280642466156
    x181  sum  1.0
    x182  OBJ  1.2452446074015833
    x182  sum  1.0
    x183  OBJ  1.9876284348368098
    x183  sum  1.0
    x184  OBJ  1.3257595359217529
    x184  sum  1.0
    x185  OBJ  0.011684597403944792
    x185  sum  1.0
    x186  OBJ  0.9631808062823838
    x186  sum  1.0
    x187  OBJ  1.772891653901743
    x187  sum  1.0
    x188  OBJ  1.133656266761776
    x188  sum  1.0
    x189  OBJ  5.757063956858512
    x189  sum  1.0
    x190  OBJ  5.460098083275339
    x190  sum  1.0
    x191  OBJ  2.7491930445762014
    x191  sum  1.0
    x192  OBJ  -0.7406755747165915
    x192  sum  1.0
    x193  OBJ  -1.6870176510123138
    x193  sum  1.0
    x194  OBJ  0.413827248855769
    x194  sum  1.0
    x195  OBJ  -0.2671266965347101
    x195  sum  1.0
    x196  OBJ  -2.1571184525355154
    x196  sum  1.0
    x197  OBJ  -1.4551815022683368
    x197  sum  1.0
    x198  OBJ  3.4850290858050803
    x198  sum  1.0
    x199  OBJ  -2.7459602833357226
    x199  sum  1.0
    x200  OBJ  7.501193241885366
    x200  sum  1.0
    x201  OBJ  0.7188067081751687
    x201  sum  1.0
    x202  OBJ  -0.9279127751344723
    x202  sum  1.0
    x203  OBJ  2.504554241309721
    x203  sum  1.0
    x204  OBJ  3.185953878167277
    x204  sum  1.0
    x205  OBJ  1.8310066320402412
    x205  sum  1.0
    x206  OBJ  -0.8768991422551914
    x206  sum  1.0
    x207  OBJ  2.3473639160067408
    x207  sum  1.0
    x208  OBJ  1.439081613824431
    x208  sum  1.0
    x209  OBJ  -0.18062677271399719
    x209  sum  1.0
    x210  OBJ  3.1435814403441444
    x210  sum  1.0
    x211  OBJ  3.0308488517189094
    x211  sum  1.0
    x212  OBJ  1.0304324626170906
    x212  sum  1.0
    x213  OBJ  -0.21524877429249809
    x213  sum  1.0
    x214  OBJ  1.2494888251642022
    x214  sum  1.0
    x215  OBJ  -2.8957313883833566
    x215  sum  1.0
    x216  OBJ  0.9904435059364864
    x216  sum  1.0
    x217  OBJ  5.334185988046925
    x217  sum  1.0
    x218  OBJ  0.10034922149329392
    x218  sum  1.0
    x219  OBJ  0.5703218568975279
    x219  sum  1.0
    x220  OBJ  -1.3210047865912533
    x220  sum  1.0
    x221  OBJ  -4.156963952087827
    x221  sum  1.0
    x222  OBJ  -1.0794064614621832
    x222  sum  1.0
    x223  OBJ  -0.2713701417387579
    x223  sum  1.0
    x224  OBJ  1.9377928173913213
    x224  sum  1.0
    x225  OBJ  -2.0971537029646203
    x225  sum  1.0
    x226  OBJ  -0.1758136823761069
    x226  sum  1.0
    x227  OBJ  0.994563635362299
    x227  sum  1.0
    x228  OBJ  0.6817529786569779
    x228  sum  1.0
    x229  OBJ  2.669882544619031
    x229  sum  1.0
    x230  OBJ  -3.0750994977329165
    x230  sum  1.0
    x231  OBJ  0.9339399059697084
    x231  sum  1.0
    x232  OBJ  -2.361883839822975
    x232  sum  1.0
    x233  OBJ  0.340370449261977
    x233  sum  1.0
    x234  OBJ  -1.4087901732672932
    x234  sum  1.0
    x235  OBJ  -1.5801588219426015
    x235  sum  1.0
    x236  OBJ  -1.6362683697188
    x236  sum  1.0
    x237  OBJ  6.588105992422789
    x237  sum  1.0
    x238  OBJ  -1.2267918228025096
    x238  sum  1.0
    x239  OBJ  0.7279319319649455
    x239  sum  1.0
    x240  OBJ  -3.7723258037364737
    x240  sum  1.0
    x241  OBJ  -3.5287185247609334
    x241  sum  1.0
    x242  OBJ  -0.4734345939356178
    x242  sum  1.0
    x243  OBJ  -2.345209813244036
    x243  sum  1.0
    x244  OBJ  -0.33723004481737745
    x244  sum  1.0
    x245  OBJ  0.7806590415372724
    x245  sum  1.0
    x246  OBJ  0.6571953071951468
    x246  sum  1.0
    x247  OBJ  -3.2248546546224093
    x247  sum  1.0
    x248  OBJ  3.5736563193631854
    x248  sum  1.0
    x249  OBJ  3.948314307182496
    x249  sum  1.0
    x250  OBJ  -0.9739634303399367
    x250  sum  1.0
    x251  OBJ  -3.031012832899225
    x251  sum  1.0
    x252  OBJ  0.7575906929595972
    x252  sum  1.0
    x253  OBJ  1.9341355851255446
    x253  sum  1.0
    x254  OBJ  1.1236261839250723
    x254  sum  1.0
    x255  OBJ  -0.9454761713216756
    x255  sum  1.0
    x256  OBJ  -0.19313111871611996
    x256  sum  1.0
    x257  OBJ  -1.2258437830566595
    x257  sum  1.0
    x258  OBJ  4.5909713301397215
    x258  sum  1.0
    x259  OBJ  1.9720488419039923
    x259  sum  1.0
    x260  OBJ  0.40603966581476325
    x260  sum  1.0
    x261  OBJ  0.5257672292659987
    x261  sum  1.0
    x262  OBJ  0.8546291316281804
    x262  sum  1.0
    x263  OBJ  -1.0554995461354972
    x263  sum  1.0
    x264  OBJ  -0.43949022911606983
    x264  sum  1.0
    x265  OBJ  -0.8295844931307218
    x265  sum  1.0
    x266  OBJ  -0.7504243955245119
    x266  sum  1.0
    x267  OBJ  5.009951456239574
    x267  sum  1.0
    x268  OBJ  2.1871865735355014
    x268  sum  1.0
    x269  OBJ  -1.0959912034957195
    x269  sum  1.0
    x270  OBJ  2.953769255193973
    x270  sum  1.0
    x271  OBJ  -7.226210850736114
    x271  sum  1.0
    x272  OBJ  1.530726816720985
    x272  sum  1.0
    x273  OBJ  2.09644623109228
    x273  sum  1.0
    x274  OBJ  0.6258478825768028
    x274  sum  1.0
    x275  OBJ  -0.34512229059502536
    x275  sum  1.0
    x276  OBJ  5.204557356905318
    x276  sum  1.0
    x277  OBJ  1.0084267207665405
    x277  sum  1.0
    x278  OBJ  0.4970810520642399
    x278  sum  1.0
    x279  OBJ  -1.3229281917297193
    x279  sum  1.0
    x280  OBJ  -0.05311408478224389
    x280  sum  1.0
    x281  OBJ  5.525086909188859
    x281  sum  1.0
    x282  OBJ  4.201010995931481
    x282  sum  1.0
    x283  OBJ  -3.18090945422525
    x283  sum  1.0
    x284  OBJ  -0.05125514803038947
    x284  sum  1.0
    x285  OBJ  -0.19961524949183207
    x285  sum  1.0
    x286  OBJ  -0.3010219597147094
    x286  sum  1.0
    x287  OBJ  -0.16860623040273048
    x287  sum  1.0
    x288  OBJ  -0.6536473715155485
    x288  sum  1.0
    x289  OBJ  -0.022402623344917688
    x289  sum  1.0
    x290  OBJ  -1.3784361026347471
    x290  sum  1.0
    x291  OBJ  -0.8460658497398595
    x291  sum  1.0
    x292  OBJ  0.8156781527742061
    x292  sum  1.0
    x293  OBJ  7.189296416848069
    x293  sum  1.0
    x294  OBJ  2.402140682799431
    x294  sum  1.0
    x295  OBJ  -2.9979833987277535
    x295  sum  1.0
    x296  OBJ  1.9130202500819427
    x296  sum  1.0
    x297  OBJ  0.7966779060518587
    x297  sum  1.0
    x298  OBJ  -0.5990969098679547
    x298  sum  1.0
    x299  OBJ  1.786862120438192
    x299  sum  1.0
RHS
    RHS  OBJ  -195.1484245939527
    RHS  sum  -1.0
RANGES
    RNG  sum  2.0
BOUNDS
 LO BND  x0  -0.5
 UP BND  x0  0.5
 LO BND  x1  -0.5
 UP BND  x1  0.5
 LO BND  x2  -0.5
 UP BND  x2  0.5
 LO BND  x3  -0.5
 UP BND  x3  0.5
 LO BND  x4  -0.5
 UP BND  x4  0.5
 LO BND  x5  -0.5
 UP BND  x5  0.5
 LO BND  x6  -0.5
 UP BND  x6  0.5
 LO BND  x7  -0.5
 UP BND  x7  0.5
 LO BND  x8  -0.5
 UP BND  x8  0.5
 LO BND  x9  -0.5
 UP BND  x9  0.5
 LO BND  x10  -0.5
 UP BND  x10  0.5
 LO BND  x11  -0.5
 UP BND  x11  0.5
 LO BND  x12  -0.5
 UP BND  x12  0.5
 LO BND  x13  -0.5
 UP BND  x13  0.5
 LO BND  x14  -0.5
 UP BND  x14  0.5
 LO BND  x15  -0.5
 UP BND  x15  0.5
 LO BND  x16  -0.5
 UP BND  x16  0.5
 LO BND  x17  -0.5
 UP BND  x17  0.5
 LO BND  x18  -0.5
 UP BND  x18  0.5
 LO BND  x19  -0.5
 UP BND  x19  0.5
 LO BND  x20  -0.5
 UP BND  x20  0.5
 LO BND  x21  -0.5
 UP BND  x21  0.5
 LO BND  x22  -0.5
 UP BND  x22  0.5
 LO BND  x23  -0.5
 UP BND  x23  0.5
 LO BND  x24  -0.5
 UP BND  x24  0.5
 LO BND  x25  -0.5
 UP BND  x25  0.5
 LO BND  x26  -0.5
 UP BND  x26  0.5
 LO BND  x27  -0.5
 UP BND  x27  0.5
 LO BND  x28  -0.5
 UP BND  x28  0.5
 LO BND  x29  -0.5
 UP BND  x29  0.5
 LO BND  x30  -0.5
 UP BND  x30  0.5
 LO BND  x31  -0.5
 UP BND  x31  0.5
 LO BND  x32  -0.5
 UP BND  x32  0.5
 LO BND  x33  -0.5
 UP BND  x33  0.5
 LO BND  x34  -0.5
 UP BND  x34  0.5
 LO BND  x35  -0.5
 UP BND  x35  0.5
 LO BND  x36  -0.5
 UP BND  x36  0.5
 LO BND  x37  -0.5
 UP BND  x37  0.5
 LO BND  x38  -0.5
 UP BND  x38  0.5
 LO BND  x39  -0.5
 UP BND  x39  0.5
 LO BND  x40  -0.5
 UP BND  x40  0.5
 LO BND  x41  -0.5
 UP BND  x41  0.5
 LO BND  x42  -0.5
 UP BND  x42  0.5
 LO BND  x43  -0.5
 UP BND  x43  0.5
 LO BND  x44  -0.5
 UP BND  x44  0.5
 LO BND  x45  -0.5
 UP BND  x45  0.5
 LO BND  x46  -0.5
 UP BND  x46  0.5
 LO BND  x47  -0.5
 UP BND  x47  0.5
 LO BND  x48  -0.5
 UP BND  x48  0.5
 LO BND  x49  -0.5
 UP BND  x49  0.5
 LO BND  x50  -0.5
 UP BND  x50  0.5
 LO BND  x51  -0.5
 UP BND  x51  0.5
 LO BND  x52  -0.5
 UP BND  x52  0.5
 LO BND  x53  -0.5
 UP BND  x53  0.5
 LO BND  x54  -0.5
 UP BND  x54  0.5
 LO BND  x55  -0.5
 UP BND  x55  0.5
 LO BND  x56  -0.5
 UP BND  x56  0.5
 LO BND  x57  -0.5
 UP BND  x57  0.5
 LO BND  x58  -0.5
 UP BND  x58  0.5
 LO BND  x59  -0.5
 UP BND  x59  0.5
 LO BND  x60  -0.5
 UP BND  x60  0.5
 LO BND  x61  -0.5
 UP BND  x61  0.5
 LO BND  x62  -0.5
 UP BND  x62  0.5
 LO BND  x63  -0.5
 UP BND  x63  0.5
 LO BND  x64  -0.5
 UP BND  x64  0.5
 LO BND  x65  -0.5
 UP BND  x65  0.5
 LO BND  x66  -0.5
 UP BND  x66  0.5
 LO BND  x67  -0.5
 UP BND  x67  0.5
 LO BND  x68  -0.5
 UP BND  x68  0.5
 LO BND  x69  -0.5
 UP BND  x69  0.5
 LO BND  x70  -0.5
 UP BND  x70  0.5
 LO BND  x71  -0.5
 UP BND  x71  0.5
 LO BND  x72  -0.5
 UP BND  x72  0.5
 LO BND  x73  -0.5
 UP BND  x73  0.5
 LO BND  x74  -0.5
 UP BND  x74  0.5
 LO BND  x75  -0.5
 UP BND  x75  0.5
 LO BND  x76  -0.5
 UP BND  x76  0.5
 LO BND  x77  -0.5
 UP BND  x77  0.5
 LO BND  x78  -0.5
 UP BND  x78  0.5
 LO BND  x79  -0.5
 UP BND  x79  0.5
 LO BND  x80  -0.5
 UP BND  x80  0.5
 LO BND  x81  -0.5
 UP BND  x81  0.5
 LO BND  x82  -0.5
 UP BND  x82  0.5
 LO BND  x83  -0.5
 UP BND  x83  0.5
 LO BND  x84  -0.5
 UP BND  x84  0.5
 LO BND  x85  -0.5
 UP BND  x85  0.5
 LO BND  x86  -0.5
 UP BND  x86  0.5
 LO BND  x87  -0.5
 UP BND  x87  0.5
 LO BND  x88  -0.5
 UP BND  x88  0.5
 LO BND  x89  -0.5
 UP BND  x89  0.5
 LO BND  x90  -0.5
 UP BND  x90  0.5
 LO BND  x91  -0.5
 UP BND  x91  0.5
 LO BND  x92  -0.5
 UP BND  x92  0.5
 LO BND  x93  -0.5
 UP BND  x93  0.5
 LO BND  x94  -0.5
 UP BND  x94  0.5
 LO BND  x95  -0.5
 UP BND  x95  0.5
 LO BND  x96  -0.5
 UP BND  x96  0.5
 LO BND  x97  -0.5
 UP BND  x97  0.5
 LO BND  x98  -0.5
 UP BND  x98  0.5
 LO BND  x99  -0.5
 UP BND  x99  0.5
 LO BND  x100  -0.5
 UP BND  x100  0.5
 LO BND  x101  -0.5
 UP BND  x101  0.5
 LO BND  x102  -0.5
 UP BND  x102  0.5
 LO BND  x103  -0.5
 UP BND  x103  0.5
 LO BND  x104  -0.5
 UP BND  x104  0.5
 LO BND  x105  -0.5
 UP BND  x105  0.5
 LO BND  x106  -0.5
 UP BND  x106  0.5
 LO BND  x107  -0.5
 UP BND  x107  0.5
 LO BND  x108  -0.5
 UP BND  x108  0.5
 LO BND  x109  -0.5
 UP BND  x109  0.5
 LO BND  x110  -0.5
 UP BND  x110  0.5
 LO BND  x111  -0.5
 UP BND  x111  0.5
 LO BND  x112  -0.5
 UP BND  x112  0.5
 LO BND  x113  -0.5
 UP BND  x113  0.5
 LO BND  x114  -0.5
 UP BND  x114  0.5
 LO BND  x115  -0.5
 UP BND  x115  0.5
 LO BND  x116  -0.5
 UP BND  x116  0.5
 LO BND  x117  -0.5
 UP BND  x117  0.5
 LO BND  x118  -0.5
 UP BND  x118  0.5
 LO BND  x119  -0.5
 UP BND  x119  0.5
 LO BND  x120  -0.5
 UP BND  x120  0.5
 LO BND  x121  -0.5
 UP BND  x121  0.5
 LO BND  x122  -0.5
 UP BND  x122  0.5
 LO BND  x123  -0.5
 UP BND  x123  0.5
 LO BND  x124  -0.5
 UP BND  x124  0.5
 LO BND  x125  -0.5
 UP BND  x125  0.5
 LO BND  x126  -0.5
 UP BND  x126  0.5
 LO BND  x127  -0.5
 UP BND  x127  0.5
 LO BND  x128  -0.5
 UP BND  x128  0.5
 LO BND  x129  -0.5
 UP BND  x129  0.5
 LO BND  x130  -0.5
 UP BND  x130  0.5
 LO BND  x131  -0.5
 UP BND  x131  0.5
 LO BND  x132  -0.5
 UP BND  x132  0.5
 LO BND  x133  -0.5
 UP BND  x133  0.5
 LO BND  x134  -0.5
 UP BND  x134  0.5
 LO BND  x135  -0.5
 UP BND  x135  0.5
 LO BND  x136  -0.5
 UP BND  x136  0.5
 LO BND  x137  -0.5
 UP BND  x137  0.5
 LO BND  x138  -0.5
 UP BND  x138  0.5
 LO BND  x139  -0.5
 UP BND  x139  0.5
 LO BND  x140  -0.5
 UP BND  x140  0.5
 LO BND  x141  -0.5
 UP BND  x141  0.5
 LO BND  x142  -0.5
 UP BND  x142  0.5
 LO BND  x143  -0.5
 UP BND  x143  0.5
 LO BND  x144  -0.5
 UP BND  x144  0.5
 LO BND  x145  -0.5
 UP BND  x145  0.5
 LO BND  x146  -0.5
 UP BND  x146  0.5
 LO BND  x147  -0.5
 UP BND  x147  0.5
 LO BND  x148  -0.5
 UP BND  x148  0.5
 LO BND  x149  -0.5
 UP BND  x149  0.5
 LO BND  x150  -0.5
 UP BND  x150  0.5
 LO BND  x151  -0.5
 UP BND  x151  0.5
 LO BND  x152  -0.5
 UP BND  x152  0.5
 LO BND  x153  -0.5
 UP BND  x153  0.5
 LO BND  x154  -0.5
 UP BND  x154  0.5
 LO BND  x155  -0.5
 UP BND  x155  0.5
 LO BND  x156  -0.5
 UP BND  x156  0.5
 LO BND  x157  -0.5
 UP BND  x157  0.5
 LO BND  x158  -0.5
 UP BND  x158  0.5
 LO BND  x159  -0.5
 UP BND  x159  0.5
 LO BND  x160  -0.5
 UP BND  x160  0.5
 LO BND  x161  -0.5
 UP BND  x161  0.5
 LO BND  x162  -0.5
 UP BND  x162  0.5
 LO BND  x163  -0.5
 UP BND  x163  0.5
 LO BND  x164  -0.5
 UP BND  x164  0.5
 LO BND  x165  -0.5
 UP BND  x165  0.5
 LO BND  x166  -0.5
 UP BND  x166  0.5
 LO BND  x167  -0.5
 UP BND  x167  0.5
 LO BND  x168  -0.5
 UP BND  x168  0.5
 LO BND  x169  -0.5
 UP BND  x169  0.5
 LO BND  x170  -0.5
 UP BND  x170  0.5
 LO BND  x171  -0.5
 UP BND  x171  0.5
 LO BND  x172  -0.5
 UP BND  x172  0.5
 LO BND  x173  -0.5
 UP BND  x173  0.5
 LO BND  x174  -0.5
 UP BND  x174  0.5
 LO BND  x175  -0.5
 UP BND  x175  0.5
 LO BND  x176  -0.5
 UP BND  x176  0.5
 LO BND  x177  -0.5
 UP BND  x177  0.5
 LO BND  x178  -0.5
 UP BND  x178  0.5
 LO BND  x179  -0.5
 UP BND  x179  0.5
 LO BND  x180  -0.5
 UP BND  x180  0.5
 LO BND  x181  -0.5
 UP BND  x181  0.5
 LO BND  x182  -0.5
 UP BND  x182  0.5
 LO BND  x183  -0.5
 UP BND  x183  0.5
 LO BND  x184  -0.5
 UP BND  x184  0.5
 LO BND  x185  -0.5
 UP BND  x185  0.5
 LO BND  x186  -0.5
 UP BND  x186  0.5
 LO BND  x187  -0.5
 UP BND  x187  0.5
 LO BND  x188  -0.5
 UP BND  x188  0.5
 LO BND  x189  -0.5
 UP BND  x189  0.5
 LO BND  x190  -0.5
 UP BND  x190  0.5
 LO BND  x191  -0.5
 UP BND  x191  0.5
 LO BND  x192  -0.5
 UP BND  x192  0.5
 LO BND  x193  -0.5
 UP BND  x193  0.5
 LO BND  x194  -0.5
 UP BND  x194  0.5
 LO BND  x195  -0.5
 UP BND  x195  0.5
 LO BND  x196  -0.5
 UP BND  x196  0.5
 LO BND  x197  -0.5
 UP BND  x197  0.5
 LO BND  x198  -0.5
 UP BND  x198  0.5
 LO BND  x199  -0.5
 UP BND  x199  0.5
 LO BND  x200  -0.5
 UP BND  x200  0.5
 LO BND  x201  -0.5
 UP BND  x201  0.5
 LO BND  x202  -0.5
 UP BND  x202  0.5
 LO BND  x203  -0.5
 UP BND  x203  0.5
 LO BND  x204  -0.5
 UP BND  x204  0.5
 LO BND  x205  -0.5
 UP BND  x205  0.5
 LO BND  x206  -0.5
 UP BND  x206  0.5
 LO BND  x207  -0.5
 UP BND  x207  0.5
 LO BND  x208  -0.5
 UP BND  x208  0.5
 LO BND  x209  -0.5
 UP BND  x209  0.5
 LO BND  x210  -0.5
 UP BND  x210  0.5
 LO BND  x211  -0.5
 UP BND  x211  0.5
 LO BND  x212  -0.5
 UP BND  x212  0.5
 LO BND  x213  -0.5
 UP BND  x213  0.5
 LO BND  x214  -0.5
 UP BND  x214  0.5
 LO BND  x215  -0.5
 UP BND  x215  0.5
 LO BND  x216  -0.5
 UP BND  x216  0.5
 LO BND  x217  -0.5
 UP BND  x217  0.5
 LO BND  x218  -0.5
 UP BND  x218  0.5
 LO BND  x219  -0.5
 UP BND  x219  0.5
 LO BND  x220  -0.5
 UP BND  x220  0.5
 LO BND  x221  -0.5
 UP BND  x221  0.5
 LO BND  x222  -0.5
 UP BND  x222  0.5
 LO BND  x223  -0.5
 UP BND  x223  0.5
 LO BND  x224  -0.5
 UP BND  x224  0.5
 LO BND  x225  -0.5
 UP BND  x225  0.5
 LO BND  x226  -0.5
 UP BND  x226  0.5
 LO BND  x227  -0.5
 UP BND  x227  0.5
 LO BND  x228  -0.5
 UP BND  x228  0.5
 LO BND  x229  -0.5
 UP BND  x229  0.5
 LO BND  x230  -0.5
 UP BND  x230  0.5
 LO BND  x231  -0.5
 UP BND  x231  0.5
 LO BND  x232  -0.5
 UP BND  x232  0.5
 LO BND  x233  -0.5
 UP BND  x233  0.5
 LO BND  x234  -0.5
 UP BND  x234  0.5
 LO BND  x235  -0.5
 UP BND  x235  0.5
 LO BND  x236  -0.5
 UP BND  x236  0.5
 LO BND  x237  -0.5
 UP BND  x237  0.5
 LO BND  x238  -0.5
 UP BND  x238  0.5
 LO BND  x239  -0.5
 UP BND  x239  0.5
 LO BND  x240  -0.5
 UP BND  x240  0.5
 LO BND  x241  -0.5
 UP BND  x241  0.5
 LO BND  x242  -0.5
 UP BND  x242  0.5
 LO BND  x243  -0.5
 UP BND  x243  0.5
 LO BND  x244  -0.5
 UP BND  x244  0.5
 LO BND  x245  -0.5
 UP BND  x245  0.5
 LO BND  x246  -0.5
 UP BND  x246  0.5
 LO BND  x247  -0.5
 UP BND  x247  0.5
 LO BND  x248  -0.5
 UP BND  x248  0.5
 LO BND  x249  -0.5
 UP BND  x249  0.5
 LO BND  x250  -0.5
 UP BND  x250  0.5
 LO BND  x251  -0.5
 UP BND  x251  0.5
 LO BND  x252  -0.5
 UP BND  x252  0.5
 LO BND  x253  -0.5
 UP BND  x253  0.5
 LO BND  x254  -0.5
 UP BND  x254  0.5
 LO BND  x255  -0.5
 UP BND  x255  0.5
 LO BND  x256  -0.5
 UP BND  x256  0.5
 LO BND  x257  -0.5
 UP BND  x257  0.5
 LO BND  x258  -0.5
 UP BND  x258  0.5
 LO BND  x259  -0.5
 UP BND  x259  0.5
 LO BND  x260  -0.5
 UP BND  x260  0.5
 LO BND  x261  -0.5
 UP BND  x261  0.5
 LO BND  x262  -0.5
 UP BND  x262  0.5
 LO BND  x263  -0.5
 UP BND  x263  0.5
 LO BND  x264  -0.5
 UP BND  x264  0.5
 LO BND  x265  -0.5
 UP BND  x265  0.5
 LO BND  x266  -0.5
 UP BND  x266  0.5
 LO BND  x267  -0.5
 UP BND  x267  0.5
 LO BND  x268  -0.5
 UP BND  x268  0.5
 LO BND  x269  -0.5
 UP BND  x269  0.5
 LO BND  x270  -0.5
 UP BND  x270  0.5
 LO BND  x271  -0.5
 UP BND  x271  0.5
 LO BND  x272  -0.5
 UP BND  x272  0.5
 LO BND  x273  -0.5
 UP BND  x273  0.5
 LO BND  x274  -0.5
 UP BND  x274  0.5
 LO BND  x275  -0.5
 UP BND  x275  0.5
 LO BND  x276  -0.5
 UP BND  x276  0.5
 LO BND  x277  -0.5
 UP BND  x277  0.5
 LO BND  x278  -0.5
 UP BND  x278  0.5
 LO BND  x279  -0.5
 UP BND  x279  0.5
 LO BND  x280  -0.5
 UP BND  x280  0.5
 LO BND  x281  -0.5
 UP BND  x281  0.5
 LO BND  x282  -0.5
 UP BND  x282  0.5
 LO BND  x283  -0.5
 UP BND  x283  0.5
 LO BND  x284  -0.5
 UP BND  x284  0.5
 LO BND  x285  -0.5
 UP BND  x285  0.5
 LO BND  x286  -0.5
 UP BND  x286  0.5
 LO BND  x287  -0.5
 UP BND  x287  0.5
 LO BND  x288  -0.5
 UP BND  x288  0.5
 LO BND  x289  -0.5
 UP BND  x289  0.5
 LO BND  x290  -0.5
 UP BND  x290  0.5
 LO BND  x291  -0.5
 UP BND  x291  0.5
 LO BND  x292  -0.5
 UP BND  x292  0.5
 LO BND  x293  -0.5
 UP BND  x293  0.5
 LO BND  x294  -0.5
 UP BND  x294  0.5
 LO BND  x295  -0.5
 UP BND  x295  0.5
 LO BND  x296  -0.5
 UP BND  x296  0.5
 LO BND  x297  -0.5
 UP BND  x297  0.5
 LO BND  x298  -0.5
 UP BND  x298  0.5
 LO BND  x299  -0.5
 UP BND  x299  0.5
QUADOBJ
    x0  x0  13.62185814889383
    x0  x7  0.9662945905976961
    x0  x10  2.2534752465556047
    x0  x21  1.3961317089223364
    x0  x25  -1.2193666854058718
    x0  x37  0.009840088997695451
    x0  x38  0.3240784077637755
    x0  x43  -2.4012797120428746
    x0  x53  0.007225032656568649
    x0  x57  -1.7451944494336737
    x0  x62  -2.793023422483614
    x0  x72  0.619372608546322
    x0  x84  0.27627634130819523
    x0  x142  -0.4403031660167635
    x0  x155  0.9774634456129478
    x0  x162  -1.027421626292701
    x0  x176  0.06318969431204816
    x0  x186  -0.012810402053294598
    x0  x195  -1.0312145898693994
    x0  x196  0.5283375624292045
    x0  x220  -1.4607328253539957
    x0  x225  1.5178081509057164
    x0  x226  3.7262109091449114
    x0  x241  -1.0052318407637844
    x0  x247  3.4108111848203144
    x0  x257  1.3012114950730533
    x0  x258  0.8028113775789939
    x0  x281  -2.256456961153388
    x0  x283  1.6527160633702653
    x0  x288  1.0582136619724778
    x1  x1  2.922854398140182
    x1  x4  0.5255752053816897
    x1  x5  -0.12793292592922473
    x1  x7  -0.03253486525443338
    x1  x9  -1.5669105098136078
    x1  x11  -0.23787478863268058
    x1  x21  -0.4577767106269449
    x1  x23  -0.07199085811549899
    x1  x48  0.35531831304066636
    x1  x54  0.9749427587363262
    x1  x56  -0.8097364935845374
    x1  x60  -0.37658653555589533
    x1  x67  0.05451799406013264
    x1  x72  -0.3161647582440557
    x1  x81  -0.28793586522787235
    x1  x100  -0.02407294138995864
    x1  x109  0.5836849037475004
    x1  x125  -0.10438570643273987
    x1  x148  -0.09684404340195414
    x1  x174  -0.10379833044875972
    x1  x182  0.06152849020696413
    x1  x184  -0.5601120455905342
    x1  x211  1.6617708768818829
    x1  x243  -0.09041164872449747
    x1  x259  -0.1887663209287743
    x1  x262  0.7077478321624205
    x1  x272  -1.210854835102754
    x1  x273  -0.6163823055476405
    x1  x281  -0.03187259699429924
    x1  x282  1.028528526191478
    x1  x288  -1.712803547958576
    x1  x292  -0.4650870104254255
    x1  x293  0.3056916382597688
    x1  x295  -0.3179613795334227
    x2  x2  12.740093828426367
    x2  x10  0.11165972894825271
    x2  x11  1.1995154331524374
    x2  x12  -1.0466747145223148
    x2  x13  0.23640452229636733
    x2  x21  2.048345900177997
    x2  x22  -1.900093088269283
    x2  x30  -0.5485994815834364
    x2  x33  -0.09973340608864706
    x2  x38  -0.06632015289310772
    x2  x47  -0.01579741504998906
    x2  x51  0.42522570107336
    x2  x77  -3.3451810276517486
    x2  x80  -2.2288749682376836
    x2  x82  0.10358629158941726
    x2  x83  -0.31054878057866486
    x2  x84  0.973235948429744
    x2  x89  -0.272737006073328
    x2  x91  0.2609352361962712
    x2  x96  -0.31400389042495613
    x2  x99  0.002174475444528269
    x2  x105  0.8636690288033999
    x2  x111  1.2048494604170368
    x2  x114  0.009732796449214093
    x2  x117  -0.73848215106397
    x2  x119  0.33692182896398987
    x2  x120  -0.23549413057552843
    x2  x126  -0.08683360027979507
    x2  x127  -0.006685381605877926
    x2  x135  0.07602037903113741
    x2  x152  -0.09589719840153958
    x2  x153  -0.575164917598797
    x2  x158  -0.4194767793783143
    x2  x172  0.0006721719411867298
    x2  x175  -0.7635959982115167
    x2  x196  1.4165076524477027
    x2  x198  0.4735797529866095
    x2  x204  -3.6431574710571697
    x2  x207  -0.4525483123664545
    x2  x212  -0.32495769104657635
    x2  x213  0.5363807781343372
    x2  x227  -0.004639822058381062
    x2  x234  0.22790703242219396
    x2  x240  -0.9004916909805631
    x2  x243  0.31812779468636593
    x2  x252  -1.1396215078605552
    x2  x254  0.032534922778299336
    x2  x255  1.1414030170053715
    x2  x261  -1.5972359810838583
    x2  x265  -1.0694166193238994
    x2  x270  -0.9909337861827263
    x2  x273  -1.2139317686677116
    x2  x276  -2.1122025628475076
    x2  x282  0.6447322859754635
    x2  x290  0.5532833482743899
    x2  x293  -1.3150049328095428
    x2  x295  -0.02521582657665414
    x2  x299  0.17270576394209577
    x3  x3  14.126841364746413
    x3  x11  -0.49452623035336096
    x3  x18  0.05894646576675789
    x3  x19  -0.4038631152266747
    x3  x20  -0.7533069453206667
    x3  x22  2.2975568728622227
    x3  x28  0.06709033725238192
    x3  x33  -0.20999409075507233
    x3  x43  0.4162795845145801
    x3  x50  -0.02858186485224779
    x3  x61  1.099025312748394
    x3  x70  0.08578721982527829
    x3  x85  -0.008413986255580458
    x3  x95  -0.27050362706536085
    x3  x104  0.06409259903194163
    x3  x106  -0.08849959934582005
    x3  x121  0.2867072119371321
    x3  x123  0.31524998160740136
    x3  x127  0.4250085137352221
    x3  x131  0.3687215670454626
    x3  x144  -0.22058514320340625
    x3  x153  0.9382120955697006
    x3  x160  3.0420323727020726
    x3  x161  -0.07364948643111749
    x3  x167  0.038160553100972196
    x3  x174  -0.47954814695055703
    x3  x176  -0.4042357123171505
    x3  x181  0.3117498477697634
    x3  x182  0.13760148090256952
    x3  x184  0.028321458982860225
    x3  x186  -0.014944220139203091
    x3  x214  -0.2986522695455382
    x3  x216  -0.00986653638460765
    x3  x260  -0.5389759218514542
    x3  x261  0.17363957270684657
    x3  x264  -0.38310685430527436
    x3  x267  -0.06265983178855201
    x3  x268  -0.07714200980000468
    x3  x269  1.0508986936777338
    x3  x279  -1.6624006628299983
    x3  x280  0.01527857293269446
    x3  x288  0.07089988518331497
    x3  x291  -0.22960287838308005
    x3  x296  -0.9431832397849149
    x4  x4  0.8211345605479371
    x4  x9  -0.7453312550559091
    x4  x54  0.46375035806164566
    x4  x56  -0.38516680643090867
    x4  x60  -0.1791306608929573
    x4  x64  0.2521653884284688
    x4  x72  -0.31142528240532
    x4  x89  0.13205975024973052
    x4  x90  0.5931869421305556
    x4  x103  -0.3540393516277012
    x4  x109  0.277641000645954
    x4  x153  1.4094986435889216
    x4  x184  -0.26642811526076593
    x4  x238  0.3596436851116941
    x4  x292  0.28398835405903283
    x5  x5  10.752374893216784
    x5  x7  0.12736664280870622
    x5  x18  0.18252525256681257
    x5  x19  -0.030257561240676148
    x5  x21  0.6046666416940911
    x5  x22  -0.10779657076338707
    x5  x23  0.25930577440716696
    x5  x32  1.3226319584450779
    x5  x33  -0.11164638354135342
    x5  x34  0.24738557581341333
    x5  x38  1.0653748058620391
    x5  x45  -3.275214573757865
    x5  x57  0.6151861104199826
    x5  x60  2.7133425742065653
    x5  x66  1.3320493985599027
    x5  x67  0.30982281497431774
    x5  x70  0.6931630610246835
    x5  x71  -0.6987398095122923
    x5  x75  0.024040528963993873
    x5  x79  -0.07674164079525497
    x5  x83  -0.9791725062859417
    x5  x84  0.8236996142947186
    x5  x88  -0.4620254754582026
    x5  x92  -0.5926381814370971
    x5  x103  0.17889487383687017
    x5  x107  1.0585282148121364
    x5  x108  -0.17760812078685748
    x5  x109  -0.4339617826375644
    x5  x113  0.31877946190629
    x5  x123  -1.4009432843183394
    x5  x127  2.790391887789813
    x5  x128  1.1560323804359562
    x5  x129  -0.19724639874644648
    x5  x132  -0.09875302977992363
    x5  x134  0.007513964172134131
    x5  x139  -0.34327080773210994
    x5  x150  -0.7399816371991056
    x5  x153  -0.2590960766030753
    x5  x160  0.32468729017946774
    x5  x162  -2.718566054638848
    x5  x165  -0.041302651135021864
    x5  x174  -0.25865736909465364
    x5  x178  -0.048745550733109495
    x5  x184  3.5467851788234412
    x5  x190  0.6727815956369797
    x5  x192  -3.3733882785355136
    x5  x193  0.8163770473261047
    x5  x199  0.9888501431460737
    x5  x201  0.2137385099747709
    x5  x206  0.3419918174308394
    x5  x211  -0.1301743147948117
    x5  x214  0.9647289498887022
    x5  x216  1.7412057911114112
    x5  x218  0.1690499464132812
    x5  x221  -0.5077325376677401
    x5  x223  -0.04689417549779885
    x5  x224  0.24517190532662386
    x5  x230  0.34128295280867166
    x5  x238  0.1574826266047787
    x5  x243  0.20775545187822267
    x5  x244  0.35132359873085917
    x5  x251  0.31516901822216703
    x5  x252  -0.28379954931824314
    x5  x253  -0.3866676363600754
    x5  x254  -0.07109636292082994
    x5  x262  -0.9762589235162085
    x5  x270  -0.4764223835015016
    x5  x276  1.3256032714330381
    x5  x277  -0.2729719601563312
    x5  x278  1.0407165882526785
    x5  x280  1.7326834287282533
    x5  x291  0.37626492164580155
    x5  x294  -0.7155140672804498
    x5  x296  -0.547134701100643
    x5  x299  -0.36589982423688316
    x6  x6  2.503459953964452
    x6  x16  0.17716388370517266
    x6  x22  -0.3552202962378343
    x6  x23  -2.0655822861891013
    x6  x33  0.08210992865351224
    x6  x48  0.07630532176675395
    x6  x63  -0.17943910765876905
    x6  x71  0.22092996936950907
    x6  x78  0.2161937065263187
    x6  x85  -0.013958622754728155
    x6  x103  0.809183432257917
    x6  x108  -0.1544052020651138
    x6  x111  -0.6325527172522766
    x6  x112  0.15202496030709386
    x6  x113  -0.3315076685254415
    x6  x114  -0.0012648211455711601
    x6  x121  -0.34637313576012246
    x6  x132  -0.21637595346832753
    x6  x155  -0.12426201578149093
    x6  x157  -0.05849630344342986
    x6  x173  0.38946427419755103
    x6  x177  0.021694733712928595
    x6  x213  -0.3601898700715058
    x6  x220  -0.4444360743374311
    x6  x225  0.4123810627246377
    x6  x232  -0.9616184209371755
    x6  x249  -0.4602993603280312
    x6  x259  -0.8180153187287188
    x6  x263  -0.18328046646343038
    x6  x273  -0.20897765233191246
    x6  x274  0.44591770272026493
    x6  x280  0.4343508728322216
    x6  x282  -0.47711846446220035
    x6  x287  -0.35252825350622985
    x6  x292  0.41368673295523867
    x6  x293  -0.3329612190979343
    x6  x294  0.21775679901657632
    x7  x7  1.938370201353205
    x7  x10  0.5959467986262212
    x7  x15  -0.17568168121306013
    x7  x26  -0.4188854478019034
    x7  x37  0.07380361088026853
    x7  x38  0.08570473090658799
    x7  x42  0.0802411077700231
    x7  x53  0.0019107088432558667
    x7  x56  -0.15560910806057696
    x7  x57  -0.3284083273259134
    x7  x60  1.0509712583706874
    x7  x70  0.544463106310229
    x7  x83  0.1299379970999931
    x7  x92  -0.1282410222529492
    x7  x98  0.28871033857403755
    x7  x122  -0.3064882313933921
    x7  x123  -0.30315022643956485
    x7  x138  0.37543548630573775
    x7  x139  -0.07428039682899475
    x7  x142  -0.11644115577206768
    x7  x148  0.07178594850865075
    x7  x162  -0.27170861093963766
    x7  x165  -0.22339686872668418
    x7  x166  0.9731433507644032
    x7  x174  -0.10761147711698654
    x7  x176  0.4739416088352191
    x7  x190  0.14558326189554527
    x7  x215  0.38777170242302483
    x7  x218  0.03658073107486157
    x7  x221  -0.1013153917585727
    x7  x224  0.03274994123155525
    x7  x241  -0.2658403717972851
    x7  x243  0.17594409504846006
    x7  x259  0.024565947263971197
    x7  x272  0.157579995610989
    x7  x273  0.08021566102483788
    x7  x274  -0.24147197316169197
    x7  x275  0.18064362496265635
    x7  x281  0.004147882594073537
    x7  x283  0.4370719618549567
    x7  x289  0.2678376565304069
    x7  x292  0.06052617286311388
    x7  x293  -0.03978254504075428
    x7  x295  0.04137932255693463
    x7  x298  0.543550088613659
    x8  x8  13.852074703906144
    x8  x10  0.5052218506567087
    x8  x11  0.1614574639468748
    x8  x12  1.7006109268389848
    x8  x20  -0.1845382941747827
    x8  x32  0.5594140508404865
    x8  x34  -2.1907118926176015
    x8  x41  0.6542966520508875
    x8  x45  1.2556004344885334
    x8  x47  -0.09014060537721574
    x8  x64  0.005651638619993626
    x8  x66  0.30762581961936264
    x8  x73  -0.2521644747070507
    x8  x75  0.0070001617046316356
    x8  x79  0.18752148705066277
    x8  x83  -0.6813437006199454
    x8  x84  -0.4857072471082799
    x8  x111  -0.3041794593522978
    x8  x115  -6.481163471463477
    x8  x120  -1.9063114187181989
    x8  x121  -0.07938541960100258
    x8  x128  0.580614451923866
    x8  x132  -0.041104244515751086
    x8  x145  -0.07499490383452864
    x8  x151  3.142208277733798
    x8  x154  -4.64974840652364
    x8  x157  -0.5293904738869315
    x8  x158  -0.39065804214508953
    x8  x170  2.8209576622512937
    x8  x171  -0.4657577775977838
    x8  x184  0.9236968903517757
    x8  x189  1.576011475493782
    x8  x193  -0.890120164129898
    x8  x196  0.3723804839620547
    x8  x197  0.09966833524315191
    x8  x200  -1.2719543598651728
    x8  x209  -1.5818467043545539
    x8  x210  0.15331886853833168
    x8  x211  -1.7474670123512617
    x8  x216  0.7545685381196066
    x8  x226  2.156916234243164
    x8  x230  0.9717305280796134
    x8  x234  -1.7178836791513126
    x8  x239  0.30907457692807544
    x8  x243  0.44225613772745387
    x8  x246  0.0038942843815717434
    x8  x252  0.1726702501820095
    x8  x253  0.777543839902347
    x8  x259  -4.082733776085073
    x8  x263  0.8134523093577343
    x8  x271  -0.7688494410385849
    x8  x274  -0.6474663735741775
    x8  x281  0.43438098181930457
    x8  x283  -0.050943388803823604
    x8  x285  2.991289551523912
    x8  x286  0.3056732909513771
    x8  x289  -0.13264308305403927
    x8  x291  -0.15442729301850422
    x8  x292  -0.38707188349636446
    x8  x293  0.6086968701398429
    x9  x9  8.526198958606713
    x9  x25  0.2828005485064521
    x9  x28  1.0742347458297299
    x9  x36  2.5246249521964343
    x9  x40  0.5767200635421241
    x9  x41  1.1201023291594847
    x9  x47  -0.9799441935195334
    x9  x49  1.1053380648065496
    x9  x50  0.6013470976574847
    x9  x54  -1.3825905456268544
    x9  x55  -0.6744104599474017
    x9  x56  1.1483074369721022
    x9  x60  0.5340467212093692
    x9  x64  -0.020815617641553142
    x9  x69  -0.4545809093048979
    x9  x72  1.0059368195525655
    x9  x73  -1.5894992278460753
    x9  x82  -0.037998910719297424
    x9  x85  2.0592000982943652
    x9  x99  0.23986485191107823
    x9  x108  -0.11248431127037373
    x9  x109  -0.8277380618657094
    x9  x114  -0.02534010991896209
    x9  x117  -0.017591190875242062
    x9  x120  0.5607314526678674
    x9  x125  0.4373523167234256
    x9  x132  -0.30335607378980367
    x9  x144  0.329530043114321
    x9  x151  -0.962063091382733
    x9  x157  -0.21511021551618734
    x9  x160  -1.1279419715973233
    x9  x161  -0.20214227815865457
    x9  x162  0.6400619386141152
    x9  x177  1.7816938405974858
    x9  x184  0.7943088061179484
    x9  x200  2.3962787566898434
    x9  x208  1.0272855253699376
    x9  x209  -0.10151493016673614
    x9  x225  -0.587691142679887
    x9  x229  -0.30230314483796783
    x9  x242  1.8686724599828217
    x9  x249  2.0665302462377375
    x9  x261  2.443452566069034
    x9  x263  -0.38443402729097076
    x9  x265  0.35648428020399037
    x9  x268  0.4767257920353766
    x9  x272  -1.0804881565022952
    x9  x273  -0.09283883679609899
    x9  x280  1.7567716395183997
    x9  x285  3.652577229363101
    x9  x288  -0.4642040120615609
    x10  x10  11.998890612233579
    x10  x12  0.49878583282726174
    x10  x13  0.06693022735580066
    x10  x20  -0.03247300939633326
    x10  x28  0.19304430720094437
    x10  x38  0.22815487801901083
    x10  x41  1.7468905317876664
    x10  x53  0.005086505009134539
    x10  x57  -1.2286367039307
    x10  x62  -0.6751807283047362
    x10  x63  -2.1089899263607936
    x10  x77  0.11232629456322274
    x10  x84  0.024329510821503215
    x10  x89  -0.07721658472312878
    x10  x92  0.7567163206532145
    x10  x96  -0.08889995661927817
    x10  x97  -0.0029399538003804337
    x10  x100  -1.1960381206276987
    x10  x105  0.6270468329384867
    x10  x110  0.5963796100613045
    x10  x114  0.2921087642747756
    x10  x116  -0.30035109748640304
    x10  x119  -0.08407021385804433
    x10  x120  1.4807166491548598
    x10  x122  0.48357690038173906
    x10  x131  0.9519352140719576
    x10  x132  -0.2917281547377379
    x10  x138  -0.08347090716234545
    x10  x142  -0.30997842721803126
    x10  x144  -0.08263076893888144
    x10  x147  -0.34440130227393484
    x10  x150  -0.055703808455805345
    x10  x162  -0.4336034164175116
    x10  x164  0.13848914896880984
    x10  x166  -0.3534299147792156
    x10  x170  0.05321890457785497
    x10  x176  1.1970723657232423
    x10  x179  -0.5161146731436058
    x10  x187  -1.0926832692965316
    x10  x199  -1.6398369011055007
    x10  x200  -0.574966188971139
    x10  x203  -0.35525603288995444
    x10  x204  -1.418266910864039
    x10  x209  0.07923611751869462
    x10  x216  -0.03779701357771623
    x10  x226  -0.1080418650833848
    x10  x229  2.2214372193345002
    x10  x234  -0.7765412527868123
    x10  x239  0.12027839770153904
    x10  x241  -0.7076946273367948
    x10  x247  0.21690235232790786
    x10  x252  -0.3226466477026417
    x10  x263  -0.04074655439284344
    x10  x272  0.7154033525087911
    x10  x274  -0.26454965269623537
    x10  x278  0.25024873198283204
    x10  x281  0.9346562795698801
    x10  x282  0.18253491119711104
    x10  x283  1.1635308703230767
    x10  x285  -0.07784310356697395
    x10  x291  0.007735401353382643
    x10  x297  0.4469821790574028
    x11  x11  10.914760369497028
    x11  x18  2.441036043049448
    x11  x19  2.3322533155537335
    x11  x22  -3.938557767784585
    x11  x30  -0.9278109953218935
    x11  x41  -1.0297504717614145
    x11  x47  -0.004548778873732926
    x11  x50  -0.2895885774894424
    x11  x79  -0.7717271661920099
    x11  x81  1.499898512895492
    x11  x83  -0.6437128367948625
    x11  x93  0.6592284031546884
    x11  x100  0.12539934531338867
    x11  x111  -0.47099008605198883
    x11  x119  0.6983795135063667
    x11  x121  -0.12292002125575809
    x11  x123  -1.337170207380518
    x11  x126  1.0788895140558157
    x11  x127  -1.802724046333362
    x11  x132  -0.06364562453624911
    x11  x134  -0.5534124513209225
    x11  x148  -0.13216056144885424
    x11  x153  -1.1922154066826853
    x11  x160  2.7674733951600925
    x11  x174  0.7986873170348078
    x11  x181  -1.3223239743508757
    x11  x182  -0.32051057928853305
    x11  x184  -1.2129448643695075
    x11  x186  0.06338768313574154
    x11  x192  -0.009608600694191453
    x11  x193  0.09074633306777441
    x11  x196  0.4182581928122843
    x11  x198  0.13636468805791355
    x11  x210  0.23739823602825044
    x11  x227  -0.0013360112708476577
    x11  x233  0.06482282364592915
    x11  x235  -0.07018666319958025
    x11  x240  -1.8665604155044115
    x11  x243  0.09160315070772222
    x11  x257  0.012456614166334392
    x11  x260  2.28613033225406
    x11  x285  -0.26757312976240705
    x11  x297  -0.3166959880229912
    x11  x299  0.049729675893541526
    x12  x12  27.606687684742024
    x12  x14  0.11388163049687385
    x12  x16  -0.1920409762209483
    x12  x20  -0.07309840237649878
    x12  x22  0.3630415214549602
    x12  x24  -0.9948459446157548
    x12  x29  0.3349843993070365
    x12  x30  -0.8225788110628808
    x12  x34  0.014394526999795678
    x12  x40  -1.9910307382796844
    x12  x42  -0.41198222972829107
    x12  x44  -0.12942428624049745
    x12  x45  0.4059609550071852
    x12  x56  0.16257471060396797
    x12  x62  0.04054068223054467
    x12  x70  -0.2655087816730207
    x12  x76  -0.40018588656211257
    x12  x77  0.6756916371719695
    x12  x79  0.8532592926588999
    x12  x80  0.4476714679853343
    x12  x81  -0.3890687461811536
    x12  x83  0.325315468517286
    x12  x84  0.05242275249783732
    x12  x88  -0.17576205968273695
    x12  x96  -0.3206545341441425
    x12  x98  -0.14532496141474918
    x12  x106  -0.2224705666289999
    x12  x110  0.044889513522381366
    x12  x116  0.018034339385492492
    x12  x117  0.14832477970227734
    x12  x120  -0.8257533576298457
    x12  x122  -0.02903598493048149
    x12  x128  2.641908851875979
    x12  x132  -0.012188284286762725
    x12  x133  -0.584139523429435
    x12  x135  0.17543508635658372
    x12  x142  0.327336813950137
    x12  x145  -0.34124142041164535
    x12  x146  -0.11723790722550587
    x12  x152  -1.146490996240226
    x12  x154  -0.6209651005829573
    x12  x159  -2.2854435665425816
    x12  x167  -0.5304032596280097
    x12  x168  -0.5821115531808796
    x12  x179  0.03098968925101291
    x12  x180  -2.6603689928698655
    x12  x181  0.20973778675312488
    x12  x185  0.3975641272661992
    x12  x189  -0.5051319556419854
    x12  x190  2.1300678188082007
    x12  x196  0.3116666651323612
    x12  x198  0.17622093534404426
    x12  x201  -0.2964751151877803
    x12  x203  0.021331061945499163
    x12  x204  0.7388194805669419
    x12  x212  0.02842921328060485
    x12  x215  0.48251835783749725
    x12  x220  1.296513940027237
    x12  x222  0.31132535437779896
    x12  x224  -0.2930233756767056
    x12  x226  -0.08191932536147183
    x12  x231  2.149209898555781
    x12  x239  0.2707528152096808
    x12  x240  -1.3725659595095043
    x12  x242  0.3935279656665985
    x12  x246  0.017719752488602948
    x12  x252  -0.08878118850675486
    x12  x254  -0.5420125037336825
    x12  x255  -0.2292517846300272
    x12  x256  1.2147675923587786
    x12  x258  -2.337745654080176
    x12  x259  -1.6154625929273103
    x12  x260  -0.2911302477949787
    x12  x272  -0.18694017145019207
    x12  x273  0.2438192472246186
    x12  x281  1.976518078653474
    x12  x282  1.2527363855086793
    x12  x285  1.084924585341233
    x12  x286  1.3908730147357706
    x12  x290  -0.9224113342896929
    x12  x293  0.5533138739899413
    x12  x296  0.09107378693130892
    x13  x13  1.919327123769128
    x13  x20  0.02819148960006718
    x13  x28  -3.00048118283017
    x13  x38  0.0011075679015631814
    x13  x60  -0.0051934878454044375
    x13  x89  -0.16348194641676034
    x13  x92  0.45705671193830105
    x13  x96  -0.18821782906609058
    x13  x103  0.024035612850327213
    x13  x119  -1.430377871707848
    x13  x124  -0.3241338632032842
    x13  x136  1.5510172680595593
    x13  x149  0.21323997924545537
    x13  x156  0.010118943692002369
    x13  x163  -0.9975984957809374
    x13  x172  0.0024639507068814066
    x13  x190  -0.011374333282208642
    x13  x191  -0.21302259925028946
    x13  x192  0.0131440243148204
    x13  x208  -0.3076622812894986
    x13  x210  -0.49716049206052954
    x13  x239  0.5679740200830469
    x13  x240  -1.0105525124710262
    x13  x252  -0.6831032758105303
    x13  x259  -0.03221016292536672
    x13  x262  -0.1763734604290861
    x13  x270  0.1539041216665073
    x13  x277  -0.1423722606506541
    x13  x282  0.38646053407456465
    x13  x287  0.03602248912556891
    x14  x14  17.034740055689447
    x14  x16  1.5150124898329143
    x14  x20  -1.1304658760110156
    x14  x21  0.1456564692946087
    x14  x22  -0.3179783296376054
    x14  x24  -0.1164223828230117
    x14  x28  3.9490913133235366
    x14  x30  1.9475830983090274
    x14  x32  0.23634530549262914
    x14  x34  0.7916141399108366
    x14  x49  2.8162077373865446
    x14  x58  0.34823025263584106
    x14  x61  -0.18054426094211742
    x14  x67  0.37980969945353443
    x14  x75  -0.6728479247289865
    x14  x77  -0.026155035866822888
    x14  x81  0.1632110052492723
    x14  x88  0.07772132608765418
    x14  x95  0.9491462916976764
    x14  x98  -0.17156313716458868
    x14  x104  -0.11496053235169766
    x14  x106  0.012710945729506262
    x14  x115  -0.1843528920344222
    x14  x117  -0.29332224647526334
    x14  x132  -0.026756475635237118
    x14  x137  0.2812670075580876
    x14  x144  -0.1295314396087424
    x14  x151  0.12171016743500593
    x14  x159  0.18247608930584516
    x14  x161  0.5601967338572259
    x14  x184  -0.25019187756417643
    x14  x202  0.07746792807548455
    x14  x203  3.965651537339446
    x14  x207  -0.258449684346066
    x14  x212  0.06240956762861166
    x14  x229  -0.7315887085196969
    x14  x230  2.640687692347188
    x14  x241  -1.000425843766701
    x14  x243  -1.2444151939664387
    x14  x249  0.14674769796861648
    x14  x252  1.0181800444295945
    x14  x262  -0.9311421408346572
    x14  x266  -0.5262091922777573
    x14  x290  -0.5818708022861607
    x14  x296  -1.2299261626194342
    x14  x299  0.5404065134095789
    x15  x15  1.7296943896538255
    x15  x31  0.30617921784001456
    x15  x35  0.12656157422733805
    x15  x36  0.38542569599834653
    x15  x42  -0.11418536528107007
    x15  x44  0.7376537379943893
    x15  x56  0.2214361608252429
    x15  x58  0.47703483065843544
    x15  x59  0.24094979587170912
    x15  x60  -1.4955618182753343
    x15  x83  0.19155629901039445
    x15  x87  -0.09060607375345396
    x15  x92  -0.9655490868444198
    x15  x95  -1.0850535586241339
    x15  x104  -0.22553695408023783
    x15  x107  0.15180776673875648
    x15  x109  -0.23967396088606965
    x15  x111  -0.3312486109542664
    x15  x122  0.5761428255709008
    x15  x123  0.7382026148247408
    x15  x134  -0.5743446811298246
    x15  x139  -0.22198733361924206
    x15  x143  0.10949125449534275
    x15  x148  -0.0842186796154459
    x15  x158  -0.6707588887787926
    x15  x161  -0.20281893492345668
    x15  x165  0.30518176873780783
    x15  x166  -1.699391039745507
    x15  x167  -0.322335824587506
    x15  x172  -0.09231806620852266
    x15  x181  0.05974476608313094
    x15  x183  -1.3771890916235796
    x15  x190  -0.2786577610024134
    x15  x194  0.0976213684349483
    x15  x197  0.9241020297630498
    x15  x199  -0.11459376203828227
    x15  x200  -1.597349930466772
    x15  x204  0.17238996510370083
    x15  x207  -0.06925852704046452
    x15  x212  -0.21459072894473463
    x15  x245  -0.2699061041860608
    x15  x251  0.3376870832147458
    x15  x255  -0.11884895749444335
    x15  x275  -0.2570609862612519
    x16  x16  6.831775493696756
    x16  x22  -0.19338010371999537
    x16  x29  -0.4644778941736276
    x16  x30  -0.40325022487866835
    x16  x38  -0.14435464996323283
    x16  x40  0.3350851120909249
    x16  x43  0.0677416976214729
    x16  x45  0.19901296288811446
    x16  x58  1.0876514018852537
    x16  x61  -0.5639062575111261
    x16  x83  0.15947837954468877
    x16  x85  -0.04003879347668751
    x16  x88  0.24275234169277776
    x16  x99  -0.2892475902177026
    x16  x104  -0.35906410550882095
    x16  x106  -1.744764358709336
    x16  x107  -0.19510384452726484
    x16  x108  -0.44289455384251436
    x16  x126  -0.3398804327874623
    x16  x132  -0.6206509242686696
    x16  x135  -0.029525252647415026
    x16  x136  0.4295875677097003
    x16  x143  -0.1708493081748786
    x16  x154  0.104506754382495
    x16  x155  -0.35643209751382765
    x16  x157  -0.16779029377578056
    x16  x159  0.39633781010908364
    x16  x165  0.23654143629015634
    x16  x171  0.3909712892802764
    x16  x179  -0.5211923001164734
    x16  x207  -0.8072336029625815
    x16  x219  -0.015480763325512844
    x16  x220  -1.2748166138352446
    x16  x222  -0.052395218849593445
    x16  x225  1.1828702941725315
    x16  x235  -0.0695340152524441
    x16  x237  -0.1602453800730219
    x16  x239  -0.0030173032375286624
    x16  x240  -0.6728686958491353
    x16  x245  -0.005777878243580433
    x16  x246  -0.00940702648553783
    x16  x251  -0.16118795869412947
    x16  x252  0.014941634968456496
    x16  x263  -0.525720113938501
    x16  x266  -2.080806867176956
    x16  x273  -0.20231582802030618
    x16  x276  0.3254579081721121
    x16  x281  -0.07620910340120679
    x16  x285  -0.18258988638386342
    x16  x293  0.2712493211764418
    x17  x17  1.2583879899637171
    x17  x25  0.09962322671367337
    x17  x56  0.3856324290904761
    x17  x95  0.5691638111111542
    x17  x97  0.024991793159739904
    x17  x98  -0.338693389010534
    x17  x129  1.046355990304017
    x17  x136  0.28070440471109037
    x17  x146  0.14112595066767622
    x17  x148  0.8300667355807794
    x17  x167  0.9528713899899508
    x17  x181  1.1158256996497318
    x17  x197  1.175029438817413
    x17  x209  0.031319375381834116
    x17  x250  0.6255426596001249
    x17  x264  0.2784025141674451
    x17  x283  0.5782366646324985
    x18  x18  7.897235339044586
    x18  x19  -0.2779995919052899
    x18  x20  -0.19026134906780598
    x18  x37  0.4659553374106301
    x18  x40  0.43610858508599276
    x18  x44  0.8996629005541001
    x18  x70  -0.36031301396809345
    x18  x71  -1.0372217601627156
    x18  x74  0.076159828681913
    x18  x84  0.4434992355063813
    x18  x87  -0.37385620213777765
    x18  x90  -0.05368776888136047
    x18  x103  0.13340509012418364
    x18  x117  -0.5608581826650123
    x18  x123  0.15938782013112393
    x18  x126  1.3559857884016506
    x18  x127  0.21488083899648822
    x18  x134  0.0056032967634808
    x18  x144  -0.6566269082079664
    x18  x150  -0.5518174718119958
    x18  x159  0.5862951524614521
    x18  x160  -0.3298768917306004
    x18  x174  0.9810813863006638
    x18  x181  0.15761818100314118
    x18  x184  -1.489941812848451
    x18  x186  -0.007555675846203759
    x18  x193  0.11146982849103369
    x18  x206  -1.220198594313342
    x18  x223  -0.03496982095913917
    x18  x227  0.18261584785710622
    x18  x234  0.02165362699655329
    x18  x256  0.12631170492949395
    x18  x258  0.2645226595143802
    x18  x259  0.708299782719876
    x18  x260  -2.037808041024997
    x18  x264  0.1698290803028052
    x18  x270  -0.355276647368624
    x18  x277  -0.20356004711033335
    x18  x296  -0.423446389864202
    x19  x19  10.157043319674946
    x19  x22  -1.279562462508311
    x19  x24  0.20835096676021397
    x19  x25  -0.3136505056177258
    x19  x31  -0.1059822146970321
    x19  x34  -0.3177504267172481
    x19  x41  1.532793608904269
    x19  x42  -0.4365156825835888
    x19  x48  -0.10487260467465785
    x19  x53  1.3444844730937306
    x19  x54  1.464173264771128
    x19  x57  -1.23100351331947
    x19  x67  -0.39794693502696404
    x19  x68  -0.5063967857981423
    x19  x73  0.09486097412719706
    x19  x75  -0.03087847103332705
    x19  x77  0.04374320095944939
    x19  x79  0.09856956707963367
    x19  x80  1.396663921691019
    x19  x83  0.04784487989472772
    x19  x85  0.35387444743861307
    x19  x86  0.11261749027122295
    x19  x101  0.8873587992339093
    x19  x102  0.1734498552302867
    x19  x103  0.6074816967954378
    x19  x107  -0.09822004208240173
    x19  x123  -1.0044700090908252
    x19  x127  -2.0043982592981164
    x19  x128  -0.3334268853751479
    x19  x130  -0.619615340141996
    x19  x131  0.6314299913778112
    x19  x135  0.555169107503188
    x19  x148  0.7382826757087491
    x19  x153  -0.1730128433513898
    x19  x159  0.7152261145721479
    x19  x160  3.077075976878026
    x19  x164  -0.6012702327092936
    x19  x170  -3.164850883830616
    x19  x175  -0.2168644168907643
    x19  x180  -1.9995629574518257
    x19  x181  -1.561003818155965
    x19  x182  -0.4561611434138397
    x19  x184  -0.13300080151435736
    x19  x186  0.07047898539803796
    x19  x190  0.03965623931898709
    x19  x193  -0.4095635168033298
    x19  x195  0.4472138824603851
    x19  x207  -0.39742736660908157
    x19  x209  1.603201511501188
    x19  x216  -0.032349556912537596
    x19  x217  -0.09516077492108341
    x19  x219  1.1294792808311345
    x19  x221  1.0135917338895344
    x19  x224  0.9278446654880477
    x19  x228  1.290635270522034
    x19  x229  -0.3249602309424978
    x19  x239  -0.4081624366816571
    x19  x240  -0.04985868256605258
    x19  x243  -2.49452049974381
    x19  x244  -0.08729388397046345
    x19  x251  -0.13070593679448222
    x19  x252  0.36452176971728284
    x19  x253  0.6932106366768729
    x19  x260  2.541884137962674
    x19  x261  0.4111046154159425
    x19  x277  -0.313825313889081
    x19  x299  0.21136168895118876
    x20  x20  5.123265184538169
    x20  x22  -0.7624902727679624
    x20  x23  -0.7657426893129131
    x20  x27  0.30591288559024454
    x20  x28  1.2447702220503933
    x20  x34  -0.3570129116624753
    x20  x37  -0.706262831595176
    x20  x40  -0.1025730809140183
    x20  x45  -0.05282684318292134
    x20  x55  -0.1714813658409099
    x20  x59  -0.30798539348377185
    x20  x61  -0.36473356563855996
    x20  x71  0.6649324705138235
    x20  x74  0.726406965730139
    x20  x75  0.30345010858523336
    x20  x84  -0.3790717260572468
    x20  x90  0.8859622639946474
    x20  x115  0.10618346892298397
    x20  x130  0.4808644860865726
    x20  x151  -0.1699035744544144
    x20  x154  0.25141836719743127
    x20  x163  -0.07427887310153704
    x20  x170  -0.15253310660448463
    x20  x174  0.15914765884257964
    x20  x184  -0.049945576330917424
    x20  x186  -0.763867673885945
    x20  x189  -0.08521713374795402
    x20  x208  -0.02290782077828063
    x20  x226  0.7466221042817082
    x20  x230  -0.38615707526099663
    x20  x239  -0.015623206154951946
    x20  x240  -0.0752433991768546
    x20  x242  0.8154286001347341
    x20  x247  1.4558370254277382
    x20  x256  -2.0844115224019073
    x20  x259  0.34460325579496864
    x20  x262  -0.6197432632422712
    x20  x269  -0.34876178303068367
    x20  x270  0.011459344386962996
    x20  x276  0.6348423358228935
    x20  x277  -0.010600708728786124
    x20  x280  -2.293706646908436
    x20  x296  0.3130142519074419
    x21  x21  11.387710589720502
    x21  x23  -0.07350821187676593
    x21  x26  0.16492958745530142
    x21  x47  -0.38014658904911036
    x21  x51  0.24912895470509092
    x21  x57  -0.609706719838847
    x21  x62  -0.8707212112627538
    x21  x67  0.06468825102909787
    x21  x70  0.8902618941647642
    x21  x72  0.5635265790164183
    x21  x74  -0.7999789089903255
    x21  x84  -0.4179437868175193
    x21  x86  0.5550307920762747
    x21  x95  0.16165625487978905
    x21  x106  -0.651904329062827
    x21  x110  -1.5155714562913682
    x21  x111  0.3187161819847926
    x21  x129  1.398148603376926
    x21  x135  -0.4569432994307968
    x21  x142  0.9400530582151653
    x21  x158  -0.33850779995620955
    x21  x168  0.3266843902105238
    x21  x174  0.8534729672913492
    x21  x187  -0.2178860635367534
    x21  x196  0.829895911501307
    x21  x204  -0.22169124605333437
    x21  x211  -0.46579697292198463
    x21  x213  0.3142518955067986
    x21  x219  -0.021872814951312575
    x21  x243  0.7434021123556714
    x21  x249  0.239867044610501
    x21  x250  0.5747294950383901
    x21  x254  0.5039548562339887
    x21  x261  -0.9357800560510644
    x21  x288  0.15244148404171765
    x21  x291  0.6078257135086776
    x21  x294  -0.04632598684992205
    x22  x22  19.11916826484992
    x22  x24  -1.367668115773769
    x22  x29  -0.7427296731154018
    x22  x30  1.822676481306304
    x22  x31  -0.0007530356956028803
    x22  x32  -1.674342235347914
    x22  x33  0.33144336479238057
    x22  x34  -1.1320279941357514
    x22  x37  0.6252124055262205
    x22  x48  -0.29319922055979597
    x22  x51  0.2825398654997393
    x22  x54  -2.1437092366031867
    x22  x55  -0.0015948555543023612
    x22  x56  -0.05357798592434852
    x22  x61  1.1124231838055085
    x22  x67  -1.4177386802753613
    x22  x70  -0.3855628482329052
    x22  x71  -1.0371221704019293
    x22  x75  -0.11000864416443812
    x22  x79  0.3511671422656507
    x22  x80  -0.14001742648504986
    x22  x81  -0.564992438256719
    x22  x83  1.299530317792837
    x22  x103  -1.1394115823126127
    x22  x106  -4.047456032432817
    x22  x112  -0.5841479838578502
    x22  x114  0.10865335066823958
    x22  x117  2.0779842646630473
    x22  x119  -1.4181701976724586
    x22  x121  -1.5026925839903968
    x22  x136  -0.11253823332864385
    x22  x144  0.9176402285219025
    x22  x147  0.7219342750337244
    x22  x153  2.406849728270374
    x22  x158  0.003067899924682498
    x22  x163  -0.8355511684057235
    x22  x164  0.8154266556804279
    x22  x167  -0.7702336254400917
    x22  x171  -0.10242200073992257
    x22  x172  0.3372112870102458
    x22  x174  -0.48539416720504475
    x22  x175  0.0032685269876165236
    x22  x176  -0.59114233997932
    x22  x177  -0.08336088319405284
    x22  x184  -0.47383297675544056
    x22  x186  1.3620056087805685
    x22  x188  0.17781648243913806
    x22  x193  0.8212121363145283
    x22  x195  -0.8388082803718491
    x22  x199  -0.4517625831984804
    x22  x202  0.2725197512870862
    x22  x207  -0.6457374177873916
    x22  x211  -0.32635424329496615
    x22  x213  0.6568226757544555
    x22  x216  -0.1152495825142268
    x22  x223  0.00975468658476028
    x22  x226  -0.042633339953336256
    x22  x227  -0.4250895481411467
    x22  x240  3.768220410233921
    x22  x243  0.6190731763055083
    x22  x252  1.4131978428712524
    x22  x254  -0.14222060330967615
    x22  x261  -0.7710806149684393
    x22  x269  1.0637098682964277
    x22  x273  -0.1040311616171501
    x22  x274  -1.7194704954808009
    x22  x294  -0.8367191470395443
    x22  x296  -0.8224270245798313
    x23  x23  13.13298715001493
    x23  x27  -0.08905365764713953
    x23  x34  0.2106984264546817
    x23  x37  1.1385456976626596
    x23  x40  0.16535507001959732
    x23  x53  -0.01805657525118751
    x23  x64  -4.20034042441582
    x23  x70  -0.18686830818501246
    x23  x71  -1.077919190205227
    x23  x85  -0.4554326484212942
    x23  x116  0.6805213668260207
    x23  x121  2.030542489426004
    x23  x129  -0.29347506145863406
    x23  x162  -1.1131206039517163
    x23  x165  0.12977562246901886
    x23  x167  -2.6825307248344723
    x23  x174  0.1342188229924096
    x23  x177  0.054616418867608305
    x23  x189  -2.3747809715770862
    x23  x211  -0.07325214020243725
    x23  x226  -1.203607703225461
    x23  x230  0.6186355336678845
    x23  x242  -1.314528646987669
    x23  x243  0.11690886572203282
    x23  x249  1.2625165750698206
    x23  x254  -0.10578144701388023
    x23  x259  -0.5555248509959764
    x23  x269  0.014088191840082328
    x23  x283  1.6962075620626245
    x23  x292  -1.008261907480151
    x23  x294  0.2991645079213793
    x24  x24  4.630524067117997
    x24  x29  1.9268100763040517
    x24  x49  -0.24719106332529422
    x24  x52  -0.18875007499772914
    x24  x53  0.22721695544469608
    x24  x60  0.2737927385425077
    x24  x70  1.0002379168554134
    x24  x77  -0.47708333056844315
    x24  x81  1.4657191741139637
    x24  x95  -0.8851644385015445
    x24  x122  -0.13641308762987983
    x24  x131  -0.31750138330479305
    x24  x132  0.012460210597600644
    x24  x135  0.8130672356691936
    x24  x145  -0.3360096788236132
    x24  x167  1.9981615981237066
    x24  x171  -0.37882913014213876
    x24  x174  -0.06390245600719907
    x24  x179  -0.0966000643464727
    x24  x189  -0.27281042056447846
    x24  x201  0.06552182887424751
    x24  x209  0.2709399578036179
    x24  x212  -0.45439508605060897
    x24  x216  -0.09681062935582341
    x24  x224  0.15680511321390264
    x24  x228  0.3289785179166174
    x24  x239  0.03794703906159715
    x24  x244  -0.2025129979114153
    x24  x247  0.08785806495036923
    x24  x250  0.05591248172142466
    x24  x264  -0.1323938982090684
    x24  x267  -0.036737847574663036
    x24  x273  0.49890042394181816
    x24  x276  0.2958451266362254
    x24  x286  0.14824873044993395
    x24  x288  -0.26978560846145505
    x24  x290  0.27097114118916943
    x24  x296  -0.343097709786835
    x24  x299  0.06472496209772462
    x25  x25  4.781908539487205
    x25  x33  -0.1777478266808871
    x25  x54  -0.32414660668394607
    x25  x62  2.005058670316611
    x25  x73  -0.7710336797599906
    x25  x97  0.006020631754396887
    x25  x98  -0.08159271164928049
    x25  x107  0.7983363144830171
    x25  x109  -1.0962408089344404
    x25  x129  -0.2221932830049777
    x25  x146  0.033997855797238956
    x25  x149  -0.1016003869117578
    x25  x151  -0.8818618702715904
    x25  x153  0.8829001018407153
    x25  x161  -0.18529093265779822
    x25  x167  -0.38923694979907725
    x25  x187  0.8352641585574069
    x25  x195  1.1261608012712274
    x25  x196  -0.5769827720555374
    x25  x197  0.28306970638232093
    x25  x203  0.38028495898118236
    x25  x209  0.00754497385387728
    x25  x220  1.5952257320682182
    x25  x221  -0.335047293092284
    x25  x222  -0.04565464634487241
    x25  x247  -0.14903360696376802
    x25  x257  -0.4713751645066089
    x25  x264  0.06706837747043412
    x25  x283  0.13929972941082053
    x25  x299  1.3949974529163562
    x26  x26  10.515533201254424
    x26  x30  -1.0331005229155017
    x26  x37  -2.263642827171178
    x26  x44  -0.020734573365996503
    x26  x47  -0.020531717785741477
    x26  x67  0.16641677821084766
    x26  x70  -0.9122706883935024
    x26  x71  1.1208059678671944
    x26  x76  -1.8063431013260935
    x26  x85  -0.3216901205604584
    x26  x91  -0.2791972737463976
    x26  x116  0.10925236583748925
    x26  x134  -0.1481212899807701
    x26  x135  -0.4709087201345387
    x26  x139  -2.0295500302844216
    x26  x142  0.15795696362969613
    x26  x151  1.000306654330953
    x26  x161  -0.24615929028266567
    x26  x168  -0.42956720713083707
    x26  x178  3.0870860466997008
    x26  x187  0.3163477425788799
    x26  x193  -0.14060632754370905
    x26  x219  -0.15678054779865397
    x26  x243  -0.12014580866936127
    x26  x246  2.2535211515627056
    x26  x274  0.4045963824377782
    x26  x275  -0.11810862873403633
    x26  x276  0.03501590498949607
    x26  x291  0.0009332207683515302
    x27  x27  11.44787484351353
    x27  x32  0.0041915441300664075
    x27  x36  -1.2725010325335442
    x27  x41  -0.006907153690548844
    x27  x45  0.8416484631646497
    x27  x53  0.05069015616049629
    x27  x54  -0.006907014996234862
    x27  x55  -0.3327871575604751
    x27  x56  0.22046570659749695
    x27  x57  1.005731498396522
    x27  x59  -0.5976951674311732
    x27  x71  0.006378774231950342
    x27  x79  0.7940042255106754
    x27  x81  2.8025732064953885
    x27  x88  -0.02184411174954914
    x27  x101  -0.008535962542265539
    x27  x104  0.23573096889738432
    x27  x106  -0.0035601128490022975
    x27  x120  -1.1099381064615963
    x27  x122  0.8494351598329591
    x27  x130  0.9331948384700365
    x27  x131  0.009365318240327063
    x27  x132  0.19914235117867177
    x27  x141  -0.14641935994715027
    x27  x143  0.010477783571620557
    x27  x144  -0.09019796275731712
    x27  x150  -0.9416220023484819
    x27  x165  -0.36431861952047334
    x27  x173  -0.002301046611284884
    x27  x175  -0.6121479987163096
    x27  x176  0.22159197367791367
    x27  x185  0.0008581380474344051
    x27  x186  -0.47540742573771483
    x27  x189  -0.003050764228516458
    x27  x195  -0.013956739738754748
    x27  x201  0.021594850608575678
    x27  x211  -0.17288886105742227
    x27  x229  0.01124160212854325
    x27  x234  -2.9934887932064846
    x27  x259  1.6862528065630418
    x27  x265  0.019678135910485006
    x27  x269  -0.03954972825457791
    x27  x270  0.3975036475091446
    x27  x276  1.2320136091845366
    x28  x28  24.492647086821794
    x28  x38  1.0575656207307806
    x28  x39  -0.7998868131866563
    x28  x40  0.8097321846720518
    x28  x49  2.7779988872664316
    x28  x50  -0.10650514672749332
    x28  x55  0.6248450834223722
    x28  x65  0.9239078783382755
    x28  x70  0.31967054921248206
    x28  x71  -0.008061634960646205
    x28  x84  -0.8209331747037302
    x28  x85  2.8911784064315142
    x28  x88  1.7464385006360639
    x28  x97  -0.02078040105483717
    x28  x104  -0.18800831069416235
    x28  x106  -0.3297777406189668
    x28  x108  2.0084246687003917
    x28  x118  -0.6805643418839922
    x28  x119  4.711625592662296
    x28  x125  0.6140557079231491
    x28  x127  -0.99582868848886
    x28  x136  -5.109008465102419
    x28  x138  -0.5899953009534248
    x28  x144  -0.5840569732073148
    x28  x162  1.0607804922098638
    x28  x164  0.9788793473361924
    x28  x173  -0.4486652079293635
    x28  x186  -1.654262957301229
    x28  x201  0.9830875847718645
    x28  x203  3.91184762820048
    x28  x208  1.4423395427425056
    x28  x210  1.5719019500007603
    x28  x227  -0.9001808437860511
    x28  x229  -0.9589600826312906
    x28  x241  -0.9868525833096289
    x28  x245  0.309275683003551
    x28  x247  3.152819978336077
    x28  x249  2.9014701529535643
    x28  x253  0.4191391441972021
    x28  x262  -0.39349795194561576
    x28  x266  0.13809741359419697
    x28  x267  0.3092377036974563
    x28  x268  0.6693372425842863
    x28  x272  -0.5000512064475753
    x28  x277  0.5674331972430933
    x28  x280  -4.967344568455695
    x28  x281  -0.5262146199440273
    x29  x29  5.948185430156581
    x29  x67  -0.19463021120047416
    x29  x70  0.5431920013747974
    x29  x75  0.061500534877438985
    x29  x81  0.7959775551634749
    x29  x98  -0.3370462816710329
    x29  x118  -0.18727810554828653
    x29  x142  0.7591789801413916
    x29  x143  0.772586735832776
    x29  x144  0.8715267133881411
    x29  x148  0.32938650545848713
    x29  x151  -0.5708242227051982
    x29  x158  0.27044967808527026
    x29  x160  0.21815654268594883
    x29  x165  0.37573693661163177
    x29  x167  1.0851272274973902
    x29  x174  0.18561057066912964
    x29  x178  0.07911176406475412
    x29  x180  -0.23036807340145377
    x29  x186  -0.09751364973523677
    x29  x208  0.40807517649894776
    x29  x210  0.561071882059203
    x29  x215  -0.7005590267882785
    x29  x220  -0.5513071764277392
    x29  x224  0.33466274385685013
    x29  x235  0.3144353257681573
    x29  x237  0.7246353903650306
    x29  x242  0.9126934304352167
    x29  x245  0.026127773884093413
    x29  x260  -0.6752065615295272
    x29  x290  -2.069144807221514
    x29  x296  -0.18632360212071447
    x30  x30  4.755640153773855
    x30  x32  0.03745544501328795
    x30  x35  0.3141846963422756
    x30  x37  0.5477789375188236
    x30  x45  -0.2726833824064936
    x30  x71  -0.2712238410024661
    x30  x83  0.08761806101816047
    x30  x84  -0.49859402051248547
    x30  x85  0.13193618628647835
    x30  x106  0.09054258064211522
    x30  x110  0.12556139135788902
    x30  x117  -0.046485015859013774
    x30  x119  -0.33212994417018904
    x30  x125  1.4871911943474223
    x30  x126  -0.6653666324780313
    x30  x135  0.11395520321817096
    x30  x136  0.5955006882208705
    x30  x139  0.49113082058966795
    x30  x144  -0.020527836182930182
    x30  x153  0.5669846105197209
    x30  x159  0.08478630157493382
    x30  x161  0.059568087718120166
    x30  x175  0.3084688632031324
    x30  x177  -0.31860455254101033
    x30  x178  -0.747043965767162
    x30  x179  0.9544230092424474
    x30  x184  -0.1399871426999051
    x30  x189  0.10456869201126903
    x30  x192  -0.055398489090648345
    x30  x193  0.034025325809270104
    x30  x198  -1.5347489345237257
    x30  x206  -0.09036494709743471
    x30  x222  -0.2591707064954215
    x30  x228  -0.015406745186723613
    x30  x230  1.4775152911175828
    x30  x236  -0.505101981284111
    x30  x240  1.8096349668415486
    x30  x242  -0.869226765905861
    x30  x243  -0.6612284674090272
    x30  x249  0.08262466339893455
    x30  x253  0.7287632235036059
    x30  x262  -0.5209918443874376
    x30  x268  0.26093601188601157
    x30  x280  -0.09164239326454476
    x30  x281  0.15867602031338252
    x30  x290  -0.24231596049917106
    x30  x293  0.09060257123243198
    x30  x296  -0.6881672215469475
    x31  x31  12.86078300384721
    x31  x32  -1.2514228519932784
    x31  x36  0.2919062299674303
    x31  x51  -0.0027131332504498323
    x31  x52  -0.1264025967024492
    x31  x54  2.10735738803903
    x31  x80  0.0013445392379127974
    x31  x86  -0.23527032622061914
    x31  x94  1.2105714278259032
    x31  x95  0.4659084965809526
    x31  x97  1.023585880296656
    x31  x100  -0.5868232813281733
    x31  x102  -0.3623558287852935
    x31  x105  3.0252846089672047
    x31  x114  -0.0009966917947027793
    x31  x121  -0.00045674897153523164
    x31  x123  4.005542970887445
    x31  x130  1.5478398750166265
    x31  x134  -0.8921377817593343
    x31  x138  2.1601667344285818
    x31  x139  -0.3448160902337568
    x31  x164  0.34788351658861066
    x31  x166  -0.002647582800482799
    x31  x169  2.2310687286758157
    x31  x174  -1.1339974397421595
    x31  x175  0.4530536241276193
    x31  x176  0.0005662362290459575
    x31  x183  2.683637949330702
    x31  x185  0.7726815231198544
    x31  x188  -0.0017075105848526684
    x31  x202  -1.3823530989329715
    x31  x203  -1.0285698049728311
    x31  x210  -3.4044478372600415
    x31  x215  -1.5096304380715515
    x31  x226  0.0004093933151717828
    x31  x233  -0.4751802059933466
    x31  x244  0.18236652680976842
    x31  x256  0.03893732994905763
    x31  x285  -0.16197681465913064
    x32  x32  5.824161252404392
    x32  x34  -0.26515701313482165
    x32  x36  0.23434729443797012
    x32  x40  -0.08698037749855729
    x32  x41  -0.24439090768478694
    x32  x45  -1.624939541265993
    x32  x49  0.48852680424857936
    x32  x50  0.3897856941906564
    x32  x54  -0.7570798835244236
    x32  x66  0.6608726512095664
    x32  x71  0.2256956330066549
    x32  x84  -0.06649733172147262
    x32  x88  -0.7728946737271797
    x32  x100  1.3228445892398983
    x32  x101  -0.5348150836120594
    x32  x105  -0.7360141771134115
    x32  x106  2.8824074640676294
    x32  x108  0.07189702245012684
    x32  x115  -1.6401184369117061
    x32  x116  -0.21851365740831488
    x32  x117  -1.5445135094595521
    x32  x118  -0.3582664117967833
    x32  x120  1.599184557347607
    x32  x124  0.2759345152540466
    x32  x130  -0.3765702203808878
    x32  x131  0.3313663960658959
    x32  x138  -0.5255417413474348
    x32  x142  -0.09284647320445696
    x32  x144  -0.6820589327250998
    x32  x151  -0.05203730531692652
    x32  x157  -0.752749658612694
    x32  x160  -0.015469495636668615
    x32  x161  0.03282639728676333
    x32  x169  -2.1184558016769715
    x32  x173  -0.08141629608247954
    x32  x174  0.27588749501008974
    x32  x178  -0.02418423925005195
    x32  x183  -0.6528957874218875
    x32  x184  1.7083008809777358
    x32  x185  0.030362888351291417
    x32  x191  0.19748057345423972
    x32  x193  0.29729357248219557
    x32  x195  -0.4938213982036902
    x32  x201  0.7640752440138372
    x32  x206  -1.134025265567452
    x32  x210  0.8282598820749978
    x32  x211  -0.21150801942881103
    x32  x212  0.907038612651984
    x32  x215  0.3672743388602738
    x32  x217  -0.5539072991374298
    x32  x229  -0.6459208287963127
    x32  x231  -0.02395590951803109
    x32  x234  -0.17755514751863136
    x32  x240  -0.2658545375704846
    x32  x242  -0.5401626558897847
    x32  x243  -0.4066122228128366
    x32  x248  -0.6681880255393777
    x32  x253  -0.1569568347427598
    x32  x259  -0.4941615084756087
    x32  x261  -0.003910544492903939
    x32  x264  0.10929822042681617
    x32  x265  0.6962574907357961
    x32  x267  -0.4462657124088685
    x32  x274  0.11132942532909017
    x32  x285  0.18916950052877174
    x32  x289  -0.016054709811055206
    x32  x293  -1.331200736969792
    x33  x33  2.2281131893417947
    x33  x35  -0.20901835873283417
    x33  x37  0.8288900135901954
    x33  x54  1.7630768192086859
    x33  x55  -0.6023879079553606
    x33  x68  -0.6016973364525572
    x33  x78  0.035710084014409095
    x33  x84  -0.1304237348232886
    x33  x88  0.5530354498146354
    x33  x90  -0.6323023886240784
    x33  x91  -0.09555379290900869
    x33  x95  0.2693801055796343
    x33  x97  0.025275701231338075
    x33  x103  0.13365795338487532
    x33  x113  -0.24773753495851988
    x33  x126  -0.22572398490979534
    x33  x128  0.3023930666478404
    x33  x132  0.39060464992319105
    x33  x136  -0.3564750998900684
    x33  x142  0.5524974333755206
    x33  x147  0.5153768463936887
    x33  x149  0.07223699185400878
    x33  x153  -0.9343152847987074
    x33  x160  0.10384070350874826
    x33  x167  0.2767440875627341
    x33  x169  -0.4488432910558342
    x33  x182  -0.13702996094943976
    x33  x187  -0.02869468984663076
    x33  x193  0.9859243552358741
    x33  x200  0.15098081469392022
    x33  x203  -0.27037929991334186
    x33  x209  0.13450144928397972
    x33  x214  0.08203588217655573
    x33  x221  0.461401349376675
    x33  x222  0.032460056662742306
    x33  x231  0.31304525646862297
    x33  x232  0.2972086909409398
    x33  x234  -0.08345895209873634
    x33  x235  -0.3750269715471889
    x33  x238  -0.8892487545023239
    x33  x243  0.5700993947910744
    x33  x247  0.10596159896089315
    x33  x253  0.39699738149978914
    x33  x254  0.14399377710684333
    x33  x257  0.44900638908888035
    x33  x259  -0.13511677202000366
    x33  x260  -0.009859803969384214
    x33  x264  0.3815156416963689
    x33  x265  0.3614271645700647
    x33  x267  0.06239957772811594
    x33  x271  0.14491706425437442
    x33  x273  0.10631645329697895
    x33  x274  -0.008027520616883433
    x33  x287  -0.0582293247681928
    x33  x291  0.2286492358391828
    x33  x293  -0.0027845875209921104
    x34  x34  4.723470460683678
    x34  x37  0.013410205372978917
    x34  x67  3.253610919986642
    x34  x75  0.03996973845087359
    x34  x76  -0.006673311538656049
    x34  x79  -0.8059039826677431
    x34  x87  -0.08089944198184484
    x34  x91  -0.2537942252702045
    x34  x106  0.24273726283749517
    x34  x109  0.863337831111535
    x34  x110  0.0013456926511315013
    x34  x115  2.1412048338811602
    x34  x152  -0.01911834437716404
    x34  x184  1.0874134767359571
    x34  x193  0.42190860901179095
    x34  x196  0.005197206654411649
    x34  x203  -0.17601322051639554
    x34  x211  0.8282829736767076
    x34  x216  0.26448971549493144
    x34  x240  -0.18798400451569044
    x34  x243  -0.20962526118921532
    x34  x249  0.1185369121086433
    x34  x252  -2.980327038942129
    x34  x259  1.9351775163045672
    x34  x285  -0.7408034780432786
    x34  x289  0.06287157725616727
    x34  x294  0.1479275510643687
    x35  x35  4.40939093856636
    x35  x57  -2.169304057649536
    x35  x59  0.09818070651594744
    x35  x75  0.030098668926705763
    x35  x78  -0.10129028112078114
    x35  x84  0.6795542156565638
    x35  x87  0.6900530288988047
    x35  x95  0.0749052774425919
    x35  x96  -0.11953663231974625
    x35  x110  0.3013001641190028
    x35  x111  -0.13497509943205
    x35  x112  0.6042605271886353
    x35  x115  0.031961035491009177
    x35  x126  1.1761025378400698
    x35  x137  -0.09729904518548377
    x35  x158  -0.2733166108894224
    x35  x159  0.20345526840138636
    x35  x160  -0.5410471331903078
    x35  x169  2.3386337695314543
    x35  x170  -0.7869224765478642
    x35  x182  -0.602245051874583
    x35  x190  -0.11354571084980647
    x35  x197  0.3765472796800579
    x35  x207  -0.27049690524155584
    x35  x218  0.3599448281034258
    x35  x231  0.03673794075206876
    x35  x233  -0.07289412222068978
    x35  x235  -0.12885663733729893
    x35  x236  -1.2120549813274604
    x35  x242  -0.3841240614073718
    x35  x248  1.537319051300929
    x35  x254  0.049475251977042625
    x35  x260  -0.3260298222308817
    x35  x265  0.12691620203255818
    x35  x267  0.41828617815446434
    x35  x271  0.04979248696586699
    x35  x281  0.3807628319910978
    x35  x293  -0.0009567647437360381
    x36  x36  9.674809815800621
    x36  x39  0.11151336279890575
    x36  x44  -1.343938031414046
    x36  x47  -1.4090960540010942
    x36  x50  1.8541186752429577
    x36  x54  0.11959070295286955
    x36  x73  -1.9120954522517601
    x36  x95  -0.8279980075424523
    x36  x105  0.17168227613995218
    x36  x108  -1.8561058186486403
    x36  x109  -0.18289379404009393
    x36  x116  -0.6338840716951396
    x36  x118  -1.0392914317341475
    x36  x120  1.163371928643824
    x36  x122  -0.3745138807250987
    x36  x124  0.548210197846305
    x36  x130  0.0878385696523782
    x36  x132  -0.36492359288053944
    x36  x138  0.12258758753118254
    x36  x139  -0.14773428308702458
    x36  x144  -0.13769572656210716
    x36  x151  0.9681178544646051
    x36  x157  -0.7845936969458024
    x36  x166  -0.17313058478275467
    x36  x169  0.47059236021280487
    x36  x174  -0.06435337059354428
    x36  x183  -0.8986307949183625
    x36  x189  0.14071808968800964
    x36  x200  3.8082563480594653
    x36  x208  -0.011283928457850702
    x36  x210  -0.19319946029807653
    x36  x215  -0.08567021726486648
    x36  x216  0.019518766331155984
    x36  x229  2.0353945554422896
    x36  x231  -0.06949345705231909
    x36  x237  2.5914565750700094
    x36  x239  0.059305634888902226
    x36  x247  2.975769621649986
    x36  x248  0.07924546433376217
    x36  x251  -0.11634944270397522
    x36  x264  0.1175848923604639
    x36  x274  0.32295441055758173
    x36  x295  0.8223345045659564
    x37  x37  5.89732512377501
    x37  x40  0.15251094342859173
    x37  x44  1.6768109215340476
    x37  x54  1.5068612327641246
    x37  x57  0.500971793702687
    x37  x70  -0.6715590879877763
    x37  x71  -1.5884735287680725
    x37  x87  -0.5377263282801993
    x37  x109  0.02732692397213963
    x37  x117  -1.0453394549727546
    x37  x130  -0.15500939199225938
    x37  x131  0.7665251057611051
    x37  x135  0.24968904057436525
    x37  x139  1.076124476341425
    x37  x140  -0.18707933039582264
    x37  x144  -1.2238352502677674
    x37  x147  1.8054490589026517
    x37  x161  0.1305205752010398
    x37  x164  0.013383216209638286
    x37  x176  0.03893075091130515
    x37  x178  -1.6368597993911376
    x37  x193  1.9343346245616022
    x37  x203  -0.005571283594685421
    x37  x206  -2.2742321908849994
    x37  x208  0.3969541458088273
    x37  x226  -1.1101162263429856
    x37  x230  0.5741582424442081
    x37  x242  -1.2124212707372046
    x37  x258  0.493022980267121
    x37  x259  0.8077703750463742
    x37  x265  -0.8289016728214549
    x37  x269  0.46431450666389623
    x37  x274  -0.015142573387875521
    x37  x288  0.03982860855682121
    x37  x298  0.9641557335158976
    x37  x299  0.28406845275064063
    x38  x38  6.929857977003935
    x38  x39  -0.3305360218771334
    x38  x41  -0.4173040313821029
    x38  x44  0.8412400699057285
    x38  x53  0.2825970938049639
    x38  x57  -0.17669358797643644
    x38  x61  -0.12068324255827696
    x38  x82  -0.3904781844983593
    x38  x88  0.7216781486290164
    x38  x89  1.2340465411241968
    x38  x91  1.3930854470642406
    x38  x107  1.4793296382298415
    x38  x116  0.7290796815332915
    x38  x119  0.7259371555832349
    x38  x120  0.8877170826004006
    x38  x124  -0.0015103782610343937
    x38  x127  1.3049333584697755
    x38  x133  0.32820518924354636
    x38  x135  -0.28656590687322503
    x38  x136  4.3348358749797535
    x38  x140  -1.113410005467877
    x38  x142  -0.0445788411865123
    x38  x149  0.000993642027564918
    x38  x152  0.3614934307981128
    x38  x157  0.7024110159800138
    x38  x159  -0.05622388185015328
    x38  x162  -0.10402211259218319
    x38  x164  0.25530289757036023
    x38  x171  -0.25827048618972626
    x38  x180  0.12236712769276928
    x38  x188  0.17934718325737858
    x38  x191  -0.0009926290941557466
    x38  x196  0.25144078238385276
    x38  x201  0.40623980051970676
    x38  x212  0.3843469259906018
    x38  x217  0.12674662403745646
    x38  x225  -0.528246744243013
    x38  x230  -1.7415160850586338
    x38  x239  -0.3094368148401916
    x38  x241  -0.10177549026147145
    x38  x246  0.045190366685096475
    x38  x267  0.12778583008184294
    x38  x270  -0.3828203596282899
    x38  x273  0.41325441762296883
    x38  x276  -1.7299918056473205
    x38  x278  3.026468934507445
    x38  x283  0.16733054086777974
    x38  x288  -0.6963872606801598
    x38  x294  -0.055213421863673715
    x39  x39  3.531312457915889
    x39  x57  0.15725015182884827
    x39  x60  -0.21310741200285993
    x39  x88  -0.5458392587066335
    x39  x94  -1.7067144219039212
    x39  x139  -0.10350506731844503
    x39  x166  1.1206586697257135
    x39  x175  -0.8332376589575619
    x39  x201  -0.3072583422319958
    x39  x236  -0.026409825805474747
    x39  x237  -0.16710103364191548
    x39  x246  -0.680896612243725
    x39  x264  -0.13975701693730194
    x39  x267  -0.0966504568519792
    x39  x276  -0.7345516180193571
    x39  x282  0.5111066534109133
    x40  x40  2.5188642191984156
    x40  x71  -1.7881474507615147
    x40  x74  0.19045575479352803
    x40  x84  0.19112739457406813
    x40  x85  1.5521752584728712
    x40  x101  0.6690968618157954
    x40  x108  1.07825482935557
    x40  x119  -0.6157500865177422
    x40  x125  0.3296656045307017
    x40  x127  -0.009377497078904755
    x40  x133  -0.22544894773244054
    x40  x135  -0.0741882841885089
    x40  x151  0.14956622060472674
    x40  x154  0.262594765448215
    x40  x159  1.8956149851267052
    x40  x160  0.48203466334814693
    x40  x162  0.48246321755225124
    x40  x208  0.7743429971605328
    x40  x218  0.2024389232359948
    x40  x222  -0.1316537891327097
    x40  x226  -0.16122615606354312
    x40  x229  -0.22786880321377975
    x40  x230  0.08338705822400884
    x40  x242  -0.17608428412453583
    x40  x249  1.557700546805983
    x40  x252  0.037543938218522324
    x40  x259  -0.0744138942313469
    x40  x264  0.26913997353791436
    x40  x268  0.359344378473032
    x40  x272  -0.2684604688838395
    x40  x285  -0.45879473218257394
    x41  x41  8.374178114298081
    x41  x44  -0.028132102430598774
    x41  x47  0.08209475931698447
    x41  x54  0.4027183328964569
    x41  x55  -0.41521536055610825
    x41  x65  -1.344645379334881
    x41  x71  -0.37191888623584063
    x41  x73  1.3376425757420976
    x41  x79  0.5615144589780494
    x41  x84  -0.13953781037712196
    x41  x85  0.22157683468606987
    x41  x88  1.2736361904784848
    x41  x97  -1.9838819758487762
    x41  x100  -0.3683531664404865
    x41  x101  0.4976952571496763
    x41  x106  0.20757486587983504
    x41  x110  -0.061625433075240196
    x41  x116  -0.5148974728275577
    x41  x120  -0.6362902521211204
    x41  x131  -0.5460514203089545
    x41  x133  -0.23178813892466948
    x41  x134  1.8221137422024283
    x41  x147  -0.10606794886458328
    x41  x148  0.40595491096068953
    x41  x170  -1.9816566190873288
    x41  x171  0.18239819873373112
    x41  x173  0.1341641296158813
    x41  x185  -0.05003433813973047
    x41  x195  0.8137574572119726
    x41  x199  -0.505033330084126
    x41  x201  -1.2591028455815327
    x41  x207  -0.4878879200877756
    x41  x209  -0.4544454026412617
    x41  x211  0.04169113492302885
    x41  x212  -0.27143708142491235
    x41  x216  0.2167784034838645
    x41  x217  -0.08951218647194038
    x41  x219  0.7072181834589099
    x41  x225  -0.36182474056302727
    x41  x226  0.6196559147202971
    x41  x229  0.028703842827863868
    x41  x230  0.758427243672522
    x41  x242  1.1504885456455567
    x41  x243  -1.5619323757153416
    x41  x247  -0.7039425415256783
    x41  x253  0.43405060681082874
    x41  x261  1.5043643277733696
    x41  x263  0.23369499790207374
    x41  x265  -0.9278702127666008
    x41  x271  2.2867175445142776
    x41  x272  -0.4459518047862253
    x41  x279  1.2843316753444207
    x41  x280  1.0815943895269178
    x41  x281  -0.22706329733518038
    x41  x285  2.6952440382016465
    x41  x291  -0.044365091232547414
    x41  x296  -0.6443842260551764
    x42  x42  6.433290605435461
    x42  x56  -0.10113907564107255
    x42  x60  -0.39399065713752934
    x42  x63  -0.9092471786909897
    x42  x68  0.15845939222827482
    x42  x76  -0.12870134102232877
    x42  x79  1.854280581223543
    x42  x82  0.21101170767654606
    x42  x83  -0.08749170389756708
    x42  x88  0.09498806498940801
    x42  x103  0.4110354546482044
    x42  x106  -0.2603432733491489
    x42  x112  0.09467846965052754
    x42  x117  -0.6158109961449004
    x42  x119  -3.3082609176621647
    x42  x120  -3.747964127920896
    x42  x122  -0.19920386926148095
    x42  x148  0.0384661627815164
    x42  x153  -0.14685766297392258
    x42  x154  0.012521301152548583
    x42  x156  -0.2726696216726966
    x42  x165  0.6630421382421219
    x42  x166  0.6325003734630548
    x42  x179  0.10104841674929951
    x42  x180  -0.8286197987434606
    x42  x189  0.07614230020450008
    x42  x193  0.45382161764787377
    x42  x209  -0.10249803913394495
    x42  x213  -0.07538373605934762
    x42  x219  0.9758455087659755
    x42  x229  0.36007596288994465
    x42  x237  0.44874127768251615
    x42  x238  2.452146834016342
    x42  x254  -2.1031336182923557
    x42  x256  0.2216017526111897
    x42  x257  -0.0020076678245171914
    x42  x258  1.4185961707753494
    x42  x265  2.1188194864880927
    x42  x273  -0.30667752072205584
    x42  x275  0.11741041046301273
    x42  x277  0.34773778855987353
    x42  x282  -0.7601883619682329
    x42  x286  -0.0034277927479922947
    x42  x298  0.20122009159850252
    x43  x43  9.56082089802619
    x43  x49  0.2952497810321489
    x43  x56  -0.4265019252929842
    x43  x58  0.23078625970814937
    x43  x61  -1.1775918079889283
    x43  x63  0.330714861985048
    x43  x64  0.7238061084098224
    x43  x90  1.355621911590348
    x43  x93  2.1377464582980865
    x43  x107  -0.6668432333302835
    x43  x145  -1.5368719066573295
    x43  x148  -0.5513612846898678
    x43  x155  -0.776008354201538
    x43  x165  1.0924654116533756
    x43  x166  0.521010006856892
    x43  x188  -0.5371589459354271
    x43  x189  0.33541176283874913
    x43  x193  1.2357202019442513
    x43  x228  0.015207006944729188
    x43  x239  -0.23235480385088195
    x43  x246  1.2141045815763656
    x43  x251  -0.5509225090358517
    x43  x253  0.5440711657572311
    x43  x257  -0.6903579270578807
    x43  x258  -0.6373520551028699
    x43  x266  -0.8233289746964041
    x43  x267  1.9455402949716818
    x43  x268  -0.12845057515266245
    x43  x287  0.545315290583232
    x43  x288  0.11805669898496715
    x43  x293  0.32297378608665084
    x44  x44  12.56474496538807
    x44  x47  0.11264840321052169
    x44  x53  1.0856634443409379
    x44  x61  -0.08712886414166864
    x44  x67  0.7571560991926244
    x44  x70  -1.2966410050156998
    x44  x71  0.5637340644699721
    x44  x76  0.7858297567882053
    x44  x79  0.006571195255451424
    x44  x81  -0.029626317187736215
    x44  x87  -1.2356737167249925
    x44  x95  -1.6756036565925732
    x44  x101  -0.43046246979744074
    x44  x109  -0.3696210904445036
    x44  x117  -2.018333197663625
    x44  x120  -1.875828792141563
    x44  x122  -0.16951164722894715
    x44  x123  0.07406199239848017
    x44  x124  -0.8839378430460298
    x44  x142  -0.3175524403954525
    x44  x144  -2.362971475281
    x44  x157  1.2885201466475211
    x44  x166  0.3808894936738407
    x44  x172  0.11177735943096738
    x44  x176  -0.017208696620550586
    x44  x181  -0.07233808578170459
    x44  x183  -2.123877503890199
    x44  x184  -0.6826359101137965
    x44  x191  -0.006188421437104496
    x44  x196  0.9684760249137206
    x44  x198  -0.8496509653743295
    x44  x199  0.13874844495732425
    x44  x203  0.6850588743975562
    x44  x204  0.16769066195804155
    x44  x206  -4.391069626447908
    x44  x207  0.08385720789661308
    x44  x211  -0.0005917135203510823
    x44  x212  0.2598233046349763
    x44  x226  0.3949748294111565
    x44  x229  -3.2818839929528263
    x44  x230  -0.002303528115901223
    x44  x233  -0.43350423241261693
    x44  x237  -4.1784821667200145
    x44  x246  -0.008285862464771022
    x44  x247  0.00999090862218212
    x44  x250  -0.2787542950397422
    x44  x251  -0.3843157559711791
    x44  x258  0.9519248924839677
    x44  x259  2.5489241479344105
    x44  x260  -0.4677028908568394
    x44  x267  0.14406154714590017
    x44  x271  -0.032454901762957934
    x44  x277  0.7019664185029002
    x44  x281  0.0032226616823163023
    x44  x291  -7.739973795222572e-05
    x44  x298  0.2852578656375913
    x45  x45  13.572049662356163
    x45  x47  0.5685047382365866
    x45  x60  0.5112755053775271
    x45  x62  0.5506392863858603
    x45  x66  -1.6365094800704914
    x45  x83  0.10784148717595106
    x45  x98  -0.3210858489998018
    x45  x102  3.457554756808556
    x45  x115  -0.5621568656815131
    x45  x137  -1.9929097266038187
    x45  x151  0.8995040551242061
    x45  x152  0.5746987263421356
    x45  x154  -1.331059935336871
    x45  x157  -0.4750159683997479
    x45  x166  -4.937667184873347
    x45  x170  0.8075412678750852
    x45  x172  0.043586177370000506
    x45  x178  0.05988708524791499
    x45  x184  -3.965818970174041
    x45  x186  -0.5999290743542125
    x45  x189  0.4511568259731506
    x45  x193  -1.0029723962981436
    x45  x195  -3.848876415363612
    x45  x197  0.08943124804778484
    x45  x201  0.3113795973948967
    x45  x203  0.31934630233239025
    x45  x209  1.0938221174362164
    x45  x227  -1.3081692440060977
    x45  x231  -3.2865125097977312
    x45  x239  0.27732905427873134
    x45  x240  -0.4550031235687337
    x45  x253  0.3886699616760683
    x45  x258  0.0047643784528976696
    x45  x271  -1.401869085312085
    x45  x277  -0.3880574479122481
    x45  x293  0.18342254463990054
    x45  x299  1.9202013482936329
    x46  x46  1.3595038280597596
    x46  x48  -1.1736516330217233
    x46  x74  0.5523792163643253
    x46  x82  1.3937663662012116
    x46  x90  -0.06388475154564821
    x46  x271  -0.44865894693805386
    x46  x281  0.012894904975337245
    x47  x47  6.443390336346965
    x47  x50  -0.3189953425088112
    x47  x53  -2.3045747126534324
    x47  x55  -0.049429023535541246
    x47  x57  0.5466818420191626
    x47  x64  -0.056084384390534085
    x47  x73  0.9340993786701999
    x47  x76  -0.6195020850951722
    x47  x85  0.12220465624047262
    x47  x108  0.8184885490759561
    x47  x116  -0.04150313285147815
    x47  x120  -0.026513360793583636
    x47  x124  -0.031859820262456984
    x47  x126  0.0015290707900131953
    x47  x132  0.16092066468378366
    x47  x135  0.15045034416791916
    x47  x137  -0.8763821972643161
    x47  x141  0.6946026918201637
    x47  x145  0.6250103305027387
    x47  x150  -1.1200679392502029
    x47  x157  0.04559749939339512
    x47  x159  -0.2387744698334061
    x47  x162  0.16590492560664685
    x47  x168  -0.29291529581041875
    x47  x196  0.7970924316449802
    x47  x198  -0.008339363618463084
    x47  x200  -1.6065762528943075
    x47  x215  0.4014868876915269
    x47  x218  0.4538831440676126
    x47  x225  -0.04307317434759069
    x47  x227  8.170358429765807e-05
    x47  x229  -0.11828912514640111
    x47  x236  1.4000045761046078
    x47  x237  -0.1506052624049145
    x47  x242  0.13695910797693214
    x47  x243  0.04003939022696472
    x47  x252  -0.06225840352816653
    x47  x253  -0.2803530897444899
    x47  x261  0.1790860041014556
    x47  x265  0.026127515693673824
    x47  x272  -0.05308802214102277
    x47  x274  0.022435318181907374
    x47  x280  0.12875765112406293
    x47  x285  0.267705405769732
    x47  x291  0.5461937044009677
    x47  x292  0.13956357561144567
    x47  x299  0.8413674711684688
    x48  x48  3.900082827802912
    x48  x67  0.03835855911393246
    x48  x71  0.18235583806300637
    x48  x82  -1.2913708657125755
    x48  x83  -0.5479823802745836
    x48  x88  0.4003601085218838
    x48  x90  0.059191345773532994
    x48  x94  0.3885063506364644
    x48  x103  -0.1457796050673279
    x48  x112  0.12548156831058443
    x48  x114  -0.0010439847552537285
    x48  x116  2.154783736990278
    x48  x121  0.40176575534837405
    x48  x148  -1.0301444615351398
    x48  x173  -0.41146491158667964
    x48  x177  0.017906856906127144
    x48  x178  0.2096903492707236
    x48  x181  1.0393756921126251
    x48  x190  -0.45419531750463693
    x48  x201  -0.7318506518628604
    x48  x204  -0.027534227893356123
    x48  x211  1.1293544155904225
    x48  x213  -0.1129403317679226
    x48  x239  0.4633345489590677
    x48  x262  0.4979674605748638
    x48  x271  0.8825964245197593
    x48  x274  0.36806095894886304
    x48  x277  0.01659193317970409
    x48  x281  -0.01194755807364537
    x48  x282  0.723666982845437
    x48  x283  0.6636777237764236
    x48  x294  0.5547396592719167
    x49  x49  9.917578659390044
    x49  x83  0.2749621947966358
    x49  x99  1.1520425522955695
    x49  x113  0.5198608728688149
    x49  x115  -2.1365160320541707
    x49  x118  -0.589527539514653
    x49  x135  -0.7111627927906303
    x49  x150  -0.107351247101488
    x49  x157  -1.0331489575637698
    x49  x159  0.4555119159440387
    x49  x169  -1.507017693054343
    x49  x171  0.3745727019937262
    x49  x189  0.3961209981349909
    x49  x191  0.38589821380310624
    x49  x200  -3.0369743711972546
    x49  x203  2.789648221312942
    x49  x205  0.47744654814626925
    x49  x206  -2.2160069556992554
    x49  x218  -0.9453262140080428
    x49  x240  -0.5195082705371709
    x49  x241  -0.7037522458394435
    x49  x242  -1.3424433208600026
    x49  x259  -0.1541036124549954
    x49  x261  -0.007641623215960971
    x49  x263  -1.846391225979782
    x49  x266  -0.8738696604735939
    x49  x267  -0.8720510493152804
    x49  x273  -0.4932949051504724
    x49  x276  0.17039707531298998
    x49  x283  -0.5815973346440877
    x49  x290  -0.26294952716395487
    x49  x293  0.381431758484831
    x50  x50  9.325515252828918
    x50  x60  -0.12039199231469161
    x50  x62  0.5176245796537834
    x50  x70  -0.1361862349933351
    x50  x73  -0.45544707527956263
    x50  x91  -0.8021769019479029
    x50  x106  0.1404921066083372
    x50  x108  -0.4421107563000446
    x50  x116  -0.8091280391557109
    x50  x118  -1.3266145590653275
    x50  x127  1.4196632670894218
    x50  x132  -0.08692211619572848
    x50  x135  -0.2968222648912181
    x50  x137  0.5900821552614268
    x50  x148  0.5477968887138701
    x50  x150  -0.698403395776888
    x50  x165  -1.066800629661644
    x50  x166  1.8272244181797952
    x50  x169  0.6006926039999506
    x50  x171  -0.5567491340370506
    x50  x175  0.673713852145779
    x50  x179  0.016972790885976984
    x50  x181  0.9386500569071841
    x50  x184  0.006837295368469815
    x50  x192  -0.009039374470506754
    x50  x196  -1.7336528703407812
    x50  x200  0.867800341278665
    x50  x210  0.4116443996411415
    x50  x211  -0.06146530357238107
    x50  x220  -0.962669741327503
    x50  x221  -0.3630419340836247
    x50  x228  0.3565600695294417
    x50  x229  0.7495956744100172
    x50  x231  -0.0887056595199278
    x50  x233  -0.26868636695849724
    x50  x251  0.0334968398959406
    x50  x253  -0.48225184817529815
    x50  x264  0.4047172878165063
    x50  x265  0.17439983317882682
    x50  x266  0.5752505908493066
    x50  x274  0.4122385789760304
    x50  x276  -0.10244504588057779
    x50  x282  -0.9716228232544931
    x50  x297  1.312684169961686
    x50  x299  -0.21430978553349755
    x51  x51  2.3858744043549027
    x51  x80  -0.5044726799237148
    x51  x88  0.8036143780584707
    x51  x101  -0.3904169986741
    x51  x111  0.06616378216009859
    x51  x114  -0.5434137376938433
    x51  x120  -0.5250137352680562
    x51  x121  0.17137274333508368
    x51  x125  -0.2712318301825603
    x51  x154  0.8905931483377553
    x51  x158  -0.07027241665710447
    x51  x176  -0.21245248921120663
    x51  x180  -0.8110264596416472
    x51  x188  0.6406599498545854
    x51  x196  0.17228197188540897
    x51  x204  -1.901328002867535
    x51  x213  0.06523702006038078
    x51  x226  -0.15360484619858897
    x51  x261  -0.19426295644217306
    x51  x273  0.5162813721354227
    x51  x274  -2.148360344475518
    x52  x52  3.30166039220419
    x52  x57  0.5530141096051577
    x52  x60  -0.17234759037302294
    x52  x64  -0.14808857933250757
    x52  x77  0.30798252106279705
    x52  x82  -0.36537539701818333
    x52  x86  -1.0015351752658812
    x52  x89  0.056120491080275905
    x52  x96  -2.897792169251596
    x52  x105  0.2930137452730264
    x52  x108  0.5845673325373908
    x52  x130  -0.8157296407830119
    x52  x142  0.2651857338983258
    x52  x145  0.3875563113942877
    x52  x184  -1.5703277644406874
    x52  x185  -0.0825385371517066
    x52  x189  0.1717292389244247
    x52  x197  0.18483516405689027
    x52  x201  -0.024016085165103448
    x52  x202  0.1476642047196431
    x52  x212  0.2677385726394217
    x52  x223  0.3095001912661668
    x52  x273  -0.6110291454331447
    x53  x53  3.6378366384140968
    x53  x56  0.2221579144146129
    x53  x57  -0.003939222462073375
    x53  x73  0.33442648760831045
    x53  x106  0.020725021837204927
    x53  x115  0.021675903174757993
    x53  x135  0.6054391603039665
    x53  x141  -0.5448810352739383
    x53  x142  -0.0009938446241667212
    x53  x145  -0.49028931207973264
    x53  x156  -0.004891246972131261
    x53  x159  -0.015395515621954186
    x53  x162  -0.002319078168983129
    x53  x165  -0.07386947086267691
    x53  x189  -0.000618574860609421
    x53  x196  -0.10551337289699486
    x53  x205  -0.9196732981382448
    x53  x209  1.7483699359402038
    x53  x213  0.2579279791693445
    x53  x215  -0.2165917133673874
    x53  x217  -0.41878275563514167
    x53  x224  1.0118601477881628
    x53  x228  1.407501108910416
    x53  x241  -0.002268991772242374
    x53  x243  0.03995583992677447
    x53  x261  0.5099124222576794
    x53  x269  -0.008019127605318985
    x53  x283  0.0037304818625628236
    x53  x291  -0.294657269996772
    x53  x299  0.4176688398193138
    x54  x54  9.783601662387088
    x54  x55  -1.8005228477779218
    x54  x56  -0.7144849775831779
    x54  x58  -0.1494833294789944
    x54  x59  0.3112395781052394
    x54  x60  -0.3322876325157127
    x54  x71  -0.3719114181763339
    x54  x72  -0.2789734339459054
    x54  x78  -0.14842590572875397
    x54  x79  -0.6141997721009818
    x54  x88  1.2736106161094156
    x54  x101  0.49768526352489895
    x54  x103  1.176496759509595
    x54  x105  1.2394251162753627
    x54  x106  0.2075706978165614
    x54  x109  0.5150244538486191
    x54  x113  -0.7404814838647978
    x54  x114  -0.41810971265233104
    x54  x130  0.6341326073526201
    x54  x131  -0.546040455701747
    x54  x137  -0.5415872439608272
    x54  x138  0.8849960423747818
    x54  x147  1.7399763057106672
    x54  x149  0.1317336826208892
    x54  x164  -0.8419668826594042
    x54  x167  0.5046793458935214
    x54  x172  -1.412339724969972
    x54  x173  0.13416143562603372
    x54  x174  -0.46458601099623875
    x54  x183  1.0994563181034709
    x54  x184  -0.4942245353994784
    x54  x185  -0.05003333345987033
    x54  x187  -0.08576773204848005
    x54  x193  1.792338144970597
    x54  x195  1.6798506415671532
    x54  x198  0.25844846387458975
    x54  x201  -1.2590775630392261
    x54  x203  -0.49307231610677554
    x54  x206  -0.4309082529614949
    x54  x207  0.41535025887116905
    x54  x210  -1.3947640311401774
    x54  x215  -0.6184786303059339
    x54  x221  0.4344177725380215
    x54  x222  0.05919519476818405
    x54  x229  -0.6554363014228032
    x54  x242  0.30572117212413674
    x54  x247  0.1932349519166973
    x54  x255  -0.7653850134807261
    x54  x261  1.0605954913215274
    x54  x265  -1.1473244180484887
    x54  x274  -0.014593443538308637
    x54  x290  -0.08773250161340646
    x54  x296  0.10067896532180665
    x55  x55  3.0897290240693986
    x55  x56  0.010912270340743704
    x55  x59  0.3350417340866578
    x55  x71  -0.12274212285102443
    x55  x81  -0.9733616167039711
    x55  x90  -1.0705338258246528
    x55  x94  -0.18873730628522659
    x55  x102  0.1287461774430998
    x55  x113  0.6078892203963177
    x55  x120  -0.2078598590803291
    x55  x121  -0.0012457383186021112
    x55  x127  -0.5444690959565288
    x55  x130  -0.5231081560613813
    x55  x131  0.23222389756288458
    x55  x142  -1.6265776772245646
    x55  x149  -0.43964851865245846
    x55  x156  0.4946006686535364
    x55  x163  0.0032521108013274292
    x55  x187  0.07040997095294065
    x55  x202  -0.0010606943778522118
    x55  x211  -0.7684198490977711
    x55  x225  0.21785365796584838
    x55  x226  0.34926845762211245
    x55  x229  -0.2922472836057554
    x55  x238  -0.0144299111224106
    x55  x242  -0.6927059153740596
    x55  x245  0.16909640530823603
    x55  x261  -0.905773527837781
    x55  x265  -0.13214663078913141
    x55  x272  0.2685063265656592
    x55  x276  -0.690612871798201
    x55  x280  -0.6512249378721873
    x55  x285  -1.3539889452663483
    x56  x56  1.355089265675267
    x56  x60  -1.0487051309028448
    x56  x71  -0.022226009472697962
    x56  x72  0.2317007518465896
    x56  x73  0.2971819640482666
    x56  x83  0.16966996573901608
    x56  x93  -0.2716603854505042
    x56  x94  -0.034176345169118376
    x56  x102  0.023313217116972047
    x56  x104  0.05748648737022887
    x56  x109  -0.4277523902123358
    x56  x120  -0.27067484275524184
    x56  x122  0.386309926164494
    x56  x131  0.042050849595326484
    x56  x145  0.1953024938621437
    x56  x148  0.4635241735575699
    x56  x150  -0.22962846841349516
    x56  x165  0.2703131168926292
    x56  x166  -1.2265884868471006
    x56  x172  -0.026769314084731526
    x56  x181  0.7233738759221021
    x56  x184  0.410477065193581
    x56  x186  -0.22405713195417715
    x56  x190  0.0515029432034481
    x56  x205  -0.817250807428804
    x56  x207  0.05126147438976138
    x56  x211  0.025907434235386065
    x56  x213  0.1770614967962811
    x56  x217  -0.40209680430521866
    x56  x220  0.0313484308931828
    x56  x226  0.06324515062400918
    x56  x231  0.05196577984992967
    x56  x246  -0.15428589172863832
    x56  x256  0.03820167280223006
    x56  x261  0.453124321051478
    x56  x275  -0.2276903915825685
    x57  x57  10.531768463252586
    x57  x68  -0.2637346405201368
    x57  x78  -0.6985710226568662
    x57  x81  0.47411041594415027
    x57  x83  -1.0234046213071397
    x57  x86  -0.580962138013474
    x57  x87  -0.7859193303996285
    x57  x89  -0.3475071616787039
    x57  x91  -0.02302617314809899
    x57  x92  -1.4156886298144638
    x57  x94  -0.20993055842904346
    x57  x96  -1.370488278184817
    x57  x105  0.37662436495640644
    x57  x114  1.189566478589554
    x57  x116  0.6914197544765186
    x57  x123  -2.1023287555297356
    x57  x126  0.8892607875712296
    x57  x130  -0.3857929918934657
    x57  x137  0.11081641154844157
    x57  x139  -0.35877736429242285
    x57  x140  -0.3748858708523715
    x57  x142  0.3654790235513457
    x57  x150  -0.014602090627725828
    x57  x159  -0.9462862658756868
    x57  x162  0.5601694193911508
    x57  x165  -0.043168413913241874
    x57  x166  0.007322875260160494
    x57  x168  -0.46979883377599907
    x57  x170  -0.35206161047294127
    x57  x172  0.3122671703161996
    x57  x174  -0.466919841276196
    x57  x181  0.5812851652225173
    x57  x190  0.7031731280087739
    x57  x205  -0.03106727817577583
    x57  x210  0.0772012102093844
    x57  x218  0.1766864319417015
    x57  x221  -0.48935749900579656
    x57  x222  0.3646932618429524
    x57  x224  0.25624704463737435
    x57  x232  0.26881274310865544
    x57  x234  -0.5064075448883779
    x57  x241  0.5480711347550766
    x57  x248  -1.7508926253640142
    x57  x252  0.013146326801712769
    x57  x257  -1.8887176669583678
    x57  x259  0.28526284974597677
    x57  x264  -1.386346195224994
    x57  x265  -0.8469403638105567
    x57  x270  0.06724556533370524
    x57  x273  -0.288981484017774
    x57  x281  0.1360438425310372
    x57  x282  0.07691650596770074
    x57  x283  -0.901091600511823
    x57  x292  -0.18675365274792619
    x57  x293  0.00300437511599782
    x57  x299  0.5692411292353416
    x58  x58  5.2555734265534335
    x58  x61  -0.12961557731955595
    x58  x64  0.0559818848675001
    x58  x78  0.16805089322050565
    x58  x79  0.7016302066294641
    x58  x84  4.087576999151326
    x58  x88  0.05579736790482893
    x58  x90  0.17515326638025203
    x58  x92  -0.10685800406713188
    x58  x104  -0.08253198241790662
    x58  x106  -0.4010394221174845
    x58  x107  0.512111528532502
    x58  x110  0.06130081859256721
    x58  x116  0.4903391830169875
    x58  x120  0.015823633009448272
    x58  x121  -0.5880751493576669
    x58  x122  0.8312435385466153
    x58  x143  0.3693601118383099
    x58  x160  -1.5207439232366557
    x58  x164  -0.9053831848210329
    x58  x167  -1.087374482719067
    x58  x170  0.6964945894839809
    x58  x171  -0.33200743594729565
    x58  x188  -0.0694036760113941
    x58  x193  0.1596613538421514
    x58  x206  0.4878832738174643
    x58  x207  -0.6558133013705503
    x58  x228  0.001964822872412664
    x58  x245  0.4651741330067515
    x58  x253  0.07029677007351869
    x58  x255  -0.40092758489566266
    x58  x263  1.3797948468615762
    x58  x266  -0.4782798200715415
    x58  x271  1.7286253307121735
    x58  x272  0.05738765816927475
    x58  x281  -0.5810382807307776
    x58  x287  0.07045751734766327
    x58  x296  -0.11399081560442338
    x59  x59  1.2977690129338497
    x59  x79  -0.5113207833657559
    x59  x111  -0.2569675895267988
    x59  x114  -0.3480759770960509
    x59  x124  -0.086470216849526
    x59  x125  0.6637774385064408
    x59  x130  -0.9395170751590742
    x59  x137  -0.4508709159817487
    x59  x143  -0.24136311604220803
    x59  x158  -0.5203442040303611
    x59  x172  -1.1757716094226927
    x59  x190  -0.21617000277055112
    x59  x197  0.716876277249713
    x59  x198  -0.40070764545594467
    x59  x242  0.25451261352195614
    x59  x261  0.22012776572914688
    x59  x276  -1.2403602923425259
    x60  x60  16.756199900913252
    x60  x62  3.7664734553011003
    x60  x66  0.6180656364924922
    x60  x72  0.10775775096580087
    x60  x75  -0.7091838853860647
    x60  x77  -0.44674619528507875
    x60  x83  -1.1459371474003166
    x60  x88  -0.4824041464033333
    x60  x102  0.36937768969791746
    x60  x103  -0.30477824913544976
    x60  x109  -0.19893606374676687
    x60  x122  -2.6091058183055322
    x60  x137  -0.20352026148515287
    x60  x143  0.41079697490173783
    x60  x145  -0.30681025418379204
    x60  x147  0.2588327760964243
    x60  x148  0.5038169664736963
    x60  x154  -0.11100433938581275
    x60  x155  -1.6809703694007996
    x60  x156  -0.12831101752026683
    x60  x162  -3.9087322356382574
    x60  x165  -1.8256728038319938
    x60  x166  7.92832262774516
    x60  x172  -0.02658717854055249
    x60  x173  -0.1404547022370303
    x60  x174  -0.6587438443673217
    x60  x175  0.08227403825906036
    x60  x181  -0.3237418778410083
    x60  x184  0.190901777468504
    x60  x189  -0.693514884318121
    x60  x190  0.14422970632876664
    x60  x192  -4.648340476777567
    x60  x195  -0.4111833877511985
    x60  x200  -0.0015426774673726786
    x60  x209  0.11685526769560428
    x60  x210  0.3541991819512744
    x60  x212  -0.38837005504390565
    x60  x221  0.12521373286070767
    x60  x227  -0.13975441231503793
    x60  x231  -0.3511048944754593
    x60  x236  0.002607711011829598
    x60  x237  -0.7560993454716862
    x60  x246  0.06723185555041987
    x60  x247  -0.5190890920639417
    x60  x251  0.008232096373712963
    x60  x255  0.2061238533556036
    x60  x257  0.04168932583527165
    x60  x259  0.4084338153510906
    x60  x266  0.14137209114704286
    x60  x275  1.5378023840821144
    x60  x276  0.1078632177084779
    x60  x280  2.295765402010939
    x60  x294  -0.9480395628416958
    x60  x299  -0.4848087903174984
    x61  x61  5.200085962063274
    x61  x63  -0.38956070953894406
    x61  x81  -0.1257438642036992
    x61  x88  -0.028928832215584253
    x61  x104  0.04278972219369763
    x61  x106  0.2079238249026354
    x61  x119  0.13941268601545664
    x61  x120  -0.41031721431962576
    x61  x122  0.46105447362738294
    x61  x144  0.028323001610127206
    x61  x145  -0.3602123521728881
    x61  x148  0.6494679192427687
    x61  x151  -0.08573806106954779
    x61  x166  -0.613716077740822
    x61  x174  -0.23218597229073268
    x61  x180  -0.11477904967569125
    x61  x183  -0.07614843693996334
    x61  x184  0.6413165114221425
    x61  x188  -0.16822572895539453
    x61  x190  -0.2363794878417916
    x61  x207  0.09619814703349097
    x61  x219  -0.25788675817223683
    x61  x241  -2.4815177331942757
    x61  x266  0.2479700599954648
    x61  x267  -2.4347721729262792
    x61  x269  0.5088205147329723
    x61  x273  -0.3876281990383634
    x61  x279  -0.20309309086179023
    x61  x296  -0.45666721677555083
    x62  x62  15.55577836941251
    x62  x66  1.4996981341093234
    x62  x72  -0.38628222859625994
    x62  x77  0.16593739289468123
    x62  x84  0.2864891620225207
    x62  x91  -3.4129735439940414
    x62  x98  0.1541074743778385
    x62  x102  0.39781656919380964
    x62  x110  -0.3779117721433566
    x62  x116  0.19032544641259752
    x62  x120  -0.8777863717324883
    x62  x122  -0.3064313405551689
    x62  x131  -0.32323490508951996
    x62  x135  -1.2628717367480506
    x62  x147  0.1685557486004518
    x62  x150  -2.971454684165068
    x62  x153  0.3376956248801553
    x62  x155  -4.078770890402126
    x62  x161  -0.10063285630886469
    x62  x166  0.11662417437014627
    x62  x172  0.005014903527257875
    x62  x179  0.3270497640535358
    x62  x184  0.029090227041436285
    x62  x195  1.252830899174716
    x62  x196  -0.8687688642649865
    x62  x203  0.22511741630512913
    x62  x204  0.8987224791300583
    x62  x209  0.12585211013937317
    x62  x220  2.4019477090414574
    x62  x227  -0.15051429035233077
    x62  x231  -0.3781369271696143
    x62  x247  -1.2595376556163747
    x62  x253  -2.0518077687948897
    x62  x257  -0.7097544088746376
    x62  x265  0.7420084214229428
    x62  x272  0.020480516125084135
    x63  x63  9.390091565695466
    x63  x79  -0.5098395201767587
    x63  x92  -3.1940447965312186
    x63  x103  -0.11301532308298094
    x63  x111  0.45401878052351263
    x63  x112  -0.026032104324709784
    x63  x120  1.1544103173317437
    x63  x148  -0.18239655865380142
    x63  x150  0.23512174204416766
    x63  x156  0.07497125865852264
    x63  x166  1.6641580909704559
    x63  x170  -0.22463314270433007
    x63  x213  0.2585285954934359
    x63  x219  -0.2683113931051359
    x63  x238  -0.6742244824852273
    x63  x265  -0.5825752161085835
    x63  x267  0.6436067681551847
    x63  x282  0.3424548460424774
    x63  x293  0.2389850561596369
    x64  x64  9.481335366388365
    x64  x69  0.01144769677711632
    x64  x72  -0.5821111491321623
    x64  x73  -0.15689365819016396
    x64  x75  -0.10107888966861861
    x64  x82  0.21643169386989478
    x64  x86  -0.13438424308431343
    x64  x89  0.44412666464809525
    x64  x90  0.32883357039748184
    x64  x160  0.02840492728296318
    x64  x162  1.274810651053204
    x64  x167  3.0721906751667616
    x64  x177  -0.04486834008934496
    x64  x188  -0.13029878947270335
    x64  x189  2.720982287722435
    x64  x191  1.101054306958726
    x64  x193  0.2997489805552938
    x64  x201  0.01422603173291472
    x64  x228  0.00368876775001975
    x64  x236  -0.1395064909453859
    x64  x238  1.300040795312667
    x64  x252  0.10743332201389116
    x64  x253  0.6157537748110877
    x64  x274  -0.038714464652639384
    x64  x283  0.7355974609615386
    x64  x285  -0.6808491345096672
    x64  x287  0.13227727617979973
    x64  x292  0.7857303346045356
    x65  x65  1.84285952069457
    x65  x73  -0.7786690619706029
    x65  x97  1.1548582148991
    x65  x134  -1.060689622306149
    x65  x173  -0.5148091840028148
    x65  x227  -1.0328890171430944
    x65  x279  -0.747635698082318
    x65  x296  0.37510921822495785
    x66  x66  10.719075377718735
    x66  x77  0.0013226177631428446
    x66  x109  -0.00014391032469885366
    x66  x147  -0.03281063142442776
    x66  x155  -0.6799319805822996
    x66  x158  -0.13849666956420012
    x66  x166  0.11414602706718417
    x66  x171  -0.16512113936453693
    x66  x174  -1.662965135599666
    x66  x178  -0.024356436529427924
    x66  x184  1.7204643714650087
    x66  x193  0.40791488532253245
    x66  x195  -0.008297771084551596
    x66  x230  0.2553035449176097
    x66  x232  0.5490444550038323
    x66  x235  -0.011660381981414635
    x66  x236  0.7124166639466213
    x66  x247  -0.20996519682349593
    x66  x253  -0.15807440307487547
    x66  x290  -0.20991968458885732
    x66  x295  0.7812992638476634
    x66  x297  -2.7714346213544383
    x67  x67  9.341023195545757
    x67  x75  0.3161806313982538
    x67  x79  -1.009304765195594
    x67  x95  0.42153028889152966
    x67  x106  1.2075431077880523
    x67  x123  0.2243059570514682
    x67  x134  -0.44176504565615043
    x67  x142  -0.4906475709342502
    x67  x144  -0.37863105450804757
    x67  x148  -0.14310055903808486
    x67  x175  1.012309409371724
    x67  x178  -0.5599939884119319
    x67  x184  1.3618639781061839
    x67  x192  -0.4045387670980346
    x67  x197  -0.4033106047332785
    x67  x198  -0.11130490048048337
    x67  x199  0.46403602497097685
    x67  x203  2.0747860202245745
    x67  x210  -0.24375528035510655
    x67  x211  0.17328163244402348
    x67  x216  0.3312438403773459
    x67  x224  -0.1453927982522354
    x67  x234  -0.12513485962662982
    x67  x241  0.06996315906357703
    x67  x250  -0.8442420586619245
    x67  x252  -3.73252688526013
    x67  x260  -1.416496385689113
    x67  x262  -0.322284671924798
    x67  x264  0.6944466739679362
    x67  x275  -0.3522536414032762
    x67  x276  0.10443335234512473
    x67  x282  0.11103529096111137
    x67  x290  1.0880306934390758
    x67  x294  -1.1735318954220209
    x67  x298  0.8639389312406897
    x68  x68  6.537719275235072
    x68  x76  -0.1259210631943611
    x68  x77  -0.026613680073422945
    x68  x79  2.3015347977750977
    x68  x105  -0.35701070990677297
    x68  x106  -0.2547191934071413
    x68  x116  -0.6554123427935958
    x68  x128  0.9669015347399537
    x68  x132  -1.515842255160881
    x68  x136  1.3833937190259222
    x68  x142  -2.1441090256944833
    x68  x154  0.012250809052814384
    x68  x159  1.237405000179939
    x68  x167  -0.9340162713866992
    x68  x174  0.17577270342915755
    x68  x180  1.2165485759860621
    x68  x182  0.2775317413098509
    x68  x187  -0.5538942126460489
    x68  x213  -0.07375525473747228
    x68  x217  0.05789650422785616
    x68  x232  -0.25481364770523096
    x68  x240  0.030334383346233652
    x68  x251  0.07952243798459271
    x68  x257  -0.001964297069448984
    x68  x278  -0.43393778486587514
    x68  x281  -0.12895901943591093
    x68  x286  -0.00335374366582727
    x68  x292  0.1770279895538287
    x68  x295  -0.1709494571451291
    x68  x298  0.19687322345580088
    x69  x69  5.499987539496478
    x69  x73  -0.2888332084963884
    x69  x98  0.1539882409021373
    x69  x99  3.013069487724758
    x69  x119  2.5743674226196687
    x69  x129  -0.6266209165239958
    x69  x160  0.6203196991499629
    x69  x177  -0.9798551831630388
    x69  x191  1.1086353153962765
    x69  x219  -0.30709343578691545
    x69  x290  0.5308819533814335
    x70  x70  6.044505979392372
    x70  x81  0.4132046751424313
    x70  x84  -0.4738326807515303
    x70  x87  0.5388210199317098
    x70  x94  0.545071234945511
    x70  x106  -0.4216809258468663
    x70  x117  0.8083380088187924
    x70  x129  0.3926228373193083
    x70  x144  0.9463648813958521
    x70  x153  -0.790014281726799
    x70  x167  0.563306893036927
    x70  x184  -0.6597604177620469
    x70  x199  3.0151198961216354
    x70  x206  1.7586137326266849
    x70  x230  3.7167588523586295
    x70  x244  1.0712267979658767
    x70  x254  0.1415187091397399
    x70  x258  -0.3812438268499284
    x70  x259  -1.020838518018977
    x70  x274  -0.5258903223779002
    x70  x291  1.1472758125487956
    x70  x296  -0.09672356084192044
    x71  x71  14.209661145649415
    x71  x74  -0.45297171387054763
    x71  x76  0.5976847446150567
    x71  x79  0.654756238905288
    x71  x84  -0.1570438429508201
    x71  x88  -1.9114599914753283
    x71  x91  -0.8589697582510956
    x71  x93  -0.31552681248527537
    x71  x94  0.3844183681634348
    x71  x97  0.5803642878453626
    x71  x101  -0.7870230929184536
    x71  x102  -0.2622290018548943
    x71  x106  -0.19169592353020726
    x71  x108  0.2754319603401138
    x71  x112  0.3633119997585027
    x71  x113  -0.49435831942833774
    x71  x114  -0.003022692450016419
    x71  x120  -0.027942840655948837
    x71  x121  1.16324908889261
    x71  x130  1.401048895966126
    x71  x131  0.03128844597168384
    x71  x135  -0.12362947167619566
    x71  x139  -0.5328255503800913
    x71  x152  0.439326208360513
    x71  x159  -2.2098328961820703
    x71  x160  -0.5035200892585971
    x71  x161  -0.06462514220832151
    x71  x173  -0.12390091942167673
    x71  x175  -0.007603444765777018
    x71  x176  1.2379792726677628
    x71  x177  0.05184646701140762
    x71  x178  0.810464535172338
    x71  x185  0.046206840203239
    x71  x186  0.004947115729490135
    x71  x193  -0.21732096727033107
    x71  x195  -0.7515071086696354
    x71  x199  1.0509173892730277
    x71  x201  1.1627847224190901
    x71  x211  -2.887019930282208
    x71  x216  -2.6611775124943815
    x71  x217  2.0961274501029243
    x71  x226  0.33961685645494066
    x71  x227  0.9888689651472835
    x71  x229  0.605309267821148
    x71  x230  -0.543584846015105
    x71  x233  -0.3297137378686879
    x71  x234  -0.0993668104844869
    x71  x236  -0.3348714787020155
    x71  x242  1.1478609572049514
    x71  x247  -0.009428588869887261
    x71  x252  -0.2664515889206974
    x71  x254  0.33084215180648124
    x71  x259  0.48509044567163484
    x71  x262  1.517981131775219
    x71  x264  -0.6401108499803949
    x71  x265  1.0595783326841741
    x71  x272  -0.05347557481076509
    x71  x274  1.065662191101768
    x71  x276  -2.0557253016726196
    x71  x277  0.5339001430615576
    x71  x280  0.014854971115653051
    x71  x286  -0.6902811356099312
    x71  x294  0.5203991367727465
    x72  x72  3.0057656538458923
    x72  x84  -0.185414407403374
    x72  x89  -0.30485330858078297
    x72  x99  -0.8061125002722284
    x72  x109  -0.16701758178283327
    x72  x117  -0.0392336837943188
    x72  x144  0.7349518065017077
    x72  x184  0.1602723640466737
    x72  x238  -0.830219405300662
    x72  x288  -1.0353155482446448
    x72  x292  -0.655572868868754
    x73  x73  5.566965652534741
    x73  x97  -1.1488438073975096
    x73  x98  -0.13328474390442435
    x73  x107  -0.24145014631436784
    x73  x108  1.1686008105781678
    x73  x110  2.246194366431081
    x73  x123  0.8492351481436389
    x73  x132  0.2297552230884
    x73  x134  1.0551656371632503
    x73  x200  -2.293796673768365
    x73  x205  -1.230252443374095
    x73  x213  0.3450317925180534
    x73  x217  -0.6052983630885008
    x73  x219  0.2658051660555121
    x73  x243  0.793902323463702
    x73  x252  -0.17416521173872582
    x73  x253  -1.9886102256393199
    x73  x261  0.6821128814539256
    x73  x274  0.06276183968979865
    x73  x279  0.7437420722735463
    x73  x290  -0.45950564007607153
    x73  x292  0.3904231127029179
    x73  x296  -0.3731556799750654
    x73  x299  -0.42190532110886436
    x74  x74  14.577343178172088
    x74  x90  0.20497683571050143
    x74  x117  0.6793291323992758
    x74  x138  -0.09823103254138416
    x74  x144  0.14759338904222524
    x74  x146  -0.7022248610646946
    x74  x151  -0.26906962895404585
    x74  x159  0.2560446861458012
    x74  x181  0.4212919447048356
    x74  x193  -1.8881262175761269
    x74  x207  -0.09676761809191946
    x74  x208  0.4546898015843138
    x74  x242  0.2071768735121138
    x74  x243  0.08418042888393541
    x74  x249  -1.2240094477718968
    x74  x256  -0.4822508763003401
    x74  x264  0.07416713814194602
    x74  x268  0.023027317074273555
    x74  x271  0.34365421048446765
    x74  x276  0.9244436574376786
    x74  x291  -3.1016533227455505
    x74  x292  0.03005101655124049
    x74  x294  0.2363953150535413
    x74  x299  0.0011040224874608706
    x75  x75  2.9818539235700174
    x75  x79  -0.07831644174814258
    x75  x112  0.07428208945231674
    x75  x143  -0.9828964801814846
    x75  x147  -1.4013802059047311
    x75  x151  -0.14042398006947215
    x75  x154  0.6010030349744332
    x75  x158  0.06653119943870124
    x75  x160  0.05366697624879481
    x75  x173  0.3360600026004027
    x75  x178  0.01946166322032054
    x75  x182  -0.07403432592842096
    x75  x184  0.10567307773443203
    x75  x186  -0.02398856646627319
    x75  x200  0.003691098877002656
    x75  x206  0.30062247523691155
    x75  x208  0.10038736649956242
    x75  x215  0.47938060595858417
    x75  x216  0.02570268151296814
    x75  x218  -0.028317348285064325
    x75  x220  -0.13562274492830634
    x75  x233  -0.008960915803217843
    x75  x242  0.6994328908982766
    x75  x252  -0.1344959901927494
    x75  x255  -0.4931837922933307
    x75  x257  -0.22571560257615111
    x75  x260  -0.0396625718324211
    x75  x283  -0.03435265040763362
    x75  x285  0.03179588503143764
    x75  x297  0.5568174986328059
    x76  x76  2.186174866781085
    x76  x91  0.1260042260029261
    x76  x101  -0.4563869163541638
    x76  x106  0.20688392978561104
    x76  x110  -0.03741194181933339
    x76  x150  0.4520032967597398
    x76  x151  -0.45144733705041973
    x76  x152  0.5315139284732157
    x76  x154  -0.009950155251348729
    x76  x168  0.19386752142832536
    x76  x187  -0.14277056475713162
    x76  x196  -0.14448885695735325
    x76  x213  0.05990430771362233
    x76  x218  -0.18316449411057426
    x76  x233  -0.4596118680227143
    x76  x236  -0.5649716965397822
    x76  x246  -1.0170342449038516
    x76  x257  0.0015954097983672867
    x76  x277  0.7442420921746515
    x76  x286  0.0027239237836739097
    x76  x298  -0.15990120568964916
    x77  x77  4.824181936544661
    x77  x80  1.4307617070973204
    x77  x84  0.16754354971982083
    x77  x96  -0.32948532810640285
    x77  x100  -0.47374098800387326
    x77  x109  -0.0006911040114545867
    x77  x110  -0.1465706491913586
    x77  x116  0.07381649976160962
    x77  x117  1.0208424459544885
    x77  x119  -0.05616801297238661
    x77  x120  -0.34044379625028764
    x77  x122  -0.11884742373336767
    x77  x128  -0.017523247982836238
    x77  x131  0.6359958777213123
    x77  x132  -0.1921067536339655
    x77  x137  -0.3273181715543394
    x77  x142  -0.38753387183028126
    x77  x145  0.5482652549242281
    x77  x147  -0.15756728395430109
    x77  x179  0.1268441466200832
    x77  x180  -0.10508701936647546
    x77  x182  -0.02397354618593882
    x77  x186  0.8871405089599982
    x77  x189  0.4451433521213746
    x77  x195  -0.03984858553175903
    x77  x203  0.08731034141907491
    x77  x204  3.003841276461849
    x77  x205  0.04543021435753162
    x77  x212  0.6874820798950488
    x77  x214  0.125863126634449
    x77  x215  1.2206125401218926
    x77  x217  -0.005001173961436337
    x77  x229  -0.23214990097141697
    x77  x230  -0.06835801226685001
    x77  x235  -0.05599693266839407
    x77  x240  -0.0026203227664723092
    x77  x251  -0.006869249732821176
    x77  x255  -0.7326905960938086
    x77  x257  0.012357968392604711
    x77  x258  1.3090505285366192
    x77  x272  0.007943236399338612
    x77  x273  0.7792483267968892
    x77  x274  -0.8456659641970053
    x77  x281  0.6741906025578629
    x77  x284  -0.1389830566418412
    x77  x290  0.06290228783664319
    x77  x299  -0.10971897893505635
    x78  x78  3.1498092990258644
    x78  x90  0.25992788139281026
    x78  x91  0.09771030910749658
    x78  x94  -0.19907324025653506
    x78  x100  0.6781080264217556
    x78  x102  0.19315677218456775
    x78  x103  0.3519185660352184
    x78  x106  0.3226664949221679
    x78  x118  -0.01960612320495649
    x78  x126  -0.9919160352055725
    x78  x133  -0.32799812166887715
    x78  x140  -0.2922664088461651
    x78  x150  0.06196317467405834
    x78  x153  0.14019560842052406
    x78  x158  -0.5401428139846292
    x78  x186  -0.3419482475826825
    x78  x190  -0.4361498488336111
    x78  x192  0.7233655250252861
    x78  x201  -0.335589995770251
    x78  x205  0.13183229945155928
    x78  x206  0.484432057130776
    x78  x207  -0.3573467493825953
    x78  x210  -0.32759912229073723
    x78  x222  -0.4067930346298704
    x78  x226  0.44200888774741576
    x78  x237  -1.5593992905286937
    x78  x242  0.15563213666083556
    x78  x248  0.8693435628756436
    x78  x252  -0.05578572032624409
    x78  x259  -0.3557596046653813
    x78  x264  1.5463844134471727
    x78  x265  0.9447101901580712
    x78  x267  -0.16947329829681135
    x78  x287  -0.1533165812782848
    x78  x292  0.5718099463620934
    x78  x293  -0.012748901841870051
    x78  x296  -0.11318446083463393
    x79  x79  10.762269766267233
    x79  x81  -0.7089026638235068
    x79  x91  -0.7284895116532177
    x79  x95  -0.053900144386187766
    x79  x103  0.23047871237299347
    x79  x112  0.05308878231240544
    x79  x114  0.68689267318674
    x79  x120  -2.354256009102064
    x79  x122  0.527374796266395
    x79  x128  0.291315708218426
    x79  x130  1.1882250989868783
    x79  x137  0.8897480697307539
    x79  x144  -0.5989982095375975
    x79  x145  -0.037627712246806444
    x79  x152  0.37259115575458235
    x79  x156  -0.1528932421660354
    x79  x157  0.560778586258055
    x79  x159  0.8161322444032358
    x79  x167  -0.6160317727543694
    x79  x172  2.3202661401437803
    x79  x175  -4.065231009592257
    x79  x176  -0.41177210106589873
    x79  x184  -0.33732724372956546
    x79  x187  -0.36532172317313033
    x79  x191  -0.14807741420664533
    x79  x198  0.7907559379705351
    x79  x211  -1.1481425417669904
    x79  x216  -0.08204752711960937
    x79  x217  1.220617187620246
    x79  x219  0.5471830076747207
    x79  x230  -0.055119143132332696
    x79  x236  -0.2840034327668497
    x79  x238  1.3749851465667668
    x79  x242  -0.5022548551622625
    x79  x246  -0.19631137038952046
    x79  x251  0.5874551573706052
    x79  x252  0.9245291942461009
    x79  x261  -0.4343998419706903
    x79  x263  0.8753981144025923
    x79  x265  1.188079474590687
    x79  x267  -0.1963713746601095
    x79  x271  1.0967103975318768
    x79  x278  -0.28620428901002976
    x79  x281  0.2179449769739782
    x79  x286  0.1533675762666581
    x79  x295  -0.1127499598911277
    x80  x80  4.960583970870684
    x80  x84  0.11163330802528719
    x80  x101  2.1258765440976886
    x80  x114  -0.18532218447004922
    x80  x117  0.3158549490694958
    x80  x121  -0.08492667202562797
    x80  x130  -1.4844341647462014
    x80  x143  0.32498380425027174
    x80  x153  -0.4144929264530948
    x80  x174  0.48636911753364226
    x80  x176  0.10528443742648919
    x80  x187  -0.3590215642957884
    x80  x188  -0.317489913403965
    x80  x202  0.3206395866738542
    x80  x204  1.558208706622128
    x80  x207  0.9146087494229997
    x80  x214  -0.8245770260167764
    x80  x221  2.428297205400299
    x80  x226  0.07612148898817313
    x80  x239  -0.9778490404021618
    x80  x255  -0.48818754967142214
    x80  x273  0.5192086991052669
    x81  x81  8.47694997743198
    x81  x90  1.3477315369823588
    x81  x95  0.24300948487647367
    x81  x98  -0.2627934570076328
    x81  x100  0.15178981009027673
    x81  x115  -0.28238428492131995
    x81  x119  -0.07012115943440214
    x81  x137  0.43083339743007565
    x81  x142  2.047754101799045
    x81  x144  -0.014245774673219958
    x81  x145  0.18117797238449088
    x81  x149  0.5534885115087879
    x81  x151  0.18643069940216025
    x81  x156  -0.6226696469338059
    x81  x157  -2.5282773715769165
    x81  x159  0.2795094746018341
    x81  x161  0.8580866421992148
    x81  x167  0.8254533247754665
    x81  x176  1.8564797424210504
    x81  x182  -0.3879624717381735
    x81  x183  0.03830079485561081
    x81  x190  0.11889308087887285
    x81  x191  0.6676089008291834
    x81  x202  0.11866223107499359
    x81  x211  0.9673899500322003
    x81  x230  0.24850535619071928
    x81  x234  -1.4111561775026802
    x81  x238  0.01816630715105557
    x81  x246  0.8938815154637898
    x81  x251  -2.6485490309232067
    x81  x259  0.7949139713544037
    x81  x267  0.8853428343109742
    x81  x270  0.18738661358458766
    x81  x279  0.3049429736762572
    x81  x296  -0.1417358563653356
    x82  x82  3.4893309537884036
    x82  x86  -0.33156301715658887
    x82  x89  -0.08202018683724491
    x82  x90  -0.0702924995698528
    x82  x94  0.36486340027787495
    x82  x105  -0.0025104546516840714
    x82  x114  0.1667160284287658
    x82  x117  -0.08566415223076618
    x82  x119  -0.4628621858920707
    x82  x120  -1.386536619047938
    x82  x135  0.44759094021993123
    x82  x145  1.664858240016084
    x82  x152  -0.5646211942645215
    x82  x165  0.4860784007554591
    x82  x180  -0.7964870399659826
    x82  x194  0.0022460382655354718
    x82  x201  0.0350995466080887
    x82  x209  0.6678805276593274
    x82  x211  -1.0957951436714444
    x82  x249  0.002519287120769798
    x82  x254  -0.2925624251059103
    x82  x271  -0.49366019389022836
    x82  x273  0.6107993297617843
    x82  x281  0.014188285631580116
    x82  x287  -0.0005057292845894401
    x82  x297  0.008456468820453457
    x83  x83  5.251417284659185
    x83  x92  0.9858945827494802
    x83  x118  -0.6483911446320377
    x83  x119  -0.2304308847645608
    x83  x122  0.33418254476264153
    x83  x123  2.3305659979575832
    x83  x138  0.6233526908852453
    x83  x139  0.5710547183079978
    x83  x148  0.4054410515279775
    x83  x150  -0.1180701380687245
    x83  x153  0.3933724367321771
    x83  x165  0.3025477759147739
    x83  x166  -1.0610767007228832
    x83  x174  -0.17867225203209133
    x83  x181  -0.47418298905514705
    x83  x190  -0.9120061369472341
    x83  x196  -1.0020500666285543
    x83  x218  -1.3209421543634297
    x83  x221  0.7788950378678148
    x83  x224  -0.44157012314583954
    x83  x230  -0.677024494279557
    x83  x240  0.2512578691767825
    x83  x242  -0.31555494790132627
    x83  x275  -0.19696660459266907
    x83  x283  -0.6396691184864473
    x83  x289  0.4447030981580274
    x83  x290  -0.28920471643895457
    x83  x293  -1.4909760294734737
    x83  x298  0.9024810459507692
    x84  x84  19.98059620535634
    x84  x92  -0.22510104918190163
    x84  x93  0.10334557528167691
    x84  x94  -0.28626439701718204
    x84  x96  -0.2652573349268644
    x84  x97  -0.19008869873180345
    x84  x101  0.5115309596661531
    x84  x103  0.43467815366326085
    x84  x104  0.07390975712923335
    x84  x108  -1.7296351739224018
    x84  x117  0.03698691340505451
    x84  x120  0.41569948960869596
    x84  x121  0.002280466873194654
    x84  x126  0.6825572850962707
    x84  x132  -0.09044657044733438
    x84  x134  0.018257404491162137
    x84  x138  0.7168509390481798
    x84  x150  -1.7980048556099626
    x84  x151  0.1143448082418869
    x84  x160  -3.5175129897730195
    x84  x164  -1.9072291925537947
    x84  x167  1.6183988246514502
    x84  x168  -0.3916857788961424
    x84  x169  1.3572383913883794
    x84  x170  1.4671962499305744
    x84  x171  -0.6993881536564918
    x84  x175  -3.76984081080889
    x84  x181  1.6448322130543727
    x84  x184  0.34649767967545886
    x84  x186  0.5037751574293007
    x84  x189  2.8616462556476967
    x84  x201  0.1957602236895779
    x84  x204  0.182467713957377
    x84  x206  0.3132257012934581
    x84  x207  -1.2940434589729226
    x84  x209  0.3373506876216358
    x84  x213  0.8336015369642622
    x84  x216  -0.16092217690346192
    x84  x218  0.4724930828297304
    x84  x223  -0.11394330751775304
    x84  x225  0.24927272765462652
    x84  x226  0.15197099745682474
    x84  x227  0.5403508431902965
    x84  x230  -1.4054780437724081
    x84  x233  0.10425124440277724
    x84  x234  0.032545951047833345
    x84  x247  -0.39996847860967455
    x84  x255  -0.057167224000500796
    x84  x256  -0.41187007350665655
    x84  x260  -0.2714910815312493
    x84  x261  -0.30745048931406266
    x84  x262  0.408724273429904
    x84  x263  -0.17347995551895856
    x84  x265  -1.619771293857856
    x84  x270  -1.1576094808234885
    x84  x272  0.017515037783341385
    x84  x273  0.06079982995210936
    x84  x277  -0.6632663368028857
    x84  x280  1.5127128253308741
    x84  x281  -1.5945650246446603
    x84  x285  -0.33141987943471735
    x84  x288  0.1737925875571716
    x84  x290  2.7315362458041825
    x84  x291  0.03293375606114576
    x84  x293  -6.441990706399271
    x85  x85  8.595396579874643
    x85  x104  -0.4032299300764736
    x85  x108  3.884843701616622
    x85  x116  -0.6502694002496279
    x85  x125  1.177083108717456
    x85  x132  0.04890066718483642
    x85  x148  0.09372238308319923
    x85  x155  0.028083044257212426
    x85  x157  0.013220083934368783
    x85  x161  0.46335579633753593
    x85  x162  1.7226525793210004
    x85  x167  -0.2400819656403069
    x85  x170  -0.45750297823455743
    x85  x175  -0.6162173771198028
    x85  x178  0.12091318920276461
    x85  x184  -0.1781806339235996
    x85  x189  0.3154294649498437
    x85  x207  -0.11263817067743184
    x85  x208  2.76482001696488
    x85  x216  0.06207398102984686
    x85  x219  0.16327471776775382
    x85  x220  0.10044194009428678
    x85  x222  -0.7817834928232041
    x85  x225  -0.09319755166129612
    x85  x229  -0.8136139032412245
    x85  x230  0.002128205401631074
    x85  x243  0.35450542019381864
    x85  x249  5.561826823563906
    x85  x253  0.1002088068173631
    x85  x263  0.041421132747644675
    x85  x268  1.2830522574998773
    x85  x270  0.3095852552776029
    x85  x272  -0.9585479314148668
    x85  x273  0.04722866132741111
    x85  x280  -0.0961230779898372
    x85  x294  -0.16421995050113294
    x86  x86  2.9938181876965304
    x86  x89  0.05092701779797092
    x86  x96  3.044239748908223
    x86  x102  0.3850420010527623
    x86  x106  -0.7716754212520868
    x86  x110  -0.40527885407455644
    x86  x130  0.85695469232896
    x86  x142  0.8341766668587796
    x86  x164  -0.3696636143803269
    x86  x175  -0.4814181535400889
    x86  x192  -0.032086602351023515
    x86  x201  -0.021793601108930204
    x86  x244  -0.19378402892887409
    x86  x273  0.6419091168810115
    x86  x288  0.1804487885259137
    x87  x87  1.3409419595930177
    x87  x91  0.08711528663804806
    x87  x106  -0.08331996603669832
    x87  x117  0.8387212404361498
    x87  x122  -0.3720971294943281
    x87  x130  -0.25655678168262863
    x87  x137  -0.03525056811240826
    x87  x144  0.9819361684964059
    x87  x164  0.022150624779426562
    x87  x166  0.8360952746755067
    x87  x170  -0.2850949287925179
    x87  x172  0.24536387479347285
    x87  x181  -0.1587902336653727
    x87  x199  0.30456844077912865
    x87  x204  -0.45817976427078466
    x87  x206  1.8247152492953638
    x87  x207  0.1840760021852372
    x87  x212  0.5703413742409512
    x87  x240  0.06452581976330363
    x87  x248  0.5569568521980847
    x87  x251  -0.8975080892414401
    x87  x258  -0.39557374746172264
    x87  x259  -1.0592090669706637
    x87  x294  -0.05077637601453289
    x88  x88  10.623136992895024
    x88  x94  1.485995826838416
    x88  x101  0.31899956018510234
    x88  x104  -0.018420269547547233
    x88  x106  0.5669548951436345
    x88  x131  -1.7269064481003356
    x88  x153  -0.38651609281202454
    x88  x162  0.5244861670613524
    x88  x173  0.4242986867543457
    x88  x174  0.0883923515807318
    x88  x178  0.8020434760824707
    x88  x179  0.2659502979678744
    x88  x180  -1.8950310020585535
    x88  x185  -0.2687596652736032
    x88  x189  -0.47895805196272495
    x88  x192  0.5997534216518162
    x88  x195  2.573536022036135
    x88  x201  -6.141401663791482
    x88  x207  -0.0414117154187198
    x88  x209  -0.2697655730363977
    x88  x213  -0.43198486051498564
    x88  x217  -0.3821541848596339
    x88  x221  0.19578703815232962
    x88  x229  -2.07288152998011
    x88  x238  -0.7800832636025774
    x88  x253  0.348261396413599
    x88  x254  -0.051908243035952636
    x88  x259  0.4491047691588923
    x88  x265  -3.628525899321128
    x88  x266  -0.10674702032794874
    x88  x267  0.2110224548869672
    x88  x271  1.7858394341688961
    x88  x273  -0.8071475104694812
    x88  x280  -0.30805312914358923
    x88  x294  0.12721097444429263
    x88  x299  0.06505319087168297
    x89  x89  1.9049154418557008
    x89  x92  0.20473433253765
    x89  x96  0.2171446074316311
    x89  x114  -0.30585388841195316
    x89  x119  0.8025958598675208
    x89  x170  0.3209571594517119
    x89  x181  -0.1494564038743692
    x89  x201  -0.005391177973165338
    x89  x225  -0.5840294117158297
    x89  x230  -1.9254195614739968
    x89  x238  0.6808351606594606
    x89  x252  0.7880878947395237
    x89  x257  0.485615266526763
    x89  x270  -0.42324605284022015
    x89  x282  -0.4458547916306751
    x89  x288  -0.7699255066195542
    x89  x292  0.5376133786448918
    x90  x90  5.263110440815211
    x90  x100  0.5158624945966966
    x90  x103  -0.41887076916970506
    x90  x106  0.24546464059960235
    x90  x128  -1.2627652336597985
    x90  x140  -0.22233814212431754
    x90  x142  2.2521845892899734
    x90  x147  1.1172642955003533
    x90  x149  0.6087441333283033
    x90  x153  1.6676049661411503
    x90  x156  -0.6848317294595591
    x90  x158  -0.41090712482923464
    x90  x188  -0.4076722074569892
    x90  x192  0.5502915902852101
    x90  x193  0.93783932360752
    x90  x201  -0.25529603784996935
    x90  x211  1.0639659983502883
    x90  x214  -0.20748593701247858
    x90  x228  0.011541228414572032
    x90  x238  0.019979877942361775
    x90  x243  -1.4419008363181514
    x90  x253  0.412918177824802
    x90  x256  -0.5881772867513747
    x90  x257  -1.1356312493134855
    x90  x265  -0.9141250378851191
    x90  x271  0.022627435701874914
    x90  x281  -0.0006503350377887732
    x90  x287  0.4138623957662617
    x91  x91  8.124876445469642
    x91  x94  -0.7209635728974405
    x91  x106  -0.2613877884914106
    x91  x127  0.9211353922435614
    x91  x130  -1.558823521454497
    x91  x135  1.9571067085332419
    x91  x136  3.059903954553876
    x91  x140  -0.785941562040552
    x91  x150  4.829350023823076
    x91  x151  -0.06977792073500112
    x91  x152  -0.48879951952822104
    x91  x157  0.4958227502741355
    x91  x164  0.1802149766254431
    x91  x168  0.029965117596442895
    x91  x184  -0.04508191674488985
    x91  x187  -0.022067320666910584
    x91  x205  0.47744380667838826
    x91  x210  -1.1864328594864577
    x91  x217  -1.6013184575686936
    x91  x234  0.2183559374200099
    x91  x236  0.37258195568184593
    x91  x240  0.20242760686071976
    x91  x246  -0.15719781489763623
    x91  x252  -0.20203354399233983
    x91  x253  3.179742353938067
    x91  x265  -1.149910649750111
    x91  x278  1.109676588761307
    x91  x293  -0.04617141817046231
    x91  x294  -0.1982678799118698
    x92  x92  6.502724680389786
    x92  x102  -0.0041552445496295335
    x92  x104  0.7473201008299929
    x92  x114  -0.7008347621577092
    x92  x122  -0.7053229476520624
    x92  x123  1.4105608418149125
    x92  x139  0.3456273818826938
    x92  x150  -0.08436287785037014
    x92  x160  0.08374669216718023
    x92  x161  0.6720436015257443
    x92  x164  0.04985904971507083
    x92  x165  0.041586196248159873
    x92  x166  -0.5352661793823594
    x92  x170  0.9473995115156728
    x92  x171  0.018283501982579404
    x92  x181  -0.3424649717748906
    x92  x190  -0.677400280598108
    x92  x194  -0.3234698774729969
    x92  x200  5.292843099550436
    x92  x218  -0.1702104841721052
    x92  x221  0.471421466400489
    x92  x224  -0.24685502478079258
    x92  x245  0.8943379492621764
    x92  x257  1.1127406670666207
    x92  x262  -0.3224506955875926
    x92  x281  0.03199751995730032
    x92  x287  0.06585728174226292
    x92  x288  0.7054135247454735
    x93  x93  2.4599508394081453
    x93  x97  -0.3760408034243027
    x93  x120  0.018105263315271423
    x93  x128  0.003522537093177195
    x93  x134  -0.2242536414469074
    x93  x145  -0.9789105037773889
    x93  x175  0.2632526560434375
    x93  x183  0.006105568543959414
    x93  x212  -5.350003184543726e-05
    x93  x234  0.06438365700794635
    x93  x235  -0.028441020374487667
    x93  x238  -0.3047505002183491
    x93  x246  0.7733238680732494
    x93  x257  0.005047665769413111
    x93  x262  0.1088808698864507
    x93  x266  -0.2525362207685981
    x93  x272  0.03464892402334467
    x93  x279  -0.40997331843061124
    x93  x290  0.6056876911154949
    x93  x294  0.008325706386669896
    x94  x94  7.568410143643809
    x94  x95  0.09791285977693318
    x94  x97  0.2151113823907724
    x94  x102  -0.4032225799127391
    x94  x123  0.6008075538816071
    x94  x131  -0.7273064020411935
    x94  x145  1.1407407804867185
    x94  x150  -0.45720039378782257
    x94  x165  0.2565712919470055
    x94  x169  0.4688695767229467
    x94  x178  0.7782967816024383
    x94  x180  -0.4667633895801449
    x94  x184  -0.3985920048125479
    x94  x201  -2.71637206452036
    x94  x203  -0.21615877758003862
    x94  x205  -0.9727354923349565
    x94  x210  2.4172171374972615
    x94  x211  -0.7508256122955207
    x94  x213  -0.4191947652040003
    x94  x216  1.1277168700937803
    x94  x226  -1.093880465901781
    x94  x230  1.6167851736034002
    x94  x252  0.4116195374923911
    x94  x271  1.7329647650290874
    x94  x282  -0.8348132481322728
    x94  x293  0.09406882350890237
    x95  x95  7.929204408326673
    x95  x96  -0.3194074632921668
    x95  x97  0.08278918406915227
    x95  x109  0.5148840986313602
    x95  x115  0.08540137924471039
    x95  x122  0.4115241888961547
    x95  x123  0.23123075411268978
    x95  x131  0.6317246499724805
    x95  x136  0.6390671551242081
    x95  x153  -1.2035370731238122
    x95  x157  -0.19223304175685105
    x95  x167  2.1693596473018535
    x95  x169  0.18045223483909276
    x95  x176  0.1411541122258218
    x95  x178  -0.512862061329476
    x95  x182  -0.1765149739222025
    x95  x183  2.9585723933632475
    x95  x187  -0.13175362258988763
    x95  x191  0.050760447074798945
    x95  x192  1.3829344338807998
    x95  x203  -0.08319229148333726
    x95  x216  0.19262171492561128
    x95  x222  -0.053919330462156974
    x95  x228  -0.33444306721640965
    x95  x230  0.018894659680324704
    x95  x239  -0.07550228512128067
    x95  x244  0.6109310965274958
    x95  x246  0.06796468007015123
    x95  x247  -0.2650458218113586
    x95  x250  1.424144976602458
    x95  x251  -0.20137768196650527
    x95  x264  0.4914488997759744
    x95  x265  0.3391260181520029
    x95  x267  0.14769539525375577
    x95  x276  -0.8924908005028205
    x95  x286  -0.4472293649625639
    x95  x288  0.8138757477522075
    x95  x291  0.2945342290243854
    x96  x96  10.17031844571786
    x96  x115  -0.13628670260514172
    x96  x130  2.021554046169318
    x96  x142  -0.6571874632800582
    x96  x146  0.26343276247589853
    x96  x167  -0.6326630787418298
    x96  x168  0.15311746832811382
    x96  x181  -0.4712793486980311
    x96  x201  0.9171306993797828
    x96  x207  0.5058663577291311
    x96  x213  -0.3258707969794241
    x96  x218  -0.18470659018901295
    x96  x230  -1.2149225205152616
    x96  x252  0.9073307231307326
    x96  x256  0.1610078954441062
    x96  x257  -0.05269864533383937
    x96  x261  0.12018828126126978
    x96  x265  0.09200966940579147
    x96  x272  0.42441386316062935
    x96  x273  1.5142620538982368
    x96  x274  3.606211741469275
    x96  x282  -0.5133155238163747
    x96  x284  0.5926717545065318
    x96  x290  -0.00864332070780647
    x96  x299  0.4678796201444917
    x97  x97  2.854472795059415
    x97  x98  -0.020468601953054825
    x97  x120  -0.03330191867833936
    x97  x123  0.508006479248598
    x97  x125  0.7243643325972872
    x97  x129  0.0632354954706875
    x97  x134  -1.564935302647516
    x97  x136  -0.6156136166250037
    x97  x137  -0.001740812443653747
    x97  x138  0.008985289192905728
    x97  x144  0.008894851875803661
    x97  x146  0.00852880807004259
    x97  x153  0.003929938218285088
    x97  x164  -0.014907769615393657
    x97  x169  0.3964477166755815
    x97  x194  -0.026954251626928973
    x97  x197  0.0710117488166472
    x97  x200  0.11466961015568508
    x97  x203  -0.18277077051989757
    x97  x209  0.10404632255930701
    x97  x231  0.15654953418757156
    x97  x232  0.22572937359074566
    x97  x233  0.038801308691652395
    x97  x234  -0.11842408876120672
    x97  x264  0.01682498221140628
    x97  x267  0.06320118653308743
    x97  x272  -0.06373150337692754
    x97  x273  0.08074712192681392
    x97  x279  -1.103057362722871
    x97  x281  0.008013946094301715
    x97  x283  0.03494516429033859
    x97  x296  0.5534339599481007
    x98  x98  6.830701696550318
    x98  x115  0.2968349697564081
    x98  x127  -1.11575206348802
    x98  x129  -0.8569790942904202
    x98  x131  -0.19925165941642503
    x98  x137  -0.8595341156269753
    x98  x142  -0.1303419629654424
    x98  x146  -0.115583979548796
    x98  x147  0.10390280283472605
    x98  x151  -0.19597107195297805
    x98  x153  0.2081656794349068
    x98  x158  -2.4372447530234234
    x98  x159  -0.2938130443880125
    x98  x161  -0.9640313217631616
    x98  x162  -1.4247170407129885
    x98  x177  -0.17829854012919877
    x98  x180  0.03955144659842974
    x98  x186  0.4671095566987934
    x98  x197  -1.0992984571186333
    x98  x202  -1.8499782834968796
    x98  x209  -0.02565097366209711
    x98  x215  1.0244038418120152
    x98  x219  -0.14171109394472767
    x98  x225  -0.3353369671384858
    x98  x242  -0.15669856044543506
    x98  x243  0.23396643379990215
    x98  x245  0.016363342575101546
    x98  x252  2.539766465097697
    x98  x260  0.11592490168855113
    x98  x264  -0.2280152612019476
    x98  x283  -0.47358330982392954
    x98  x290  0.506731488262136
    x98  x295  2.4782996366243535
    x98  x296  0.16902109577184707
    x99  x99  6.915173217759861
    x99  x114  0.07705828049498706
    x99  x119  1.5777648246722835
    x99  x124  0.4634867731190293
    x99  x127  -0.05293072897290139
    x99  x129  -0.3840401458659735
    x99  x141  -0.6446141989772253
    x99  x146  -0.1280304793871939
    x99  x157  -0.22419939165986286
    x99  x172  0.005321842931278959
    x99  x191  0.679454606460861
    x99  x200  -0.6590412752432092
    x99  x219  0.1927473539786242
    x99  x221  -0.6360070547206115
    x99  x241  -0.11755166370477718
    x99  x254  0.25759145569466596
    x99  x263  -0.40067774022336405
    x99  x267  1.3073605666467394
    x99  x276  0.4316037097271007
    x99  x281  0.948861675668009
    x99  x293  0.052803648588187854
    x99  x295  -0.2188885794952412
    x99  x299  0.02112218334556551
    x100  x100  7.796471155015568
    x100  x106  0.6403758692657356
    x100  x117  -0.28855178224388583
    x100  x124  0.29742720182135735
    x100  x140  -0.5800427331854948
    x100  x142  0.20450725272008383
    x100  x147  0.07128382130930566
    x100  x157  -0.8113817310133414
    x100  x158  -1.0719874219245553
    x100  x166  0.020368371360168214
    x100  x169  -2.4583225695318247
    x100  x182  -0.03243568784411536
    x100  x192  1.4356179962120637
    x100  x199  0.3394117265614558
    x100  x201  -0.6660243274099379
    x100  x212  0.9776883339752812
    x100  x217  -0.5970514341027341
    x100  x229  -1.4622486802042427
    x100  x233  3.6556540920679677
    x100  x256  -0.2995524808633679
    x100  x285  1.2461192572004496
    x100  x293  -1.4348886723899885
    x101  x101  9.896727660668057
    x101  x106  0.25652408491945305
    x101  x121  -2.3632692949557033
    x101  x130  -0.9431228927114702
    x101  x131  -0.6748184098300788
    x101  x143  0.17376123951301686
    x101  x151  0.4002971553610865
    x101  x153  -0.26334463130045377
    x101  x173  0.16580201284413898
    x101  x180  1.2665540648742921
    x101  x185  -0.061833174028280605
    x101  x195  1.005653483974917
    x101  x201  -1.5560178922108079
    x101  x205  -1.140147138489414
    x101  x207  0.5810890573261087
    x101  x221  1.542798420509184
    x101  x229  -0.810014126339081
    x101  x233  0.25176656667456254
    x101  x239  -0.6212682498970233
    x101  x240  0.14213055464940128
    x101  x263  0.08842912669957155
    x101  x265  -1.4179089319520994
    x101  x277  -0.4076815447077296
    x101  x283  -0.21635049541121823
    x101  x293  -0.17075071665274671
    x102  x102  3.616110381365701
    x102  x122  0.011723157335839476
    x102  x131  0.49612830094750304
    x102  x164  -0.5693440711895911
    x102  x166  -3.567282371368429
    x102  x170  -0.002820799218819677
    x102  x172  0.03148940508661047
    x102  x175  -0.7414648367288071
    x102  x186  -0.44257864184013634
    x102  x195  -2.7806712101140745
    x102  x209  0.7902461245052889
    x102  x226  0.8908969216816287
    x102  x227  -0.9451040153547767
    x102  x231  -2.3743840361293977
    x102  x244  -0.29845996108336026
    x102  x288  -0.011724662815734347
    x103  x103  5.298486359932599
    x103  x104  -1.8699894805757982
    x103  x112  0.011768106723147766
    x103  x116  -0.3658062296200493
    x103  x120  -0.5218642199342943
    x103  x134  0.005491848681083272
    x103  x150  -1.1784283398832751
    x103  x153  -0.995298006498946
    x103  x156  0.5599355181483955
    x103  x164  -0.34932987975535257
    x103  x172  0.14459619522627162
    x103  x173  0.0698522201298521
    x103  x181  0.9414714019647257
    x103  x185  0.5955093855366282
    x103  x190  -0.6674992771769279
    x103  x192  0.7713530553093605
    x103  x195  0.35934659932790963
    x103  x197  1.9051827488409299
    x103  x202  -1.161469552750402
    x103  x204  0.00467434012901743
    x103  x210  -1.1710511363499325
    x103  x219  0.12129319511448657
    x103  x223  -0.0342742805206813
    x103  x238  0.30479079087409433
    x103  x239  -0.07865785391723858
    x103  x259  -3.221803053767858
    x103  x261  0.33033197606698433
    x103  x265  0.26335970507459605
    x103  x270  -0.348210289340273
    x103  x277  -0.19951129191124153
    x103  x287  -0.573842964506969
    x104  x104  5.75386634721049
    x104  x106  0.13239431414035063
    x104  x108  -0.31803669434112813
    x104  x118  0.9049657690280013
    x104  x120  -0.2894166350113189
    x104  x138  0.17970472950772448
    x104  x150  0.4877016980595434
    x104  x161  -3.3725822157346887
    x104  x167  1.8287975153725797
    x104  x181  -1.0827002941394024
    x104  x184  1.3572710459026778
    x104  x185  -0.684840968655827
    x104  x186  -0.12396260351402175
    x104  x189  0.12220118350370211
    x104  x194  -0.07555743348108276
    x104  x197  -2.190976718203783
    x104  x200  1.2363242090555235
    x104  x202  1.3357000794421752
    x104  x207  0.06125362355196947
    x104  x216  -0.47284160629851907
    x104  x227  0.13545856861639227
    x104  x233  0.026134361630494582
    x104  x245  0.20890316167577583
    x104  x253  -0.5573412455141755
    x104  x260  -0.06805910226624347
    x104  x262  -1.2614379997524567
    x104  x266  0.157893526803936
    x104  x277  -0.7545320671570611
    x104  x280  0.7322067933296944
    x105  x105  3.481836687071206
    x105  x108  0.12531223050095958
    x105  x111  0.3267271605948614
    x105  x116  0.9359569031296116
    x105  x119  0.2861347295201342
    x105  x130  0.9103494395192706
    x105  x132  0.2136311253435782
    x105  x138  1.270484504047364
    x105  x158  0.07826692277237413
    x105  x162  0.11550695124057396
    x105  x174  -0.9179623260271055
    x105  x176  0.47726593247966975
    x105  x183  1.578359843597909
    x105  x184  -0.3366272178185072
    x105  x187  -0.4356465944401492
    x105  x194  -0.24187092883026975
    x105  x207  -0.22374228654787512
    x105  x210  -2.0022983194492134
    x105  x212  -0.1606608064581712
    x105  x215  -0.8878768697988902
    x105  x232  0.36388480504471543
    x105  x242  -0.22553794491640217
    x105  x249  -0.27129649803426453
    x105  x265  -0.528725250191794
    x105  x270  -0.48992292111020386
    x105  x272  0.2981130975576997
    x105  x276  -1.0442841529836502
    x105  x281  0.18415900431078358
    x105  x282  0.21899802154279704
    x105  x287  0.05446087614680663
    x105  x292  -0.2528035528959247
    x105  x297  -0.910658558054291
    x106  x106  12.567280347873396
    x106  x110  0.47601510262248153
    x106  x117  -3.73361573820484
    x106  x131  -0.28144801241615225
    x106  x133  0.09521294044738385
    x106  x140  -0.2760037462019831
    x106  x142  -1.3069830540101104
    x106  x144  -1.6487689813064195
    x106  x154  -0.020127653433066606
    x106  x156  -0.23952910955296078
    x106  x158  -0.5100874942570215
    x106  x159  -0.7539333362323667
    x106  x163  0.027653705568024232
    x106  x173  0.06915141360967102
    x106  x175  0.9745164984773643
    x106  x178  -0.5390875316414034
    x106  x185  -0.025788899173666148
    x106  x189  0.08233495060948545
    x106  x190  0.23519245366067174
    x106  x192  0.2936791160855127
    x106  x195  0.41943013130804957
    x106  x201  -0.9658885034639169
    x106  x207  0.29764361732517874
    x106  x213  0.12117731978545093
    x106  x215  -0.12788410059534985
    x106  x217  1.650669047874711
    x106  x224  0.047761906357921484
    x106  x229  -0.33783439006138793
    x106  x240  -0.19360851555941344
    x106  x243  -1.1123189879060535
    x106  x257  0.0032272718057241067
    x106  x264  0.6685206467798226
    x106  x265  -0.5913704262832931
    x106  x266  0.7672362506077819
    x106  x286  0.005510084266116786
    x106  x288  -0.21194382022325672
    x106  x294  0.15235356670743364
    x106  x298  -0.32345586278309596
    x107  x107  4.299572136548647
    x107  x126  0.8664682602272957
    x107  x134  -1.1023609349635533
    x107  x143  0.11754222144147669
    x107  x165  -3.1464254559671927
    x107  x167  -0.34603739857412263
    x107  x235  0.35220526807869074
    x107  x239  0.669208436124514
    x107  x251  1.5867198981359747
    x107  x255  -0.12758800275226292
    x107  x278  1.445090390281855
    x107  x288  -0.35978544377818344
    x107  x299  0.4368451702650286
    x108  x108  11.35303052310722
    x108  x113  -0.12565772110551468
    x108  x121  -0.0008895057011748146
    x108  x125  0.8176882987918386
    x108  x132  0.7639489460204308
    x108  x138  -3.0846387790393957
    x108  x142  -1.5487092151411699
    x108  x155  0.31064440950448663
    x108  x157  0.14623575456343293
    x108  x160  -0.386022684345427
    x108  x161  0.5475549282948426
    x108  x162  1.1966808856251088
    x108  x181  -0.641573726935242
    x108  x184  -0.6715769411987473
    x108  x189  -3.0236469514333253
    x108  x200  -2.2266301339530523
    x108  x208  1.9206468595076085
    x108  x216  -0.6764273777449002
    x108  x220  1.1110521667201858
    x108  x225  -1.0309173798225884
    x108  x227  -2.3251516799357903
    x108  x229  -0.5651959181876232
    x108  x233  -0.44859734950602764
    x108  x249  3.8636530248829164
    x108  x260  1.1682371782432057
    x108  x262  0.38482551794391234
    x108  x263  0.45818548749729665
    x108  x268  0.8913022452928043
    x108  x272  -0.665877729061184
    x108  x273  0.5224262539120219
    x108  x276  -0.5225314240202118
    x108  x293  -0.01955437310238643
    x109  x109  5.699846763907351
    x109  x128  -0.665975914635696
    x109  x129  1.414010638282269
    x109  x147  0.017144453694541036
    x109  x153  -2.632347207210318
    x109  x183  0.6535094590028256
    x109  x184  -0.2958854740848585
    x109  x187  -2.490321691522623
    x109  x195  0.004335812690915854
    x109  x203  -0.35867458859614215
    x109  x214  -0.5557683812761129
    x109  x235  0.006092868995876402
    x109  x251  -0.1815649619573698
    x110  x110  5.016280536507214
    x110  x116  0.031021187382696602
    x110  x120  0.8887114893683585
    x110  x121  -0.23882546171817698
    x110  x122  0.27066738686352476
    x110  x123  0.7936224329000907
    x110  x142  -0.6864189007920268
    x110  x152  -0.10718132719823344
    x110  x159  0.08130926450899012
    x110  x179  -0.28887941047520144
    x110  x196  0.029136597602493933
    x110  x203  -0.19884370410149857
    x110  x204  -0.7938315464107913
    x110  x230  -0.18695362938951957
    x110  x236  -0.4843880419049498
    x110  x243  0.7419131141822811
    x110  x245  0.18891365706582838
    x110  x250  -1.0607610842884425
    x110  x253  -1.1254678635698152
    x110  x272  0.005215711110695898
    x110  x281  0.15216880872545335
    x110  x288  -0.11131149991649808
    x111  x111  3.1757324591532297
    x111  x121  0.2315764455550472
    x111  x132  0.11990583270864216
    x111  x158  0.6853354200734617
    x111  x190  0.29718229429773313
    x111  x196  0.2204041371631335
    x111  x197  -0.9855342280159809
    x111  x207  -0.17119963805619565
    x111  x210  -0.4472488624621441
    x111  x212  -0.12293193360911697
    x111  x213  0.9948154868366008
    x111  x261  -0.24852489688169616
    x111  x265  -0.4045617520970412
    x111  x270  -0.3748715902729186
    x111  x276  -0.7990490835551874
    x111  x282  1.2072103245871943
    x111  x285  0.5040971656479842
    x111  x293  0.8424620955201158
    x112  x112  1.7439970454296971
    x112  x114  -0.002079956381860243
    x112  x120  -0.12020691925720511
    x112  x121  0.8004477485369557
    x112  x156  -0.007806638507013852
    x112  x177  0.03567626932627501
    x112  x182  -1.4863122659842876
    x112  x218  0.8883267889416201
    x112  x219  0.02793884070728446
    x112  x233  -0.17989924140934488
    x112  x238  0.0702059282653156
    x112  x260  -0.7962653306522475
    x112  x265  0.06066263521091598
    x112  x274  0.7332968576664994
    x112  x294  0.358093826462284
    x113  x113  2.5214548492972795
    x113  x159  0.28531683512132405
    x113  x160  0.22971621328531014
    x113  x169  -0.9439435141076056
    x113  x173  -0.1710881051281181
    x113  x187  0.028956744333711155
    x113  x205  0.299055926504961
    x113  x216  1.2140838748864133
    x113  x232  0.42243020578309287
    x113  x259  -0.09652514774569368
    x113  x262  -0.6907030545364978
    x113  x276  1.0445949394729286
    x113  x280  -0.19080637870244033
    x114  x114  3.147386680018937
    x114  x120  0.4517352972095438
    x114  x121  0.05629559990658277
    x114  x125  0.23337483038924653
    x114  x127  -0.2369141543070071
    x114  x137  0.6056861735645979
    x114  x154  -0.7662892102274822
    x114  x170  -1.0986820418397052
    x114  x172  1.603315741768653
    x114  x176  -0.07804616773830873
    x114  x177  -0.00029682033626460215
    x114  x181  0.5116105440838944
    x114  x188  0.2353516971969182
    x114  x198  0.5382983729740405
    x114  x204  1.6359514290224566
    x114  x209  0.44538555614508607
    x114  x226  -0.056428002497604164
    x114  x242  -0.3419044465806243
    x114  x247  0.18563492340465695
    x114  x254  1.1529609182948588
    x114  x257  -1.6623301797897028
    x114  x261  -0.29571289562888625
    x114  x273  -0.03690159407315635
    x114  x274  1.8424034962204598
    x114  x278  0.21417427563679037
    x114  x294  -0.002979278158619928
    x114  x295  -0.8935894135508612
    x114  x297  0.38254773026678485
    x115  x115  10.837778369616204
    x115  x137  -0.48664232341405905
    x115  x151  -2.018609331376845
    x115  x154  2.675468620925755
    x115  x159  -0.31571633245669106
    x115  x161  -0.9692407314318472
    x115  x162  -0.14356842668542102
    x115  x163  0.07873442203642167
    x115  x166  -0.13072231172862614
    x115  x170  -1.623181094212401
    x115  x184  -0.5314958637150315
    x115  x189  -0.9068381512829012
    x115  x191  -0.8636586724308923
    x115  x193  0.9011162083445117
    x115  x202  -0.13403339707712197
    x115  x206  4.959529629834831
    x115  x211  1.7079766748440792
    x115  x240  1.1626843742736968
    x115  x242  2.3623395158441634
    x115  x243  -0.19135683754596058
    x115  x252  0.24359734602603858
    x115  x259  3.9904696396922286
    x115  x261  0.01710231850225997
    x115  x265  0.14470033450430456
    x115  x267  1.9516919866539668
    x115  x285  -1.5275879154255627
    x115  x289  0.1296455328394866
    x116  x116  10.626824899059647
    x116  x118  0.7436994317464424
    x116  x120  -0.33907679296180415
    x116  x121  -1.9103412396640473
    x116  x122  -0.1363145978278496
    x116  x133  0.40496139457530284
    x116  x169  -0.33674796133988083
    x116  x171  -0.31867130591717063
    x116  x173  -1.0324930422122809
    x116  x174  -0.4608143974146722
    x116  x177  0.02006418223219849
    x116  x179  0.14548661039657756
    x116  x203  0.10014246588512221
    x116  x204  0.3307007206368573
    x116  x212  0.4742328039011812
    x116  x217  0.1563884158755093
    x116  x231  0.049728346584816174
    x116  x232  0.6680320392730696
    x116  x239  1.162650045108463
    x116  x243  -0.24286460152962294
    x116  x245  1.511101652362622
    x116  x264  -0.22688430102799384
    x116  x272  0.1955324347773094
    x116  x274  -0.23110073293967026
    x116  x281  0.33808533221142095
    x116  x283  0.6231279592196368
    x116  x292  -0.4641053174940603
    x117  x117  4.4245971927181005
    x117  x119  1.3430504401401313
    x117  x142  -0.23604372901672382
    x117  x144  2.296397273874409
    x117  x151  -0.2220256115756307
    x117  x165  -0.32576200742894346
    x117  x180  0.33639371655052674
    x117  x181  0.347633443575875
    x117  x204  0.5162736061335702
    x117  x206  2.7374334643879346
    x117  x208  0.37519203362487663
    x117  x229  -0.1414006163057529
    x117  x242  0.17095415868622693
    x117  x243  0.5710701575590424
    x117  x254  0.853806456631333
    x117  x255  -0.16174877323381356
    x117  x258  -0.5934387923558044
    x117  x259  -1.589022915673171
    x117  x273  0.17202685768845472
    x117  x276  0.762814328795421
    x117  x288  0.03266360552491235
    x117  x299  0.0009109956739621955
    x118  x118  6.135657349381387
    x118  x150  0.25314606627027897
    x118  x169  -0.5521187335383926
    x118  x174  -0.24777398581340446
    x118  x218  2.229183347931455
    x118  x226  -0.004950009150437009
    x118  x231  0.08153264426048172
    x118  x242  0.6765596708868701
    x118  x248  -0.013032260964746058
    x118  x253  -2.0174989954310396
    x118  x262  -4.566232838108503
    x118  x264  -0.371990590365852
    x118  x274  -0.37890368655168466
    x118  x277  -2.7313027696443095
    x118  x283  1.371470582724037
    x118  x290  0.6200639510620308
    x118  x292  -0.0085719579248719
    x119  x119  16.415868060497935
    x119  x127  0.02070384571023369
    x119  x129  -0.32812400926140917
    x119  x131  -0.14289049884094032
    x119  x132  0.04378993542860089
    x119  x133  0.4977511792445312
    x119  x136  -2.4355469038327926
    x119  x144  0.015794342921951747
    x119  x145  -0.20087268620947177
    x119  x153  -0.42677920229106797
    x119  x158  -0.6746106220569924
    x119  x160  -1.0642468041280462
    x119  x165  -1.750059229833501
    x119  x180  1.807174916294238
    x119  x183  -0.04246423251871564
    x119  x190  -0.13181719727592858
    x119  x191  0.5805262079576351
    x119  x194  -0.2559972757005373
    x119  x210  0.7493510636366373
    x119  x218  -0.4469491376171559
    x119  x223  -2.144990171280496
    x119  x225  -0.3435596922719873
    x119  x230  -1.1326425326612395
    x119  x240  -0.6681755332902514
    x119  x245  1.1542400510319228
    x119  x249  -0.28714143009970616
    x119  x254  4.586820549492791
    x119  x263  -0.5725758465833873
    x119  x270  -0.2489776726174047
    x119  x279  -0.3380913996159587
    x119  x281  -0.15147178604132475
    x119  x287  0.0576416355337619
    x119  x288  -0.4529144676968303
    x119  x297  -0.9638451015288065
    x120  x120  18.254399544391315
    x120  x121  -0.061648221774295985
    x120  x122  0.6286868019848844
    x120  x123  0.13876964210333873
    x120  x124  0.5305318713580299
    x120  x125  0.13356061720403542
    x120  x135  -1.0175578032889496
    x120  x150  1.156068176561683
    x120  x151  0.36424574513731245
    x120  x152  1.283615575069242
    x120  x154  -0.43854797753499
    x120  x156  0.3461903779949814
    x120  x157  -0.7592926288705616
    x120  x166  1.113468917894359
    x120  x179  -0.6709883848049503
    x120  x180  0.20699468962776876
    x120  x186  0.5836773083315047
    x120  x196  0.03441016407669856
    x120  x203  -0.4618599007254325
    x120  x204  -0.9075985887464755
    x120  x209  1.3240392680041555
    x120  x216  -0.6315898829643589
    x120  x219  -1.2389657618328886
    x120  x225  -0.18113212257966185
    x120  x226  -1.8053846710126547
    x120  x229  1.9697584734705817
    x120  x230  -1.316194332026128
    x120  x234  -0.1532899392548921
    x120  x237  2.5078889661596793
    x120  x238  -3.1133267951144075
    x120  x242  0.5759430158150496
    x120  x245  0.048764444725455734
    x120  x247  -0.2144729711427641
    x120  x248  -0.5983287997628759
    x120  x256  0.39942667148775196
    x120  x258  2.5569524608960914
    x120  x261  0.7530958314202149
    x120  x263  -0.680876849364347
    x120  x265  -2.5802514401749996
    x120  x271  0.0913202955851357
    x120  x272  -0.2561809322562023
    x120  x273  -0.25422849031745764
    x120  x274  1.0579006652415894
    x120  x280  0.5414540952628357
    x120  x282  -1.3702035455353412
    x120  x285  -0.17500213360711458
    x120  x291  0.12925892214790383
    x121  x121  7.767951735543973
    x121  x132  0.03129328608332696
    x121  x144  -0.524393702840411
    x121  x163  -0.6526472600153984
    x121  x176  -0.9967492325210472
    x121  x177  0.11422795783365954
    x121  x181  0.0031739236560620315
    x121  x188  0.10785344698841423
    x121  x189  0.004581297273003344
    x121  x202  0.21286460447055527
    x121  x205  0.5181939276028025
    x121  x210  -0.11672398487468807
    x121  x214  -0.7099814938318969
    x121  x226  -0.02585897891760412
    x121  x245  -1.8122992424143671
    x121  x249  0.45249100713681806
    x121  x261  0.4127907127789011
    x121  x272  -0.22357995005410541
    x121  x274  2.347863274913496
    x121  x285  0.13156037919145916
    x121  x292  -0.4066690996499662
    x121  x293  9.673726457846659e-05
    x121  x294  1.1465415886268742
    x122  x122  6.173358849030154
    x122  x140  -0.10285177110739097
    x122  x148  -0.146925017949486
    x122  x165  0.5324096394576431
    x122  x166  -3.7077986977654978
    x122  x170  -0.4788104276389491
    x122  x172  -0.37912786652836417
    x122  x179  -0.2342390778372555
    x122  x181  0.24535723755490133
    x122  x199  -0.4706087367655689
    x122  x203  -0.16123324886969567
    x122  x204  0.0642820709169335
    x122  x207  -0.2844279421585658
    x122  x212  -0.8812719826455045
    x122  x219  -0.4469543889099716
    x122  x228  -0.5505256478727005
    x122  x244  1.0056516958796644
    x122  x247  -0.4362910673649364
    x122  x251  1.3867987997518683
    x122  x263  1.037111885117758
    x122  x268  0.263085988264884
    x122  x271  1.299307559725265
    x122  x272  -0.014668523686766697
    x122  x275  -0.44845977392431297
    x122  x276  -1.4691262110968122
    x122  x279  0.6987767942701288
    x122  x286  -0.7361828066670458
    x122  x288  -0.6504591585245192
    x122  x298  0.32759252093169233
    x123  x123  9.054688777405339
    x123  x127  1.1491983388701763
    x123  x134  -2.15095736387571
    x123  x139  -0.014324683157245222
    x123  x142  -0.09407426570674732
    x123  x159  0.3707432973407989
    x123  x160  -1.7642055837964155
    x123  x165  0.09830602242489471
    x123  x166  0.9015590294787388
    x123  x169  1.1072811687161659
    x123  x180  0.16760048573333364
    x123  x181  0.8429534835700678
    x123  x186  -0.040408303374321705
    x123  x190  -1.601313252544808
    x123  x196  0.027861392114885978
    x123  x203  -0.30753270440146646
    x123  x218  -0.40236225439145706
    x123  x221  1.114397887486376
    x123  x224  -0.583543045316926
    x123  x243  0.2805005225052637
    x123  x250  -0.08258039392110834
    x123  x253  -0.42551387454872897
    x123  x260  -1.5959156235754877
    x123  x298  0.08450706350583187
    x124  x124  1.5591451018056433
    x124  x125  -0.22958791618989935
    x124  x141  -0.5206338633598936
    x124  x143  0.08348288393458814
    x124  x149  -0.29079303271718043
    x124  x157  -0.5270454035032175
    x124  x169  -0.5127858949414578
    x124  x172  -0.0031845833435132694
    x124  x175  0.31655760755665374
    x124  x191  0.29049659398993044
    x124  x212  0.2039377555756713
    x124  x217  -0.12454002487588839
    x124  x221  -0.5136821536800156
    x124  x229  0.6935410438209945
    x124  x237  1.1817805402247117
    x124  x239  -0.7745399731745564
    x124  x267  1.0559124879619965
    x124  x293  -0.29930599065076646
    x125  x125  5.45479689333062
    x125  x126  -0.5587863599383779
    x125  x136  -1.2836024497766951
    x125  x143  -0.6408455636657187
    x125  x153  0.011386828298546599
    x125  x154  -0.2265620165326614
    x125  x162  0.3658731840094949
    x125  x198  -1.2889085936694191
    x125  x204  0.4836874247502279
    x125  x208  0.5872185227382573
    x125  x227  -0.059749353604683766
    x125  x229  -0.1728029858757667
    x125  x249  1.1812731790926907
    x125  x253  0.6120279091873214
    x125  x268  0.27250672616011895
    x125  x270  0.1236295592764163
    x125  x272  -0.20358544021145966
    x125  x273  -0.1313391518759925
    x125  x274  0.5465310987308233
    x125  x288  0.18593321902975102
    x126  x126  5.245343663178804
    x126  x134  -1.9249736389908456
    x126  x136  -0.22374908026385454
    x126  x160  -0.5434381155044341
    x126  x169  2.3489686029297885
    x126  x174  0.4024461926706756
    x126  x179  0.7085722581163197
    x126  x184  -0.6111841670370275
    x126  x193  0.04572567444483312
    x126  x198  0.5308164049014708
    x126  x222  0.5225921626384311
    x126  x227  0.00044909982790724325
    x126  x235  0.6150307354529028
    x126  x243  -0.030792374373082892
    x126  x253  -0.2738201721919335
    x126  x264  -1.9865836091048439
    x126  x265  -1.2136346970406513
    x126  x288  -0.6282674512486461
    x126  x299  -0.016716617122176307
    x127  x127  9.957862900359338
    x127  x133  0.0075804459172455095
    x127  x136  2.86627841273171
    x127  x137  0.09111641764204766
    x127  x140  -0.736208510594874
    x127  x157  0.46444792606545116
    x127  x158  0.5460990915410465
    x127  x160  -2.3946453751461694
    x127  x162  0.5976113921649431
    x127  x164  0.1688112780088119
    x127  x171  -0.2476579042946536
    x127  x172  -0.01636190049037883
    x127  x175  1.5834455327845907
    x127  x177  0.03995030481319679
    x127  x179  0.03989155013168992
    x127  x181  1.136439105795752
    x127  x186  -0.05447699908534816
    x127  x202  0.38656519406779016
    x127  x211  -0.1444633505054841
    x127  x218  -0.006806761905835496
    x127  x220  -2.262585364093263
    x127  x228  0.8380315284709184
    x127  x229  0.46576061310036265
    x127  x245  -0.2694924806065174
    x127  x252  -0.5690705283479331
    x127  x254  -0.791959819121356
    x127  x260  -1.9647589856296162
    x127  x278  1.0394581329086272
    x127  x282  -0.43220556164538
    x127  x294  -0.036508196329725205
    x127  x295  0.05850154743419633
    x127  x296  -0.6580197847549033
    x128  x128  4.139959577386859
    x128  x132  -0.4959942809795481
    x128  x136  0.4526561854597868
    x128  x142  -0.7015676010616458
    x128  x145  -0.11650501426231755
    x128  x147  -0.8822037518862831
    x128  x180  0.8010121982889021
    x128  x182  0.182735251669965
    x128  x183  0.144234605991863
    x128  x212  -0.001263855439214288
    x128  x214  1.6443465233289918
    x128  x217  0.03812080096120149
    x128  x240  0.019973071003934383
    x128  x243  1.1385402118110022
    x128  x246  0.006049793175515019
    x128  x251  0.536031533068621
    x128  x257  0.8967064936546583
    x128  x265  0.7218028369503084
    x128  x281  0.6748133525685941
    x128  x286  0.4748652148481492
    x128  x294  0.19668192595648504
    x129  x129  5.463692110964504
    x129  x146  0.3570839978228751
    x129  x153  -1.1388283727156259
    x129  x187  -1.077384089654606
    x129  x191  -0.14130456332703353
    x129  x197  2.97311874667565
    x129  x198  -0.47920655932835443
    x129  x209  0.07924586312970847
    x129  x210  0.3985672639402452
    x129  x222  0.5607872705213891
    x129  x254  0.22225390846484244
    x129  x256  1.2879884832515685
    x129  x264  0.7044280820963191
    x129  x272  0.049245058277021206
    x129  x283  1.4630835712203991
    x130  x130  5.95284391549122
    x130  x138  0.6500236606256276
    x130  x142  -0.18499853061822383
    x130  x152  0.7972714063625924
    x130  x153  0.18388545134017056
    x130  x164  -0.021584524714326012
    x130  x174  -0.34123531076237784
    x130  x183  0.8075432955314167
    x130  x207  -0.4057566051283371
    x130  x210  -1.0244448311857555
    x130  x215  -0.4542684080387512
    x130  x217  2.611879446879161
    x130  x221  -1.077288655862356
    x130  x236  -0.6077111943123343
    x130  x239  0.43381249874538513
    x130  x273  0.4262653665727771
    x130  x276  1.9366022777664849
    x131  x131  10.095260361394685
    x131  x132  -0.4958377009342376
    x131  x147  -0.2179324056046401
    x131  x153  -0.43662005302913254
    x131  x161  0.1301122070315327
    x131  x173  -0.1819113670524648
    x131  x185  0.06784089664370503
    x131  x195  -1.1033629623237589
    x131  x201  1.7072008781717802
    x131  x208  0.3528435876567192
    x131  x212  1.5357328751839003
    x131  x216  0.07622850989509526
    x131  x226  1.3459193111282604
    x131  x229  0.8887152485456629
    x131  x239  -0.02987942813556893
    x131  x265  -0.3220692772440008
    x131  x267  1.6086229476239278
    x131  x269  0.41271869323478316
    x131  x281  1.7151297761009936
    x131  x288  0.035402751886944486
    x131  x298  0.8570162868065448
    x132  x132  3.4366362723811803
    x132  x133  -1.6304501047657056
    x132  x136  -0.8980595169522878
    x132  x141  -0.0953770734058461
    x132  x142  1.39189407138847
    x132  x143  0.006825192605689109
    x132  x155  0.4353219930232235
    x132  x157  0.20492768638377554
    x132  x176  0.14434425848639992
    x132  x200  -0.43777130610463316
    x132  x201  -0.08442930176262022
    x132  x206  -0.13509091252495156
    x132  x210  -0.0604374359832875
    x132  x212  -0.006679440302642525
    x132  x220  1.5569745624616382
    x132  x225  -1.4446775628201571
    x132  x242  -0.26393385391954766
    x132  x263  0.6420788962846591
    x132  x273  0.7321027873104322
    x132  x281  -0.5256152281386981
    x132  x282  0.25628056444325165
    x132  x285  0.06811943581138889
    x132  x290  0.06227524777690214
    x133  x133  3.550462524738593
    x133  x153  -0.18393558491262924
    x133  x160  -0.3896602328960733
    x133  x171  -0.14345424637959442
    x133  x189  0.21618634563382966
    x133  x190  0.5722253247343566
    x133  x212  0.213482382093757
    x133  x215  -0.3357844532330681
    x133  x217  0.07040038411161816
    x133  x218  -0.16364465872114192
    x133  x224  0.12540812764919138
    x133  x237  2.0459201529007647
    x134  x134  6.141567505907424
    x134  x139  0.6468214557175527
    x134  x142  -0.41930787267837577
    x134  x150  -0.02271650993188038
    x134  x223  -0.0014395924843151994
    x134  x235  -0.7585946902285352
    x134  x257  -0.004237440428130548
    x134  x270  -0.01462557077435957
    x134  x275  0.3135276642537227
    x134  x276  -0.09295218326350127
    x134  x277  -0.008379897462709156
    x134  x279  1.0131126768239356
    x134  x288  0.7993108654481424
    x134  x296  -0.5083062581842877
    x135  x135  6.566815759136055
    x135  x139  0.2238676498680107
    x135  x150  1.703925864504777
    x135  x152  -0.41436677130149846
    x135  x154  -0.02313793276391051
    x135  x159  -0.41144754072566025
    x135  x161  0.027152374164944867
    x135  x162  0.07083600882490973
    x135  x171  -2.7063375918242483
    x135  x178  -0.3405181877276212
    x135  x184  -0.016681253974481284
    x135  x186  -1.5760728968384112
    x135  x187  0.39824630708988934
    x135  x191  0.8013375190646849
    x135  x193  0.015509451668639408
    x135  x204  0.4052013177061409
    x135  x209  0.721942868323226
    x135  x218  0.846259150631535
    x135  x222  0.011600370311522506
    x135  x224  0.41782073828861216
    x135  x228  0.5811901513786152
    x135  x230  -1.2513885275713281
    x135  x251  -0.2567008757166327
    x135  x252  -0.0033080976184344
    x135  x253  1.1765713086160718
    x135  x265  -0.4254910390121493
    x135  x273  1.4353246191104816
    x135  x285  0.04042564080650027
    x135  x290  -0.6767707017519704
    x135  x292  -2.791905842001498
    x135  x299  0.17246523978132633
    x136  x136  15.277728534041742
    x136  x140  -2.44559849932443
    x136  x142  -1.2702756565549522
    x136  x153  -0.009677293918685225
    x136  x157  1.542841646970659
    x136  x164  0.560771306261865
    x136  x167  1.0699007851734335
    x136  x168  0.08835449612576861
    x136  x171  0.2275271205849238
    x136  x192  0.05995521472854897
    x136  x198  -0.5161044238973803
    x136  x210  -0.8125520273544968
    x136  x250  0.7023703195377812
    x136  x253  0.2450680467425416
    x136  x270  -0.216580643585822
    x136  x273  0.23110181877777783
    x136  x278  3.4529582494201785
    x136  x294  -0.12127595493955065
    x137  x137  5.548361918202318
    x137  x151  0.3212822864347915
    x137  x158  0.19903437159518725
    x137  x159  0.4816880662264145
    x137  x161  1.4787695333922137
    x137  x162  0.11634763416661224
    x137  x170  0.04019903282361134
    x137  x172  2.0459573597651746
    x137  x177  0.01456051463314538
    x137  x181  1.0506126274289083
    x137  x186  -0.677582690220974
    x137  x194  0.007791597722555582
    x137  x198  0.6972704135434121
    x137  x202  0.34538435131692863
    x137  x204  -0.24185806839319945
    x137  x221  -0.4063457274921199
    x137  x230  0.2698142899001447
    x137  x233  -0.011216196710578092
    x137  x242  -0.44287678883826054
    x137  x248  -0.07853218181632433
    x137  x252  -0.207406671714924
    x137  x258  -0.9998303197774787
    x137  x261  -0.38304379759887736
    x137  x267  -0.018269408027713083
    x137  x276  -0.11466473370736885
    x137  x295  -0.20238706440467555
    x137  x299  -2.9600989466285794
    x138  x138  3.646450011643622
    x138  x144  0.2525418443827064
    x138  x164  -0.4232600707545595
    x138  x174  -0.6170244169574357
    x138  x183  1.1270081561886738
    x138  x189  1.1852296171702552
    x138  x207  0.24627558010029016
    x138  x210  -1.4297161362127344
    x138  x215  -0.6339774025634266
    x138  x224  -0.02656369947465383
    x138  x227  1.3138130320871522
    x138  x233  0.2534772458186684
    x138  x243  -0.21424092444633192
    x138  x260  -0.6601054213319236
    x138  x268  -0.0586049959939398
    x138  x271  -0.8746070401420452
    x138  x281  0.22753124567975827
    x138  x289  0.35043194744268114
    x138  x298  0.7111670500443691
    x139  x139  1.552158721104293
    x139  x161  0.11702289520783071
    x139  x165  0.024087761510733965
    x139  x178  -1.4675852636951443
    x139  x190  -0.39236712848132865
    x139  x193  0.06684354474215054
    x139  x218  -0.09859015537026054
    x139  x221  0.2730590647418956
    x139  x224  -0.14298458385477283
    x139  x264  0.1851518256233239
    x140  x140  1.0563600745635071
    x140  x157  -0.39628151471771544
    x140  x158  0.46202950256672687
    x140  x164  -0.1440350687266027
    x140  x192  -0.6187552718434627
    x140  x201  0.28705830161523055
    x140  x268  -0.09773588835509958
    x140  x278  -0.8868982296556335
    x140  x294  0.031149936363622486
    x140  x298  -0.12169992884421173
    x140  x299  -0.21257334370866893
    x141  x141  1.3529923926858147
    x141  x143  -0.005018221020923911
    x141  x145  0.2778364844231643
    x141  x171  0.3317234682615406
    x141  x176  -0.10612907708748713
    x141  x221  0.7144255871532748
    x141  x267  -1.4685557864730485
    x142  x142  10.957531543080057
    x142  x149  0.924930716365254
    x142  x156  -1.0405388199069074
    x142  x160  0.33322312426378564
    x142  x161  -0.7071022171072645
    x142  x162  0.14132772937922966
    x142  x180  -0.08908754828222516
    x142  x203  -0.870168469518023
    x142  x211  1.616598467506988
    x142  x215  -0.27091899151662385
    x142  x229  0.10021581342781309
    x142  x238  0.030357586720515497
    x142  x241  0.1382753972850243
    x142  x242  0.3529552461424282
    x142  x250  0.35407642664233646
    x142  x260  0.3329660480771995
    x142  x273  -0.13857470467977004
    x142  x275  -0.3343467901599987
    x142  x276  0.09912447179578218
    x142  x279  -0.3920264085584219
    x142  x283  -0.22734056064939773
    x142  x288  0.3056252696727776
    x142  x290  -0.5895806026456714
    x142  x298  -0.36233732550086084
    x143  x143  2.3956487295066164
    x143  x165  0.13820764449954392
    x143  x167  -0.24957925201143746
    x143  x173  -0.31210413854709024
    x143  x174  0.3843557991255743
    x143  x176  0.007594607029971291
    x143  x187  -0.28371871336727417
    x143  x200  -0.0034279807962414918
    x143  x202  0.253387150056456
    x143  x214  -0.6516264095516826
    x143  x235  0.11565901961558293
    x143  x237  0.26654326648453863
    x143  x240  0.305636673165809
    x143  x245  0.009610601813868788
    x143  x255  0.3660046746478914
    x143  x263  0.19015745180256155
    x143  x283  -0.4652387786593213
    x143  x293  -0.3671812940374186
    x144  x144  6.5574192939854115
    x144  x145  -0.040809180122321674
    x144  x148  0.6407841780226353
    x144  x164  -0.41899994017738273
    x144  x166  2.0107430570339337
    x144  x175  0.4618055463965073
    x144  x176  0.7393558765755898
    x144  x183  -0.008627009208237007
    x144  x189  -1.634303506767961
    x144  x190  -0.026779906458976432
    x144  x193  -0.06711852599622083
    x144  x206  3.204860921534706
    x144  x208  0.13105183483993493
    x144  x210  1.091501864220211
    x144  x211  0.13042766637140277
    x144  x214  0.5462414720248416
    x144  x216  -0.22669145334134497
    x144  x224  0.6510485028480876
    x144  x239  -0.6887771663538431
    x144  x243  0.2521852348913206
    x144  x248  -0.9203588575091233
    x144  x251  1.351285414996698
    x144  x258  -0.6947707842715043
    x144  x259  -1.8603547856469065
    x144  x261  -0.3175905408034741
    x144  x279  -0.06868645551116702
    x144  x281  0.22524113403455764
    x144  x288  -0.6118766724339478
    x144  x290  -1.059401158474054
    x144  x292  0.001068244229030719
    x145  x145  7.150392033140575
    x145  x165  1.170725343304451
    x145  x180  -2.129824133329123
    x145  x183  0.10971843033773215
    x145  x189  0.3057094754336585
    x145  x190  0.34058724528365747
    x145  x197  0.08492287325205877
    x145  x211  -3.4259895799176423
    x145  x212  0.476623661221576
    x145  x223  0.14220046087277421
    x145  x246  -0.556740580944183
    x145  x279  0.8735553541489482
    x145  x281  -0.0871620785780468
    x145  x286  -0.06133583310559668
    x146  x146  2.660981127316674
    x146  x181  -0.17230944420427088
    x146  x197  0.4009956587055823
    x146  x201  0.33532188819515063
    x146  x209  0.010688186309719763
    x146  x241  2.0809985987995443
    x146  x264  0.0950088532813451
    x146  x272  0.15517445666954818
    x146  x283  0.1973315600121384
    x146  x293  -0.934774679152898
    x146  x295  0.34069499686883514
    x146  x299  -0.3739226869310791
    x147  x147  8.517552829187823
    x147  x153  0.22768215540308775
    x147  x154  -0.5829339139545053
    x147  x161  -0.06784898571576956
    x147  x192  -0.24558695350750856
    x147  x193  2.147493841311816
    x147  x195  0.9885374966993565
    x147  x199  0.09773420982055524
    x147  x214  -0.1449555841552126
    x147  x229  -0.13239756414266762
    x147  x235  1.3891350697690161
    x147  x239  -0.2097585664476833
    x147  x243  -1.0073529851317917
    x147  x257  -0.5744548538243921
    x147  x265  -0.6386337829227146
    x147  x274  -0.01748516607203248
    x147  x281  0.08923787406430277
    x148  x148  3.0756511236457453
    x148  x165  -0.10280802242321815
    x148  x166  0.1791591104459342
    x148  x170  -0.8381994492185797
    x148  x181  0.6656389980666126
    x148  x190  0.38953600348250217
    x148  x192  0.018175998552166325
    x148  x196  -0.7911932807847314
    x148  x207  -0.20636642189115317
    x148  x210  0.4125243428961904
    x148  x219  0.2991385521300041
    x148  x224  0.2460585406538262
    x148  x233  -0.12262134583738014
    x148  x243  -0.6606648419463492
    x148  x253  0.18359436042425364
    x148  x259  0.07312357510741369
    x148  x267  -1.0730084895343472
    x148  x272  0.4690563128166285
    x148  x273  0.23877181900260902
    x148  x275  0.08659734737426765
    x148  x281  0.012346684666595636
    x148  x290  -0.40039213957292996
    x148  x292  0.18016362649330003
    x148  x293  -0.11841765713297406
    x148  x295  0.12317066255872
    x148  x297  0.5990743088390095
    x149  x149  0.4825963922882747
    x149  x156  -0.2812477738862334
    x149  x167  0.15818649879975477
    x149  x191  -0.1911108177994918
    x149  x203  -0.15454839587684027
    x149  x211  0.43695123291499466
    x149  x221  0.13616373844765267
    x149  x222  0.01855411893183402
    x149  x238  0.008205367759818056
    x149  x239  0.5095514741109731
    x149  x247  0.06056748852149469
    x150  x150  8.89672475744631
    x150  x166  0.03940230164911408
    x150  x170  -0.005933134813791876
    x150  x181  -0.36915445696558663
    x150  x184  -0.03924990069685007
    x150  x185  -0.23350145673773826
    x150  x186  0.495165804829046
    x150  x197  -0.7470292794883301
    x150  x202  0.45541655448361873
    x150  x205  0.30277188006552486
    x150  x210  -0.7523786096155296
    x150  x218  0.07476397121672806
    x150  x223  0.14177230274715674
    x150  x236  -1.0214762776476993
    x150  x242  0.1231995446185132
    x150  x252  -0.1281199485577714
    x150  x253  2.7683954153920114
    x150  x265  -1.0011526144362137
    x150  x270  1.4403387557686629
    x150  x273  -0.819533400721129
    x150  x277  0.8252594904581427
    x150  x283  0.24974079673977706
    x150  x290  0.1129118386631886
    x150  x293  -0.029279690906492586
    x151  x151  14.441091685410706
    x151  x154  -4.28100236926347
    x151  x158  -0.6175169090955819
    x151  x159  0.20843658735820114
    x151  x160  -0.49811615562704054
    x151  x161  1.2702385540504393
    x151  x168  -0.10735887971727771
    x151  x170  2.5972429860390402
    x151  x178  -0.1806356449164012
    x151  x181  -0.13769113852753362
    x151  x184  0.85044355744695
    x151  x186  0.22265261325305394
    x151  x187  0.07906269072819137
    x151  x189  1.4510266514870616
    x151  x202  0.08848913092772724
    x151  x208  -1.0803633649799025
    x151  x220  1.258797961824647
    x151  x242  -0.06771176128336343
    x151  x246  0.5632075778477039
    x151  x247  -2.0060515903590197
    x151  x271  0.8541552961872968
    x151  x276  -0.30213656182372817
    x151  x299  -0.00036082843540953687
    x152  x152  3.147051059362246
    x152  x196  -0.4139455666009257
    x152  x201  0.4614132807273282
    x152  x217  0.8190057444789698
    x152  x236  -0.19055969819766505
    x152  x271  -1.0550509507291583
    x152  x277  -0.5750372267479824
    x153  x153  12.419192263128707
    x153  x161  -0.13593310117878776
    x153  x179  -0.4111762802109461
    x153  x182  0.6122227837742275
    x153  x187  2.0056772719477896
    x153  x189  0.7404999794619642
    x153  x190  -0.2445851736789908
    x153  x199  -0.9541346168866849
    x153  x207  -0.11329787920643293
    x153  x209  0.4170749410609011
    x153  x221  -0.30080722891436107
    x153  x230  -0.32930154451113447
    x153  x237  -0.8744837292248151
    x153  x239  0.12113182006131427
    x153  x240  1.1406536843520896
    x153  x244  -0.33898969383958744
    x153  x264  -1.7045364867245598
    x153  x267  -0.2787889810253909
    x153  x273  1.2479020082784662
    x153  x291  -1.3846149995506467
    x154  x154  7.41168844978012
    x154  x159  0.3014245364287677
    x154  x170  -3.8433246202252
    x154  x184  -1.2584616379819291
    x154  x189  -2.1471870303394587
    x154  x204  -1.5881937828968873
    x154  x213  -0.0058280657470932695
    x154  x222  -0.041060344694405504
    x154  x252  0.011709249347043559
    x154  x257  -0.0940464242360326
    x154  x273  0.4312537680054768
    x154  x274  -1.7945417820451397
    x154  x285  -0.14308946192505395
    x154  x286  -0.00026500943767208523
    x154  x298  0.015556723303670545
    x155  x155  2.415111477200381
    x155  x157  0.11768741854770193
    x155  x166  -0.3104461370375653
    x155  x220  0.8941511039040112
    x155  x225  -0.8296603353228048
    x155  x247  0.5710482085182078
    x155  x257  0.28101667402758607
    x155  x258  0.25944013632603463
    x155  x263  0.36873791502328573
    x155  x273  0.4204375146693864
    x156  x156  0.6454145086833603
    x156  x159  0.17793342641576296
    x156  x172  0.06087470149747005
    x156  x190  -0.2810158260688437
    x156  x192  0.32473805356800584
    x156  x210  -0.49301012555704554
    x156  x211  -0.49156624621674927
    x156  x217  -0.38956919060582496
    x156  x219  -0.08046257141405477
    x156  x238  -0.21142079794670096
    x156  x259  -0.7957886689008957
    x156  x265  -0.17470558885968537
    x157  x157  4.382806038052496
    x157  x164  0.09086663355291988
    x157  x169  1.3988804807662654
    x157  x176  -1.4685712700760676
    x157  x191  -0.5281130889832458
    x157  x197  -0.16992508358646632
    x157  x200  0.5910266119530709
    x157  x212  -0.556342419673337
    x157  x217  0.339745323714325
    x157  x220  0.4209213408401643
    x157  x225  -0.39056233254224665
    x157  x229  -0.6882820870549129
    x157  x230  -0.1965805595517992
    x157  x237  -1.6913540949733787
    x157  x239  -0.5269429171343912
    x157  x246  -0.7071064027610867
    x157  x251  2.0951389478288593
    x157  x263  0.5329100757979166
    x157  x267  -0.7003518653757167
    x157  x271  1.3108155686072425
    x157  x273  0.19792082304820657
    x157  x278  0.5595127432876857
    x157  x293  0.8165070689894224
    x157  x294  -0.019651393773572574
    x158  x158  4.3236026702910575
    x158  x160  0.23600146696644153
    x158  x162  0.6973204057576587
    x158  x171  0.20968948933068143
    x158  x177  0.08726730066109865
    x158  x178  0.08558300449628241
    x158  x186  -0.10549014071925833
    x158  x190  0.6017766079490097
    x158  x192  -1.1435327618414997
    x158  x196  -0.2340907797894582
    x158  x197  -1.9956486511236504
    x158  x201  0.5305176172117376
    x158  x202  0.8444116052072342
    x158  x207  -0.04101057538653064
    x158  x208  0.44145520047492104
    x158  x212  -0.02944813077837124
    x158  x213  -0.08864180465285491
    x158  x220  -0.5964033935639255
    x158  x223  0.7948993468039712
    x158  x230  -0.32421330281581057
    x158  x252  -1.2430755942143585
    x158  x261  0.2639577807247356
    x158  x265  -0.09691206372432044
    x158  x270  -0.0897998371241287
    x158  x276  -0.19141081751540726
    x158  x295  -1.2129909721126828
    x159  x159  6.286673398417728
    x159  x161  0.9593733860958182
    x159  x162  -0.35980617959398276
    x159  x165  -2.0802452071380575
    x159  x167  -0.331205418494158
    x159  x169  -0.8271011362738344
    x159  x187  -0.19641281433840685
    x159  x202  0.13266887145141157
    x159  x205  0.2620384513744122
    x159  x217  -1.2261941778807148
    x159  x222  -0.15112137627984662
    x159  x236  -0.3270867752905349
    x159  x239  0.02530272250907077
    x159  x246  -0.0036638899115397556
    x159  x252  0.04309554363702689
    x159  x259  -0.0845771576225503
    x159  x264  0.3618260846384583
    x159  x276  0.2337817326755894
    x159  x278  -0.15387584781960018
    x159  x281  0.10275316613942641
    x159  x285  -0.526636504836822
    x159  x295  -0.0606192720936659
    x160  x160  9.180053513566858
    x160  x161  -0.11781292584083251
    x160  x164  0.7095663776848551
    x160  x169  -1.0806053789351027
    x160  x170  -0.5458563304717646
    x160  x171  0.2602006726424088
    x160  x177  -2.4312938897209118
    x160  x178  0.06903499573661298
    x160  x181  -1.7446180944366676
    x160  x186  -0.0014619456241184436
    x160  x208  0.3560970786438752
    x160  x216  1.2365840667092218
    x160  x218  0.34989029121122583
    x160  x220  -0.48108507026971203
    x160  x260  3.016223271493544
    x160  x262  -0.7035036126701975
    x160  x276  0.9552452407418037
    x160  x279  -0.5555954953838627
    x160  x281  0.45537098000761983
    x161  x161  8.223281931048415
    x161  x167  -2.101490653024839
    x161  x178  -0.17799992192844266
    x161  x184  -1.5596545777265174
    x161  x189  0.021344329685252825
    x161  x193  0.008107294369776879
    x161  x194  -0.06794663981642336
    x161  x200  1.2555986968597574
    x161  x202  0.4072899016760343
    x161  x216  0.5433473129993556
    x161  x245  0.187860640957978
    x161  x280  -0.8413866047658969
    x161  x292  -0.62669577083956
    x161  x297  -0.40120561622165124
    x162  x162  7.921174141729708
    x162  x163  -0.455862959846863
    x162  x166  0.7568666715438574
    x162  x167  0.8141527576951263
    x162  x174  0.7162086739582165
    x162  x176  0.2205101311668651
    x162  x177  0.0510130179558935
    x162  x187  -0.20128083976848166
    x162  x189  0.7210799938609167
    x162  x191  -0.47389175130251004
    x162  x192  4.859567543361812
    x162  x193  -0.1801320594607441
    x162  x202  0.49360968028433094
    x162  x208  0.8593900424943927
    x162  x229  -0.25289591459485816
    x162  x230  0.7400411022596544
    x162  x241  0.3226575335355188
    x162  x249  1.7287847168786443
    x162  x251  0.15180672895015596
    x162  x252  -2.1370526305892037
    x162  x268  0.398811614256825
    x162  x272  -0.16020927281747085
    x162  x280  -2.4960340933016125
    x162  x283  -0.5304858710368796
    x162  x294  1.0307408015552775
    x162  x295  -0.7090666237176813
    x162  x296  -0.05458488971452212
    x162  x299  0.5271005775698255
    x163  x163  4.628698059865847
    x163  x166  -0.41507357375455
    x163  x190  0.3949173995009204
    x163  x193  0.09878629946226354
    x163  x202  -0.5557020034478777
    x163  x208  0.8106278835999358
    x163  x240  2.6626014765851855
    x163  x252  0.7734779138702293
    x163  x270  -0.4055062320312003
    x163  x277  0.37512211068207224
    x164  x164  1.9561833089192575
    x164  x170  -0.32497854200555004
    x164  x171  0.15491188890511076
    x164  x175  0.7118510986637298
    x164  x195  -0.25716852476201874
    x164  x244  0.2865396181721177
    x164  x261  -0.23640403756638775
    x164  x278  0.20336415765004429
    x164  x281  -0.1063964914053307
    x164  x294  -0.007142623987309402
    x165  x165  10.556702527412508
    x165  x166  -2.1186776222049897
    x165  x180  -0.9173695131524953
    x165  x189  0.004445800848862231
    x165  x190  -0.047209964434731945
    x165  x211  -0.7705611894942528
    x165  x218  -0.011862455824624935
    x165  x221  0.03285471131320702
    x165  x224  -0.017204033234450716
    x165  x229  -0.1756644244407143
    x165  x235  0.056249173984356325
    x165  x237  0.12962965292874967
    x165  x239  -1.096340238771795
    x165  x245  0.004673984055194616
    x165  x251  -2.5994664413684747
    x165  x254  -1.1125508210720647
    x165  x269  0.05763480960047073
    x165  x275  -0.3138013058427767
    x165  x299  0.05022254851908692
    x166  x166  28.008652936057505
    x166  x170  -0.037644595400972446
    x166  x172  0.8160705717752034
    x166  x174  -0.008245277465447053
    x166  x175  -0.43265090313763316
    x166  x180  1.3448037240673552
    x166  x181  -0.5513131133418641
    x166  x189  -2.054878019120086
    x166  x193  -0.16401432942315564
    x166  x195  3.9710228620574686
    x166  x196  0.2235560577874123
    x166  x199  1.0574490095245395
    x166  x204  -1.5907811612815335
    x166  x207  0.6391042541704964
    x166  x208  0.16477694238722138
    x166  x209  -1.1285352312235712
    x166  x212  1.9802016247616685
    x166  x216  -0.2850286269743984
    x166  x227  1.349684794932
    x166  x229  0.3008793928490436
    x166  x231  3.3908119940535215
    x166  x233  0.01649329058105494
    x166  x236  -0.013713056369465144
    x166  x237  -0.08676565724460243
    x166  x239  -0.866028282599337
    x166  x246  -0.3535492317991912
    x166  x247  -0.09586677215912567
    x166  x248  -1.1572056097083867
    x166  x251  -1.417083347812887
    x166  x252  -1.2842009677213204
    x166  x256  -0.0013514971566581052
    x166  x267  1.0139416314009961
    x166  x275  1.4239230168664863
    x166  x276  -0.3814090944171678
    x166  x285  0.005622142163901767
    x166  x299  -0.08602157183428083
    x167  x167  14.939489482737198
    x167  x168  -0.9342065162652292
    x167  x184  0.8081153612411425
    x167  x187  0.1482560394327239
    x167  x189  1.7377445280666697
    x167  x199  -0.6481940792840039
    x167  x203  -0.5920838299532105
    x167  x207  -3.086412366335742
    x167  x213  1.9882161409981018
    x167  x216  -0.2815285617690608
    x167  x218  1.126939349479987
    x167  x221  0.5216511456067122
    x167  x222  0.07108190114973491
    x167  x246  0.7752537010529432
    x167  x247  0.23203754636852633
    x167  x250  2.3842468142047264
    x167  x255  0.2709096178550406
    x167  x256  -0.9823479106362495
    x167  x261  -0.7332976227923993
    x167  x265  -3.863303135094429
    x167  x278  0.11614834723961069
    x167  x280  0.43595386424921384
    x167  x295  0.045756552209558085
    x167  x296  -0.19322333382013235
    x168  x168  1.3168512697230488
    x168  x187  -0.033952327616048904
    x168  x192  0.36841872940410264
    x168  x207  0.7469752284102524
    x168  x213  -0.4811891703940421
    x168  x218  -0.272742484822828
    x168  x246  -0.24186133842404386
    x168  x254  0.31296846536217604
    x168  x256  0.23774838480090013
    x168  x261  0.1774730963537302
    x168  x265  0.9349987620679743
    x168  x270  -1.330866145416647
    x169  x169  12.759663124935077
    x169  x203  -0.3983780535393336
    x169  x205  -0.8669292035168489
    x169  x212  -1.6856050295374743
    x169  x217  1.0293596284657878
    x169  x229  1.9395237057130599
    x169  x231  -0.03691807545541841
    x169  x259  0.2798154526896902
    x169  x264  0.1684377688028516
    x169  x274  0.1715680267373761
    x169  x276  -0.30940050013187054
    x169  x293  2.4738513071672434
    x170  x170  8.272284265107125
    x170  x171  -0.11917085967360974
    x170  x181  -0.5368742173829896
    x170  x184  0.7634965787253477
    x170  x189  1.3026777313423015
    x170  x207  1.0073714465732184
    x170  x219  -1.4602357942900344
    x170  x243  3.225015443077233
    x170  x248  -0.6351422964716715
    x170  x253  -0.896210317300626
    x170  x257  1.744417163850271
    x170  x281  -0.2085580740696268
    x170  x288  0.4788719161485387
    x171  x171  3.681562360635745
    x171  x186  1.3905829143591288
    x171  x212  -0.16799307391627324
    x171  x217  -0.05539931124903331
    x171  x218  -0.7466618570428555
    x171  x230  -0.3865397639274667
    x171  x273  -0.5456643289639063
    x171  x281  0.0994161799149992
    x171  x282  1.0721882161269196
    x171  x290  0.5971207148368441
    x171  x292  2.4633229656919644
    x172  x172  6.304512515834361
    x172  x174  -0.3516008905155989
    x172  x175  -0.0025150109075670612
    x172  x177  -1.0742692826640765
    x172  x181  -0.16179055881701135
    x172  x186  0.6805025477832264
    x172  x190  -0.06842701811202329
    x172  x192  0.07907332830328717
    x172  x195  -0.03505333598347891
    x172  x198  1.8183269917724099
    x172  x199  0.3103232301775163
    x172  x204  -0.4668370238451389
    x172  x207  -0.13507743402285385
    x172  x209  0.009961897980304401
    x172  x210  -0.1200473769140615
    x172  x211  -0.1630572536635356
    x172  x212  0.58111791591266
    x172  x213  0.3281700907919784
    x172  x227  -0.011914047395846885
    x172  x231  -0.029931651419096778
    x172  x242  -1.154924694254163
    x172  x251  -0.9144664123812936
    x172  x254  0.07962644473318548
    x172  x259  -0.19377359069764422
    x172  x261  -0.9988934890633825
    x172  x268  -0.1430399159958732
    x172  x279  0.7553107303937319
    x172  x295  -0.06171358189443024
    x173  x173  0.8654097144249738
    x173  x185  -0.016668420797099775
    x173  x195  0.2710948566104115
    x173  x200  0.0011720534751394538
    x173  x201  -0.41945705364119734
    x173  x204  0.013193388382578912
    x173  x227  0.5015882822408267
    x173  x229  -0.21835619021012406
    x173  x232  -0.4962825572821047
    x173  x239  -0.22201285901897508
    x173  x255  -0.1566031680270907
    x173  x258  -0.1283020409056564
    x173  x265  -0.38222690491247135
    x173  x280  0.22416455137871388
    x173  x288  0.24932365819844685
    x174  x174  2.945786275014176
    x174  x179  0.4936480615675907
    x174  x183  -0.5916322769522498
    x174  x184  -0.44220331437875815
    x174  x187  -0.424611991254657
    x174  x192  0.818989383895235
    x174  x193  0.03308339103372796
    x174  x201  -0.33483128642777893
    x174  x202  0.37921792703372864
    x174  x210  0.7505413411766876
    x174  x211  -0.10561688044630356
    x174  x214  -0.9752207883294929
    x174  x215  0.3328116945340725
    x174  x224  0.0076139817423421085
    x174  x232  -0.17915713491117358
    x174  x243  0.16856230630195387
    x174  x250  -0.2857253605982973
    x174  x264  0.676562605381639
    x174  x267  0.18773866626373764
    x174  x269  -0.2220184850523881
    x174  x280  -0.42065994679856017
    x174  x281  -0.09066990191129334
    x174  x289  -0.10044468588826837
    x174  x292  0.12446675322602054
    x174  x294  0.17371211872022876
    x174  x296  0.1992619415017234
    x174  x297  0.6013559589356544
    x174  x298  -0.20384257621796056
    x174  x299  0.08883296166228288
    x175  x175  9.93697657391645
    x175  x176  -0.021499190298370406
    x175  x178  -0.6462798336668405
    x175  x179  0.02248554066113142
    x175  x192  -0.32647257084914094
    x175  x193  0.003133013261312714
    x175  x199  -0.01825060680633137
    x175  x211  0.8037464023456562
    x175  x220  -1.2753441527253249
    x175  x227  -0.017173051707110115
    x175  x228  0.47237051321737344
    x175  x236  0.010195999277141939
    x175  x237  0.0645124292288763
    x175  x244  0.37316459756999093
    x175  x246  0.2628726678237406
    x175  x252  0.004627293478964891
    x175  x254  -0.005745522996586363
    x175  x262  0.11236136290219462
    x175  x264  0.5604352645713316
    x175  x266  -0.2606088101364467
    x175  x270  -0.49761525025412234
    x175  x276  0.2835871702264783
    x175  x279  -0.42307855237048686
    x175  x290  -1.6899398024775718
    x175  x293  4.016530017287085
    x176  x176  7.399550559537737
    x176  x187  -0.8316771125082812
    x176  x188  -0.13370698768528488
    x176  x191  0.3877862699824327
    x176  x193  -0.5101116136143856
    x176  x199  2.9715311461907485
    x176  x214  1.0010207729063456
    x176  x226  0.032057632576745994
    x176  x227  2.7960855528989237
    x176  x230  0.14434643550762308
    x176  x246  0.5192186297357926
    x176  x251  -1.53843207945798
    x176  x252  -0.7534076450838564
    x176  x254  0.9354757744048673
    x176  x261  -0.5820040127022432
    x176  x267  0.5142588646537107
    x176  x272  0.5691169019611132
    x176  x278  0.15790621916129585
    x177  x177  12.134932895158943
    x177  x179  -0.7489087974657828
    x177  x202  0.06177358933272315
    x177  x242  0.6820577099208079
    x177  x252  -0.09093816427082749
    x177  x268  1.0693857774846751
    x177  x274  0.10464518476088475
    x177  x279  -5.646805278380631
    x177  x283  0.050010211711042966
    x177  x294  0.05110180718777932
    x177  x295  -0.08873730028520878
    x178  x178  6.754486588936343
    x178  x184  -0.0629593642656365
    x178  x186  -0.030857907403788496
    x178  x187  0.9731460343330994
    x178  x192  0.18059960261593722
    x178  x193  -0.11660105847633742
    x178  x201  -1.4661201960415255
    x178  x208  0.1291341883354706
    x178  x213  -0.22625395076318114
    x178  x220  -0.17445953307502832
    x178  x253  0.005784638199621413
    x178  x264  -0.310024164695631
    x178  x270  0.0976412693607958
    x178  x271  0.9353411759099831
    x179  x179  4.609745820931842
    x179  x189  -0.5095161465343975
    x179  x201  -0.5061577572306737
    x179  x203  0.17208192838527697
    x179  x204  0.6869921476100985
    x179  x209  -0.2869769381220174
    x179  x211  -0.002051435603296019
    x179  x220  -0.03212958965132962
    x179  x228  0.011900372711655754
    x179  x242  -2.0431960773562317
    x179  x250  -0.4319253115420974
    x179  x264  1.0227461555925288
    x179  x267  0.28380078598786435
    x179  x272  0.015655504433976303
    x179  x273  -0.8586444836535462
    x180  x180  19.526554128222315
    x180  x182  1.0958643597344815
    x180  x185  -1.6104576127078598
    x180  x188  0.1705729711923632
    x180  x196  0.04155923533422179
    x180  x201  -0.4524109178220148
    x180  x211  1.4018316311145798
    x180  x215  0.08220865929655458
    x180  x217  0.22861066354817075
    x180  x240  0.11977862217405663
    x180  x242  -0.10710204336219076
    x180  x251  0.31400302241182776
    x180  x254  0.39250203525200766
    x180  x259  6.543935562583026
    x180  x260  0.07923361779528461
    x180  x273  0.39303674912563447
    x180  x290  0.17890451540301575
    x181  x181  9.210201188478992
    x181  x185  0.34479241385077275
    x181  x186  -0.039959661096086334
    x181  x189  3.304352025801538
    x181  x190  -0.39302667571406513
    x181  x197  1.1030767520276317
    x181  x199  -0.2008294752972816
    x181  x201  -0.5998884861075805
    x181  x202  -0.672476203454155
    x181  x204  0.3021192918575019
    x181  x207  -0.12137793015951825
    x181  x208  0.2326786441872824
    x181  x212  -0.3760775694163451
    x181  x221  -0.6463785370114925
    x181  x242  0.10601872720213167
    x181  x251  0.5918081275142281
    x181  x257  -0.8123025409720213
    x181  x260  -1.4411789290788184
    x181  x272  -0.2776060053672566
    x181  x276  0.29066759433410544
    x181  x293  0.06977368136837823
    x181  x299  0.0005649619908772734
    x182  x182  1.9040484961715014
    x182  x217  0.05215304739072844
    x182  x218  -0.8853638273822192
    x182  x233  0.179299198110531
    x182  x240  0.027325147749826896
    x182  x251  0.071633642344183
    x182  x260  0.7936094346518384
    x182  x264  -0.24999330741237255
    x182  x267  -0.040888171053814995
    x182  x291  -0.14982551816378892
    x183  x183  5.428436077340832
    x183  x190  0.071999714095286
    x183  x210  -1.7761779305086363
    x183  x212  -0.0021906244873119915
    x183  x215  -0.7876085625341198
    x183  x279  0.18466850011587482
    x183  x294  0.340906269691583
    x184  x184  14.037202588968754
    x184  x189  0.42654995701392434
    x184  x193  1.004183225701868
    x184  x216  -0.09823341708119501
    x184  x230  -2.147476602514588
    x184  x243  0.08346902700179998
    x184  x252  -1.247475539370213
    x184  x253  -0.4357114933166859
    x184  x262  0.0671733848657922
    x184  x265  0.009801178194733364
    x184  x267  -1.1207784043960942
    x184  x280  0.32355006627089405
    x184  x296  0.08872791795684898
    x185  x185  0.9788545560799978
    x185  x195  -0.10110043394178192
    x185  x197  0.6977296999450724
    x185  x201  0.2266598921474905
    x185  x202  -1.328012496412772
    x185  x229  0.0814324028870933
    x185  x254  0.1174135952762574
    x185  x259  -1.015850325855504
    x185  x265  0.14254533056821914
    x186  x186  8.902918952161755
    x186  x204  0.6555153625340496
    x186  x207  -1.3031175851178736
    x186  x208  -0.15917159930705327
    x186  x211  -0.6585927061075616
    x186  x213  1.325487970036787
    x186  x218  -0.728008732202624
    x186  x220  0.21503989959478775
    x186  x226  -0.25618579491674903
    x186  x230  -0.7312859696424073
    x186  x247  -1.9347645214919156
    x186  x258  2.7098708713572828
    x186  x260  0.06908518265593752
    x186  x262  0.8236205407693057
    x186  x280  3.0482685669055334
    x186  x290  0.5822034304818451
    x186  x292  2.40178417089824
    x187  x187  3.526223760675613
    x187  x202  -0.2799261064581019
    x187  x204  0.19321373169247538
    x187  x214  0.7198756671379496
    x187  x246  0.17811482617258712
    x187  x272  -0.5194878228360633
    x187  x278  0.06887877579360571
    x187  x295  0.027134740834742932
    x188  x188  0.8147376171637817
    x188  x193  -0.3716145174540687
    x188  x226  -0.09667121978814384
    x188  x228  -0.004573158663906959
    x188  x253  -0.1636169283349367
    x188  x273  0.5760536771713796
    x188  x287  -0.16399107035036992
    x189  x189  11.672584290210098
    x189  x200  0.0047672793851266625
    x189  x208  -0.13392836734454705
    x189  x209  0.5168255733924849
    x189  x212  0.38697665473230974
    x189  x215  -0.2903680554604423
    x189  x216  0.23166723513677415
    x189  x222  -0.6196183138340573
    x189  x224  0.10844609931703807
    x189  x227  0.893407245671496
    x189  x233  0.17236730226940772
    x189  x237  0.1851549778771412
    x189  x239  0.7038955346687269
    x189  x248  0.9405603462770312
    x189  x251  -1.3809455599614275
    x189  x260  -0.4488789134539925
    x189  x266  -1.104616891196563
    x189  x269  0.0004826275848264517
    x189  x273  1.5463591970441035
    x189  x292  -0.020775203446785365
    x189  x293  0.5340293876212265
    x189  x297  -0.013300118955376783
    x190  x190  6.524577219195711
    x190  x192  -0.36502612951760627
    x190  x197  -0.8290653976752564
    x190  x210  0.55417459077487
    x190  x218  0.1932283216342287
    x190  x220  0.4107298334878398
    x190  x221  -0.5351725493172763
    x190  x224  0.28023762670892904
    x190  x231  0.6808601099543043
    x190  x237  2.7205270593413204
    x190  x256  0.500521597475842
    x190  x259  0.894516840669643
    x190  x279  0.5732467694946667
    x191  x191  4.321925587438795
    x191  x206  -0.8957918390234277
    x191  x230  -3.752550966999537
    x191  x236  -0.14562502059614382
    x191  x239  -0.5090320297864568
    x191  x240  -0.21000442613932407
    x191  x242  -0.4266865241747194
    x191  x246  0.18671627315248684
    x191  x251  -1.3336552845917353
    x191  x261  -0.003089026275907956
    x191  x267  -0.16758254375606024
    x192  x192  10.858475253981618
    x192  x196  -0.05752291170410801
    x192  x201  -0.7104753498034188
    x192  x206  0.15326321452641287
    x192  x210  -0.7208589077129178
    x192  x222  -0.10215074356960895
    x192  x228  0.026130566868595363
    x192  x233  -0.008915061617619631
    x192  x239  0.20605586922395536
    x192  x249  -0.1401353281159952
    x192  x251  -0.006547479411952167
    x192  x259  -1.0336914535614046
    x192  x264  -0.22396096378147531
    x192  x266  -0.11244169336569569
    x192  x268  -0.44255978951917846
    x192  x270  -0.9030934363524697
    x192  x280  -2.6988017693004047
    x192  x281  -0.0876626305157553
    x192  x290  0.03189725370436993
    x192  x293  0.1169561998337822
    x192  x294  1.1786589645110692
    x192  x297  0.043555095080391515
    x192  x299  0.6027430174629785
    x193  x193  4.894630456682968
    x193  x199  -0.4330324239292422
    x193  x211  0.33654419778320205
    x193  x227  -0.4074652577804859
    x193  x228  0.010520432714464265
    x193  x229  0.3378434809139098
    x193  x243  -0.08517398957129207
    x193  x252  0.4154279457207774
    x193  x253  0.2795169674652964
    x193  x254  -0.13632411110242523
    x193  x259  0.7862925902024064
    x193  x274  -0.018011354533502937
    x193  x277  0.3262671131654525
    x193  x285  -0.30099992412785265
    x193  x287  0.3772571975274775
    x193  x289  0.02554569537644529
    x193  x292  -0.013665787801852397
    x194  x194  0.6197427859493286
    x194  x200  -0.5351303142735431
    x194  x202  0.25782959608674966
    x194  x232  0.22365620445469006
    x194  x233  -0.1736684440280737
    x194  x245  -0.09042160117991685
    x194  x249  0.24272189719976262
    x194  x267  -0.2828783898284002
    x194  x287  -0.04872472471002804
    x194  x297  0.8147424478889547
    x195  x195  6.206612713952271
    x195  x196  -0.4879525246738342
    x195  x201  -2.544169640260402
    x195  x209  -0.8796851777839577
    x195  x220  1.3490774093900124
    x195  x227  1.052069688152118
    x195  x229  -1.3244149432535874
    x195  x231  2.64311380743241
    x195  x235  0.35131066712371084
    x195  x257  -0.3986405014661413
    x195  x261  0.2431827103549312
    x195  x265  -2.3183543552967425
    x196  x196  4.602130600998583
    x196  x213  0.21731691641675085
    x196  x215  0.16002838984331735
    x196  x220  -0.6911929650798438
    x196  x230  0.37001987191573743
    x196  x233  0.38806873962926386
    x196  x257  0.20424143810538103
    x196  x261  -0.6471268403881817
    x196  x291  0.21770698306092737
    x196  x293  0.8952085984287248
    x196  x297  -1.8959342713767253
    x197  x197  8.81618867709779
    x197  x202  -1.360838002251822
    x197  x209  0.08899095809146951
    x197  x223  0.14930133265889814
    x197  x225  0.3053592074948229
    x197  x239  0.09920753377623523
    x197  x243  0.16050652040564103
    x197  x245  -0.014900526367067046
    x197  x264  0.7910536582796937
    x197  x271  -0.24678722413466264
    x197  x283  1.6430032260192644
    x197  x290  -0.5277843953145409
    x197  x294  0.727436795393784
    x197  x296  -0.15391129792583608
    x198  x198  8.002381846711495
    x198  x204  -0.5125213864893624
    x198  x210  0.9300405843536125
    x198  x222  -0.47369631060287515
    x198  x226  -0.5377880450261991
    x198  x227  -0.0024493351062414687
    x198  x234  0.22236989119696246
    x198  x241  -0.12432746650440629
    x198  x242  -0.3936029337710768
    x198  x243  0.16793781442307618
    x198  x253  -0.6315994776557246
    x198  x255  -2.264864462954564
    x198  x256  -1.087962271411777
    x198  x261  -0.3404268778529126
    x198  x262  0.708488716905616
    x198  x272  0.11491135103196785
    x198  x290  -0.2596108124023413
    x198  x299  0.09117036932688455
    x199  x199  8.12588925463662
    x199  x204  -0.5794814928243268
    x199  x207  0.23280957575506114
    x199  x212  0.7213375551201718
    x199  x227  2.3735897638289147
    x199  x229  -0.6303995073890298
    x199  x230  1.2567920120492997
    x199  x244  1.2937672066406773
    x199  x246  -0.29900523848863664
    x199  x251  -1.1351206839160308
    x199  x252  -0.6395657931523008
    x199  x254  0.7941229552633746
    x199  x291  1.385614909994952
    x200  x200  17.022130301928172
    x200  x209  0.610199836341083
    x200  x231  0.9351264281557581
    x200  x232  1.3483623822402195
    x200  x234  1.5948963197525305
    x200  x242  -0.08434705309213374
    x200  x245  1.4795422423696212
    x200  x247  0.1815046976265848
    x200  x255  -0.0017200433647772643
    x200  x263  1.0562526755134927
    x200  x273  0.4823314748468515
    x200  x274  0.5433443052289074
    x200  x292  -0.1399731859995447
    x200  x295  0.05015763804873845
    x200  x297  -0.08960971328755324
    x201  x201  11.726236620553838
    x201  x206  0.29238728592492597
    x201  x213  0.7896600960819709
    x201  x229  2.049228070357229
    x201  x250  0.2929660196479023
    x201  x254  0.032983912140598586
    x201  x259  -0.2853734085663579
    x201  x264  -0.6937075978353124
    x201  x265  3.5871211255273296
    x201  x267  -0.07370957611300996
    x201  x271  -3.8361214419783933
    x201  x272  0.5402337075831293
    x201  x277  -0.31156300152519895
    x202  x202  3.7956926613848774
    x202  x214  -0.6429158003932882
    x202  x232  0.23066075542739295
    x202  x252  -0.8799314369163146
    x202  x295  -0.8586355439889477
    x203  x203  7.009175249356792
    x203  x204  0.4728757341851544
    x203  x221  -0.5096537844414216
    x203  x222  -0.06944710125024077
    x203  x241  -0.9909908770470134
    x203  x247  -0.2267009564441367
    x203  x250  -0.7638524143736403
    x203  x258  0.0037297899005721744
    x203  x260  -1.281616063851478
    x203  x266  0.13867651494275832
    x203  x272  0.010776117571371585
    x203  x298  0.7816737293869506
    x204  x204  9.605663985327991
    x204  x207  -0.35022879017458936
    x204  x212  -1.0851494334710237
    x204  x226  0.2382543602584147
    x204  x230  -0.261027051920527
    x204  x239  -0.014856558805734868
    x204  x251  1.7076271134496983
    x204  x255  -0.7979559841657631
    x204  x258  0.9672681194493438
    x204  x272  0.043020834452067204
    x204  x273  -0.07202309709472166
    x204  x274  3.831168641805265
    x205  x205  4.565857564365627
    x205  x210  -1.6007540395651891
    x205  x213  -0.9488379011392143
    x205  x214  0.03831646521191905
    x205  x215  0.37159062531989984
    x205  x217  1.6645713260346697
    x205  x252  -0.27258686329152604
    x205  x259  -0.08864986962025057
    x205  x261  -1.8758113565575256
    x205  x276  0.09802287090823428
    x205  x293  -0.062295210013664275
    x206  x206  13.58531790740178
    x206  x207  -1.355619016416629
    x206  x215  0.5764503373753604
    x206  x218  -0.08725936535702919
    x206  x228  0.042623676772895996
    x206  x240  1.205943050282724
    x206  x242  3.291293384875928
    x206  x249  -0.22858604484614398
    x206  x252  0.18653908009280917
    x206  x258  -1.291080709213894
    x206  x259  -3.457065596908953
    x206  x261  0.017738625028314907
    x206  x267  2.024306372112461
    x206  x268  -0.7218949943185963
    x206  x280  0.25353413078893483
    x206  x290  0.05203018513433448
    x206  x293  0.1907766977796658
    x206  x296  -0.32859572620544514
    x206  x297  0.669567418776879
    x207  x207  5.821283090033755
    x207  x211  0.3122439075682422
    x207  x212  0.5201477994641404
    x207  x213  -2.218167053938812
    x207  x218  -0.9010810386419117
    x207  x219  -0.3595130446171865
    x207  x221  0.6637530001031157
    x207  x239  -0.2672861595242388
    x207  x242  0.4156174793580457
    x207  x243  0.5829561784332699
    x207  x251  -0.6860476973862288
    x207  x253  -0.2206488164788043
    x207  x256  0.7854682472772622
    x207  x261  0.586331983069293
    x207  x265  3.3660730739240927
    x207  x266  0.3549699303576838
    x207  x267  -0.4525804667844027
    x207  x268  -0.05773191754073082
    x207  x270  0.25671152228909655
    x207  x271  -0.8615774246831197
    x207  x276  0.5471876555751317
    x207  x296  0.31673173814934386
    x208  x208  2.739991704714288
    x208  x216  -0.018576975519688142
    x208  x220  -0.8998990933035448
    x208  x229  -0.4058924563629106
    x208  x239  -0.05644410660073982
    x208  x240  0.8211540493650361
    x208  x242  0.11442334618938048
    x208  x248  -0.07542182871592547
    x208  x249  2.7746619647085384
    x208  x251  0.11073552048169313
    x208  x265  -0.38155650461386204
    x208  x268  0.6400839886879354
    x208  x269  0.21373128564351043
    x208  x270  -0.12505930286729666
    x208  x272  -0.47819656580796455
    x208  x276  0.510568263988131
    x208  x277  0.115688751359065
    x208  x288  0.018333736271573257
    x208  x298  0.44381608053888116
    x208  x299  0.0006097492695110575
    x209  x209  6.054807229001116
    x209  x216  -0.5240898024639796
    x209  x224  1.2065708089800344
    x209  x226  -1.4980982455919307
    x209  x227  -0.2989903987021867
    x209  x228  1.6783443397099493
    x209  x231  0.08190522712407422
    x209  x232  1.2011903296386963
    x209  x263  -0.5649878554273711
    x209  x264  0.021084838943073215
    x209  x273  2.932411960361189
    x209  x283  0.04379280474968405
    x209  x285  -1.0793650849613898
    x209  x291  0.10725834089876428
    x209  x299  0.4980401995751347
    x210  x210  9.69465583316192
    x210  x215  0.9991557422995554
    x210  x224  0.4191323148142223
    x210  x251  0.055155146195359626
    x210  x252  0.6773697912710792
    x210  x259  1.569327486286819
    x210  x266  0.947194736453499
    x210  x272  0.07850987256020107
    x210  x285  -0.25408555605661437
    x210  x290  -0.6820217816731645
    x210  x293  0.15480163972177596
    x211  x211  13.40494445753108
    x211  x213  -0.31760414250072944
    x211  x214  0.6611053677470158
    x211  x220  0.11635416914295721
    x211  x228  -0.04309603684275266
    x211  x238  0.01434138223669379
    x211  x243  -0.2592076234219482
    x211  x247  -0.014806298974583302
    x211  x259  1.5436346897927582
    x211  x262  2.249527001682288
    x211  x271  0.04809742505563337
    x211  x281  -0.004775911197543028
    x211  x282  3.269106009973971
    x211  x285  -0.5909173382762466
    x211  x286  0.5742714535999193
    x211  x289  0.05015082432330765
    x211  x290  -0.8192752582386943
    x212  x212  3.55559593517364
    x212  x217  -0.326939105167671
    x212  x229  -0.7713591877836018
    x212  x251  -2.1256512629405777
    x212  x265  -0.25058351807976265
    x212  x267  0.6337738322407044
    x212  x270  0.18433475778949812
    x212  x276  0.39291459556012825
    x212  x290  -0.14525722074557068
    x212  x293  -0.9838641978817023
    x212  x294  -0.00298719048905827
    x213  x213  2.6875920201148418
    x213  x217  -0.4668391690576411
    x213  x218  0.5804616016045012
    x213  x256  -0.5059857407622441
    x213  x257  0.000934473177911572
    x213  x261  -0.09666649448447656
    x213  x265  -1.9899022305995242
    x213  x271  -0.5037797070340481
    x213  x282  0.6874129508934252
    x213  x286  0.0015954732866274373
    x213  x293  0.47971703298294055
    x213  x298  -0.09365831147935506
    x214  x214  4.011512500346593
    x214  x215  1.0294813395054778
    x214  x243  0.18707442712002526
    x214  x251  0.40363226001402575
    x214  x257  0.1473385409272645
    x214  x261  -0.42998877630525634
    x214  x265  0.11859998515230578
    x214  x290  -0.3098126630822506
    x215  x215  13.342078131893256
    x215  x218  -0.13914610811267128
    x215  x224  -0.16844039829466614
    x215  x242  1.015476421464156
    x215  x243  0.5509870938212239
    x215  x252  0.2974601855013534
    x215  x260  0.24095277332483314
    x215  x290  0.5440561764839345
    x215  x291  0.10965666663960245
    x215  x297  1.0677100396117505
    x216  x216  9.798090828906773
    x216  x226  0.7146190588658201
    x216  x239  0.08852549251329553
    x216  x248  0.1304635222098018
    x216  x251  -0.19154860445231867
    x216  x252  -0.30342133655111025
    x216  x262  -3.718119761126337
    x216  x263  0.26950908640614235
    x216  x276  5.0486111831653515
    x216  x280  -0.11271730397208497
    x216  x285  0.5148760192846787
    x216  x291  -0.051164104126093964
    x217  x217  6.816199770718665
    x217  x229  0.4710510428225724
    x217  x236  -0.6242779499602659
    x217  x240  0.0057003589022215145
    x217  x251  0.01494365097578667
    x217  x261  -0.9229207791476259
    x217  x293  0.6008228899685921
    x218  x218  5.174387790678216
    x218  x221  -0.13447289784776015
    x218  x224  0.07041535631377728
    x218  x233  -0.10716205777381319
    x218  x236  0.4139310199340083
    x218  x242  0.8818660265020293
    x218  x252  -0.045027620460790334
    x218  x256  -0.2867974108964329
    x218  x260  -0.47431790539061247
    x218  x261  -0.21408694145555468
    x218  x265  -1.1278950407046031
    x218  x283  2.1991968257450565
    x218  x290  0.6816830648525646
    x218  x292  -1.2896179082464088
    x218  x297  -0.1616231172073769
    x219  x219  1.3728139668714063
    x219  x238  0.7236084406448026
    x219  x243  -1.1509509474605402
    x219  x253  0.31984160449068727
    x219  x265  0.6252462712904786
    x219  x276  0.02309977716899806
    x219  x279  -0.390854644013173
    x219  x281  0.050783838920179784
    x219  x290  -0.4885558918554582
    x220  x220  8.397113351373921
    x220  x225  -2.967366818777032
    x220  x228  -0.6749702389543748
    x220  x231  0.41442090057871467
    x220  x256  0.30465378739688054
    x220  x257  -0.5646809807849189
    x220  x263  1.3188296550773377
    x220  x273  1.503738671457163
    x221  x221  3.6176392646399442
    x221  x222  0.06118586269974015
    x221  x224  -0.19502506377332782
    x221  x238  -0.31481414054562595
    x221  x239  -0.7096479610810138
    x221  x247  0.19973322637195937
    x221  x253  0.14054603824063436
    x221  x267  -1.4489470475977433
    x221  x276  0.07054628974140777
    x222  x222  2.032932872663097
    x222  x247  0.02721630647772617
    x222  x252  -0.005870517037179846
    x222  x256  0.574187642514633
    x222  x264  -0.8147144982147978
    x222  x265  -0.4977217060907298
    x222  x285  0.07173893895119912
    x223  x223  2.786444291906447
    x223  x270  0.09127726283175738
    x223  x277  0.05229841043522447
    x224  x224  1.114764863002326
    x224  x228  0.971333192540333
    x224  x289  -0.01895068334130606
    x224  x290  -0.4068057732410028
    x224  x298  -0.03845854142726527
    x224  x299  0.2882382152582252
    x225  x225  4.455290213943835
    x225  x226  1.262634332373739
    x225  x230  0.8241963173640839
    x225  x242  -0.6036340702352812
    x225  x243  0.39306317854842854
    x225  x245  -0.0364897839731513
    x225  x247  1.155760478460613
    x225  x261  -0.7893043053123672
    x225  x263  -1.2237088888978045
    x225  x265  -0.11515450762109873
    x225  x270  0.1811749735329076
    x225  x272  0.23398034171720603
    x225  x273  -1.395281317611559
    x225  x280  -0.5674869394961534
    x225  x281  -0.7646051439771532
    x225  x285  -1.1798857782863794
    x225  x288  0.6881527049482465
    x225  x296  -0.37691218913943336
    x226  x226  8.780630728754103
    x226  x230  -0.6069684202355098
    x226  x242  1.2817048837033793
    x226  x247  2.8373858057282217
    x226  x248  0.21948544065152414
    x226  x259  0.5416534026639696
    x226  x263  0.7703853187333778
    x226  x281  -1.8771015473700428
    x226  x285  1.471760865335188
    x226  x288  0.8803068423345075
    x226  x291  -0.14625137575320837
    x226  x292  0.14436635112482143
    x227  x227  4.8842440260462325
    x227  x231  0.8983505361432299
    x227  x233  0.1910671187646529
    x227  x234  0.005513307998913535
    x227  x243  -0.0016453439381276214
    x227  x252  -0.6018044524466499
    x227  x254  0.7472362271160209
    x227  x260  -0.9470479493235676
    x227  x270  -0.5172840868471126
    x227  x296  -0.10781521122170304
    x227  x299  -0.0008932271449653548
    x228  x228  2.0559332067993874
    x228  x244  -0.8172866791221605
    x228  x247  0.35457095039793896
    x228  x249  -0.038972710761267
    x228  x253  0.004632006567686844
    x228  x268  -0.12307927560722975
    x228  x276  1.193949443130368
    x228  x280  0.04322622736657879
    x228  x286  0.5982910422693078
    x228  x287  0.004642598554044066
    x228  x288  -1.0887804056451889
    x228  x290  0.008870871174399244
    x228  x293  0.03252641720784376
    x228  x299  0.40094039526423286
    x229  x229  9.34207828385131
    x229  x237  4.3877142139106935
    x229  x244  0.7310130964445273
    x229  x245  -0.14465181953269138
    x229  x249  -0.8423999562996112
    x229  x252  -0.17963146904179114
    x229  x265  1.8673427851386366
    x229  x268  -0.18835990380679385
    x229  x272  0.14072068779749045
    x229  x276  0.8385354598801074
    x229  x277  0.2588703145990896
    x229  x285  0.6187076855160669
    x229  x293  1.132072995485508
    x229  x299  -0.03528926031820501
    x230  x230  23.864229722370638
    x230  x242  -0.6629048435617799
    x230  x243  -0.8809863631136856
    x230  x244  0.446519319018931
    x230  x246  0.0695017605498259
    x230  x251  1.0127904818947437
    x230  x257  0.045567959563719
    x230  x258  -1.0790740310055802
    x230  x259  -0.280146130925379
    x230  x262  -0.7089915643760168
    x230  x267  0.0688378544698502
    x230  x270  0.5972949839374313
    x230  x274  -3.1182530361546292
    x230  x284  -0.5124769787311807
    x230  x288  1.0865373463576091
    x230  x290  0.0074737877229013325
    x230  x291  0.4782188193190602
    x230  x293  0.6048381900368487
    x230  x294  -0.0013979751428483949
    x230  x296  -0.9364921163603379
    x230  x299  -0.4045705440124851
    x231  x231  5.0771459937731995
    x231  x232  1.840814689865635
    x231  x234  0.8383686937712173
    x231  x235  -0.8768635006443771
    x231  x254  0.33667681805393934
    x231  x256  0.505019587750926
    x231  x260  -0.023053547825089418
    x231  x264  -0.02487359303282399
    x231  x271  0.3388355875870854
    x231  x273  0.6584897917483278
    x231  x274  -0.025335845427310776
    x231  x288  0.7290682260699018
    x231  x293  -0.0065107401513934985
    x232  x232  4.73793390243255
    x232  x236  0.1926697123991509
    x232  x273  0.9494789555180364
    x232  x280  -0.5534801937123214
    x232  x281  0.13144207258781695
    x232  x290  -0.056771784411384876
    x232  x292  -0.18043659105653845
    x232  x295  -0.3537497006656144
    x233  x233  3.582420783020231
    x233  x256  -0.24256264891247659
    x233  x260  5.757826863002358e-05
    x233  x267  0.4072104051653054
    x233  x277  -0.410562331230589
    x233  x285  1.009045183055108
    x233  x297  -0.29383719202575065
    x234  x234  5.3098563327111945
    x234  x241  -0.13977551753430073
    x234  x248  0.0664315809069253
    x234  x259  -0.8490647306902324
    x234  x260  -0.05329590482499218
    x234  x262  0.7965205103667535
    x234  x270  -0.20015167720233473
    x234  x272  0.010911760683031483
    x234  x274  0.7338331810989586
    x234  x288  1.0167906831488462
    x234  x296  -0.012784160825823513
    x235  x235  3.869335291922169
    x235  x237  0.10848053032910884
    x235  x245  0.003911421943989936
    x235  x254  -1.1808784530583492
    x235  x257  -0.000537414370507207
    x235  x260  0.08085925859272189
    x235  x271  -1.1884502378980246
    x235  x288  -0.255380509880533
    x235  x293  0.02283612160374722
    x236  x236  3.6393698948887088
    x236  x237  0.002044749177988625
    x236  x246  0.008331862214354144
    x236  x276  0.008988417273072697
    x236  x281  -0.6121369470794753
    x236  x290  -0.07366464570955973
    x236  x295  0.2741721605441711
    x237  x237  15.898150493627188
    x237  x245  0.009014110486285976
    x237  x246  0.05271760588030765
    x237  x276  0.05687178053343828
    x238  x238  5.17705838671152
    x238  x253  -0.5599840174908032
    x238  x265  1.5711458943581167
    x238  x290  -0.4968717776357454
    x238  x292  1.4641043640894813
    x239  x239  3.1083433531133657
    x239  x246  -0.020337252973098217
    x239  x248  0.3963991311348652
    x239  x251  -0.029122910199287144
    x239  x271  -0.7652947819845901
    x239  x276  0.7785571035085175
    x239  x281  -0.07487363414626817
    x240  x240  6.707027266408891
    x240  x242  0.5744187723776941
    x240  x251  0.007829599443652227
    x240  x261  0.004158543991239128
    x240  x263  0.1555420769969254
    x240  x267  0.4745670584240904
    x240  x270  -0.4107718118409965
    x240  x277  0.3799931465779242
    x240  x283  -0.3805488832870913
    x240  x293  -0.9204983574346117
    x240  x294  -0.11798779156163319
    x241  x241  5.921125935794666
    x241  x262  -0.4453362662527933
    x241  x266  -0.03498430665577646
    x241  x283  -0.5190286781929796
    x241  x293  -0.8582668693382517
    x241  x295  0.3128103861636506
    x241  x299  -0.3433185141233289
    x242  x242  10.256962224940173
    x242  x252  0.43400470291516946
    x242  x259  0.5915705861902072
    x242  x260  -0.3139150376334865
    x242  x261  2.734412853015388
    x242  x265  0.36615501137753265
    x242  x267  0.3215291474562437
    x242  x272  -0.7439836829095645
    x242  x276  0.232637583422803
    x242  x280  1.8044294668126741
    x242  x282  -0.2705644682327376
    x242  x283  0.6674587274403396
    x242  x285  3.751664606948333
    x242  x290  -0.4070315244930187
    x242  x297  1.5578258910859626
    x242  x299  0.00027782885572411796
    x243  x243  6.7284086765589475
    x243  x245  -0.019180192088962437
    x243  x253  -1.1041777966217399
    x243  x257  1.0239130827075855
    x243  x259  -0.3906694152991738
    x243  x262  0.3106476886960712
    x243  x265  0.8241976311297917
    x243  x268  0.05022235407566096
    x243  x271  0.7495064832292075
    x243  x285  0.14955179004529806
    x243  x289  -0.0126923768587946
    x243  x296  0.21221098393168666
    x243  x299  0.06124381025960662
    x244  x244  2.3528122684066095
    x244  x247  -0.6476989381969783
    x244  x276  -1.8942298382455007
    x244  x285  0.21159254482762108
    x244  x286  -1.092905305343499
    x244  x288  1.9888880120455668
    x244  x291  0.4922881591398543
    x245  x245  2.7852872552989645
    x245  x263  -0.5039681895068484
    x245  x272  0.1768542839086308
    x245  x296  0.01839207685406475
    x246  x246  2.533423656765473
    x246  x251  -0.7407438751960904
    x246  x267  0.24761190912746828
    x246  x276  0.11900207572332425
    x246  x281  0.004526093159886643
    x246  x286  0.0031850054427810643
    x247  x247  11.871341453923492
    x247  x262  -1.56971857711288
    x247  x271  -1.3992557315245948
    x247  x276  0.9462038307133894
    x247  x278  0.15903290101233386
    x247  x280  -5.809621737980815
    x247  x281  -1.6375771514121038
    x247  x286  0.4741450982986991
    x247  x288  -0.05706292071496366
    x247  x295  0.9046712758394629
    x247  x297  0.2840568744267999
    x248  x248  2.598336590604365
    x248  x251  -0.7776801999047831
    x248  x292  0.3800841382729026
    x249  x249  6.764211865008203
    x249  x252  0.03603186361082817
    x249  x268  1.9476800331232902
    x249  x272  -0.9619600807023034
    x249  x280  -0.23181745676219037
    x249  x287  -0.054652484469476625
    x249  x290  -0.047573496929880624
    x249  x291  0.9300050383482209
    x249  x292  -0.22468352587999788
    x249  x293  -0.17443556317704778
    x249  x294  -0.07088117567152882
    x249  x297  0.9138625050191451
    x250  x250  2.6456799570529888
    x250  x260  0.521496758515391
    x250  x264  -0.5919693337379507
    x250  x267  -0.1642649657267214
    x250  x298  -0.31806742096139307
    x251  x251  8.399372968757044
    x251  x266  0.07707630776689783
    x251  x267  -0.7336680204471322
    x252  x252  11.145146321984639
    x252  x253  0.5370347574536743
    x252  x254  -0.20134344087188166
    x252  x274  -0.04297632556572685
    x252  x282  -1.8629877816741682
    x252  x285  -0.020457917007851562
    x252  x292  -0.26734319584695554
    x252  x293  0.026360635276363696
    x252  x295  1.2640149454076761
    x252  x297  0.3455105074651761
    x253  x253  7.125322776226921
    x253  x262  2.812205703683778
    x253  x265  -0.6913020491263956
    x253  x274  -0.19352480910895367
    x253  x277  1.6821273683588078
    x253  x287  0.16610132530498248
    x253  x292  -1.2038614344479885
    x254  x254  8.000531264976905
    x254  x259  -0.4770985560850094
    x254  x260  -0.031046380506421674
    x254  x271  0.4563123498890271
    x254  x293  -0.008768061109388745
    x254  x295  -2.9871027013752705
    x255  x255  2.9229668771649404
    x255  x273  -0.2658858769824854
    x255  x290  0.26859656772029966
    x256  x256  3.540137072129129
    x256  x258  1.25745359076536
    x256  x261  0.1866186141520511
    x256  x265  0.9831809823345162
    x256  x282  -0.6738362933071596
    x256  x285  -0.08268342142743657
    x257  x257  3.899985946516905
    x257  x258  0.230804931080857
    x257  x265  0.649132424328949
    x257  x274  -0.13525776997185585
    x257  x284  -0.022229271486759617
    x257  x286  4.249166398328707e-05
    x257  x290  0.00032418403796033066
    x257  x298  -0.00249436799348437
    x257  x299  -0.01754870722323118
    x258  x258  12.791331316101285
    x258  x259  0.749445369034077
    x258  x282  -4.3136011974244814
    x258  x288  -0.48581389750023657
    x259  x259  14.519706786228998
    x259  x270  0.11274681508301755
    x259  x272  0.9142744496046581
    x259  x273  0.4654088804152949
    x259  x276  -0.03163847046086684
    x259  x281  0.02406589149223751
    x259  x285  -1.380602986381163
    x259  x287  0.5801062117665576
    x259  x289  0.11717100403959974
    x259  x292  0.3511710554790803
    x259  x293  -0.2308171435719452
    x259  x295  0.2400815992478475
    x260  x260  8.621054919644747
    x260  x271  -0.031245449693124587
    x260  x290  0.5243673782732355
    x260  x293  0.0006003826378275197
    x260  x296  1.0422253277144422
    x260  x298  -0.5336637135934134
    x261  x261  5.8513647758584115
    x261  x265  1.2126991693826719
    x261  x267  0.0069805676961294146
    x261  x272  -0.9728236906405617
    x261  x280  2.359449237569723
    x261  x285  4.905629374429026
    x262  x262  13.098965580930718
    x262  x266  -0.1077873795242817
    x262  x276  -2.872199555163085
    x262  x277  3.8071816861747583
    x262  x279  -0.17498460036353064
    x262  x280  2.473129801765835
    x262  x282  1.441450438997663
    x262  x287  -0.02541364424138285
    x262  x296  0.33021976685454085
    x263  x263  3.5448742550657433
    x263  x271  2.1567420283732806
    x263  x273  0.6201250102270466
    x263  x283  -0.23676545482133893
    x263  x285  0.5550550622793804
    x263  x291  -0.05515676383924929
    x263  x293  -0.18686285424267568
    x264  x264  6.234974349565796
    x264  x265  1.8920409717274034
    x264  x267  0.5027991875625454
    x264  x274  0.11559414248620646
    x264  x283  0.3892806544228752
    x264  x291  0.41714073556395187
    x265  x265  12.851129703404267
    x265  x267  -0.4708530908728657
    x265  x269  -0.4463039927274298
    x265  x270  0.6066348294888644
    x265  x272  -0.14192882560487247
    x265  x276  1.2930587890184868
    x265  x280  0.3442287257026839
    x265  x285  0.7157003089707104
    x265  x288  -0.038283677913502
    x265  x298  -0.9267566429723363
    x266  x266  5.205037323387839
    x266  x279  0.4058559571997739
    x266  x293  -1.0636547046101519
    x267  x267  10.247415761131194
    x267  x291  0.06822631343933705
    x268  x268  2.811500608337342
    x268  x271  0.2050253683351844
    x268  x272  -0.22191360722356604
    x268  x279  -0.7518771742793953
    x268  x280  -0.7321000796217935
    x268  x288  -0.02187743855052196
    x268  x290  -0.1502413208077836
    x268  x293  -0.5508829726390896
    x268  x298  0.3112979553683613
    x269  x269  0.7427958492310105
    x269  x288  0.02144484395016543
    x269  x296  -0.43666963443702006
    x269  x298  0.5191285861620849
    x270  x270  6.292525301439969
    x270  x276  1.1981632026338054
    x270  x277  0.4734550060812358
    x270  x288  0.23884282278574737
    x271  x271  14.561462113390604
    x271  x277  0.7124087118884753
    x271  x281  -0.2665212745269093
    x271  x293  -0.00882428185929698
    x272  x272  6.962705290411857
    x272  x273  2.985397979776574
    x272  x280  -0.6994320633440426
    x272  x281  0.15437235271131497
    x272  x285  -1.4542183916159144
    x272  x292  2.2526114212684454
    x272  x293  -1.4805927929492924
    x272  x295  1.5400202951359467
    x273  x273  11.700486184690424
    x273  x274  -1.0403049869829482
    x273  x281  0.07858281927654785
    x273  x292  1.1466856150651332
    x273  x293  -0.7536916671087664
    x273  x295  0.7839430727676777
    x274  x274  16.35224640932217
    x274  x284  1.521167372178832
    x274  x290  -0.022184180953485858
    x274  x292  0.09633927827720287
    x274  x294  1.0503563107782625
    x274  x299  1.200872501278248
    x275  x275  0.5143214026304301
    x275  x276  -0.07411800764435861
    x276  x276  18.25820562245768
    x276  x281  0.11371618245179071
    x276  x285  0.24271501119090488
    x276  x286  1.5965923757752267
    x276  x288  -2.9055064704847973
    x276  x299  0.0012396997752372745
    x277  x277  3.9391646250363586
    x277  x283  0.03285636569645946
    x277  x294  0.018565086536235415
    x278  x278  3.160436440402636
    x278  x294  -0.04398082095871255
    x278  x295  0.021258191658092514
    x278  x297  0.32772753210554767
    x279  x279  8.289304135409454
    x279  x296  -0.35828379592416953
    x280  x280  12.997267210888015
    x280  x285  3.527005467042824
    x280  x290  0.0527657110512834
    x280  x293  0.19347361698540352
    x280  x294  -0.6053981004573032
    x280  x299  -0.30958868410877255
    x281  x281  4.407492842671132
    x281  x286  0.3552657319742738
    x281  x288  -0.5330816077698859
    x281  x292  -0.03202330037999758
    x281  x293  -0.03897274556312288
    x281  x295  0.04053701963848084
    x282  x282  8.754731839889883
    x282  x293  0.6354477823258747
    x283  x283  6.711571786531389
    x283  x285  -0.2313932451655329
    x283  x290  0.6117229765779172
    x283  x293  0.45717822394318663
    x283  x294  0.7426039052009245
    x284  x284  0.25
    x284  x290  -0.0036459138815393014
    x284  x299  0.1973603502220449
    x285  x285  10.195637088439595
    x285  x289  -0.044854121436938725
    x285  x291  -0.10537268105084027
    x286  x286  1.18743621209939
    x286  x288  -1.4559565353026063
    x286  x298  -0.004258760545184302
    x287  x287  0.4326427316127426
    x287  x297  -0.18345151176544944
    x288  x288  11.397970114187626
    x288  x298  0.04453052608126368
    x289  x289  0.2538067442240265
    x289  x298  0.5073503252444557
    x290  x290  8.344951054861678
    x290  x292  1.0313337422756457
    x290  x293  -2.8705767412696397
    x290  x294  -1.5357191567458228
    x290  x295  -0.08078718027964359
    x290  x299  -0.0028782353621600466
    x291  x291  3.2935343001961295
    x291  x294  -0.17961367409533174
    x292  x292  8.062721422299862
    x292  x293  -0.568692840601146
    x292  x295  0.5915188297517745
    x292  x297  0.39050785027728385
    x293  x293  12.2089643882293
    x293  x295  -0.5293054786622111
    x293  x299  0.1542170446784612
    x294  x294  3.9800028222591193
    x294  x299  0.127845084034339
    x295  x295  5.840328974211777
    x295  x299  -0.05620710180282429
    x296  x296  1.6868045151828504
    x297  x297  7.580865310236787
    x298  x298  3.070709233683746
    x299  x299  4.633405151868955
ENDATA
