NAME portfolio_200
ROWS
 N  OBJ
 E  budget
 L  sector0
 L  sector1
 L  sector2
 L  sector3
 L  sector4
 L  sector5
 L  sector6
 L  sector7
COLUMNS
    w0  OBJ  -0.04089189708433412
    w0  budget  1.0
    w0  sector2  1.0
    w1  OBJ  -0.04377921385575394
    w1  budget  1.0
    w1  sector4  1.0
    w2  OBJ  -0.026166606233325524
    w2  budget  1.0
    w2  sector0  1.0
    w3  OBJ  -0.11612241676439054
    w3  budget  1.0
    w3  sector4  1.0
    w4  OBJ  -0.07544089091706244
    w4  budget  1.0
    w4  sector3  1.0
    w5  OBJ  -0.042392595701125836
    w5  budget  1.0
    w5  sector2  1.0
    w6  OBJ  -0.025293132275932106
    w6  budget  1.0
    w6  sector4  1.0
    w7  OBJ  -0.09080356660590314
    w7  budget  1.0
    w7  sector0  1.0
    w8  OBJ  -0.10347147440417831
    w8  budget  1.0
    w8  sector6  1.0
    w9  OBJ  -0.04329018166826798
    w9  budget  1.0
    w9  sector3  1.0
    w10  OBJ  -0.14576369654731572
    w10  budget  1.0
    w10  sector1  1.0
    w11  OBJ  -0.12248350363369657
    w11  budget  1.0
    w11  sector7  1.0
    w12  OBJ  -0.13985652620745895
    w12  budget  1.0
    w12  sector1  1.0
    w13  OBJ  -0.06322364259116489
    w13  budget  1.0
    w13  sector0  1.0
    w14  OBJ  -0.14588562813242797
    w14  budget  1.0
    w14  sector7  1.0
    w15  OBJ  -0.08110513689163068
    w15  budget  1.0
    w15  sector7  1.0
    w16  OBJ  -0.06190310420386934
    w16  budget  1.0
    w16  sector2  1.0
    w17  OBJ  -0.08147723661829794
    w17  budget  1.0
    w17  sector7  1.0
    w18  OBJ  -0.041432127859252474
    w18  budget  1.0
    w18  sector0  1.0
    w19  OBJ  -0.0640561394487878
    w19  budget  1.0
    w19  sector1  1.0
    w20  OBJ  -0.11065452467488543
    w20  budget  1.0
    w20  sector2  1.0
    w21  OBJ  -0.13425058352132807
    w21  budget  1.0
    w21  sector2  1.0
    w22  OBJ  -0.0612910229049073
    w22  budget  1.0
    w22  sector6  1.0
    w23  OBJ  -0.06107347073012184
    w23  budget  1.0
    w23  sector1  1.0
    w24  OBJ  -0.12852820121992117
    w24  budget  1.0
    w24  sector0  1.0
    w25  OBJ  -0.10827030900580231
    w25  budget  1.0
    w25  sector6  1.0
    w26  OBJ  -0.05570673707734128
    w26  budget  1.0
    w26  sector6  1.0
    w27  OBJ  -0.09353949656640534
    w27  budget  1.0
    w27  sector0  1.0
    w28  OBJ  -0.14887582188076165
    w28  budget  1.0
    w28  sector4  1.0
    w29  OBJ  -0.10572991071657152
    w29  budget  1.0
    w29  sector7  1.0
    w30  OBJ  -0.13235327107486444
    w30  budget  1.0
    w30  sector4  1.0
    w31  OBJ  -0.1208229409892119
    w31  budget  1.0
    w31  sector5  1.0
    w32  OBJ  -0.14620773537416024
    w32  budget  1.0
    w32  sector4  1.0
    w33  OBJ  -0.06455699923088255
    w33  budget  1.0
    w33  sector2  1.0
    w34  OBJ  -0.09016711533466507
    w34  budget  1.0
    w34  sector0  1.0
    w35  OBJ  -0.03593275236411464
    w35  budget  1.0
    w35  sector2  1.0
    w36  OBJ  -0.1015065721163639
    w36  budget  1.0
    w36  sector0  1.0
    w37  OBJ  -0.12336977575292307
    w37  budget  1.0
    w37  sector0  1.0
    w38  OBJ  -0.12150406146424923
    w38  budget  1.0
    w38  sector3  1.0
    w39  OBJ  -0.12871479175234635
    w39  budget  1.0
    w39  sector6  1.0
    w40  OBJ  -0.031193127331948504
    w40  budget  1.0
    w40  sector1  1.0
    w41  OBJ  -0.054905765624386677
    w41  budget  1.0
    w41  sector4  1.0
    w42  OBJ  -0.14454778484524916
    w42  budget  1.0
    w42  sector7  1.0
    w43  OBJ  -0.09000115030904965
    w43  budget  1.0
    w43  sector7  1.0
    w44  OBJ  -0.10702623032228475
    w44  budget  1.0
    w44  sector5  1.0
    w45  OBJ  -0.03509485508059932
    w45  budget  1.0
    w45  sector5  1.0
    w46  OBJ  -0.11576736012472322
    w46  budget  1.0
    w46  sector3  1.0
    w47  OBJ  -0.09294756164757455
    w47  budget  1.0
    w47  sector3  1.0
    w48  OBJ  -0.10846742817670292
    w48  budget  1.0
    w48  sector6  1.0
    w49  OBJ  -0.08790025708536044
    w49  budget  1.0
    w49  sector7  1.0
    w50  OBJ  -0.11968407008979128
    w50  budget  1.0
    w50  sector6  1.0
    w51  OBJ  -0.07020924909204826
    w51  budget  1.0
    w51  sector0  1.0
    w52  OBJ  -0.09380654903547218
    w52  budget  1.0
    w52  sector6  1.0
    w53  OBJ  -0.12248343147844298
    w53  budget  1.0
    w53  sector2  1.0
    w54  OBJ  -0.0450769849030339
    w54  budget  1.0
    w54  sector7  1.0
    w55  OBJ  -0.0345324891892726
    w55  budget  1.0
    w55  sector1  1.0
    w56  OBJ  -0.05408943306764133
    w56  budget  1.0
    w56  sector0  1.0
    w57  OBJ  -0.07220986271247522
    w57  budget  1.0
    w57  sector0  1.0
    w58  OBJ  -0.052019926322567786
    w58  budget  1.0
    w58  sector4  1.0
    w59  OBJ  -0.0671212901770101
    w59  budget  1.0
    w59  sector7  1.0
    w60  OBJ  -0.11896264165946994
    w60  budget  1.0
    w60  sector7  1.0
    w61  OBJ  -0.06750923306884508
    w61  budget  1.0
    w61  sector0  1.0
    w62  OBJ  -0.04681915747475319
    w62  budget  1.0
    w62  sector7  1.0
    w63  OBJ  -0.0436724481799754
    w63  budget  1.0
    w63  sector3  1.0
    w64  OBJ  -0.08196856090466662
    w64  budget  1.0
    w64  sector0  1.0
    w65  OBJ  -0.13457215734342823
    w65  budget  1.0
    w65  sector4  1.0
    w66  OBJ  -0.035505583634482626
    w66  budget  1.0
    w66  sector7  1.0
    w67  OBJ  -0.08488691645354107
    w67  budget  1.0
    w67  sector2  1.0
    w68  OBJ  -0.0698089787461844
    w68  budget  1.0
    w68  sector7  1.0
    w69  OBJ  -0.0403711556017612
    w69  budget  1.0
    w69  sector2  1.0
    w70  OBJ  -0.04141572959942424
    w70  budget  1.0
    w70  sector1  1.0
    w71  OBJ  -0.054079272354407765
    w71  budget  1.0
    w71  sector7  1.0
    w72  OBJ  -0.11499608158160884
    w72  budget  1.0
    w72  sector7  1.0
    w73  OBJ  -0.030345574805153566
    w73  budget  1.0
    w73  sector6  1.0
    w74  OBJ  -0.0700520892710709
    w74  budget  1.0
    w74  sector0  1.0
    w75  OBJ  -0.032268469405996314
    w75  budget  1.0
    w75  sector6  1.0
    w76  OBJ  -0.11378673959158893
    w76  budget  1.0
    w76  sector3  1.0
    w77  OBJ  -0.12470591340279041
    w77  budget  1.0
    w77  sector5  1.0
    w78  OBJ  -0.11335884654029152
    w78  budget  1.0
    w78  sector0  1.0
    w79  OBJ  -0.07794315108479193
    w79  budget  1.0
    w79  sector0  1.0
    w80  OBJ  -0.09141746774369872
    w80  budget  1.0
    w80  sector4  1.0
    w81  OBJ  -0.1222942444641293
    w81  budget  1.0
    w81  sector7  1.0
    w82  OBJ  -0.03505280996296722
    w82  budget  1.0
    w82  sector1  1.0
    w83  OBJ  -0.06949537284794322
    w83  budget  1.0
    w83  sector2  1.0
    w84  OBJ  -0.02486882870139777
    w84  budget  1.0
    w84  sector6  1.0
    w85  OBJ  -0.12861965360529404
    w85  budget  1.0
    w85  sector3  1.0
    w86  OBJ  -0.0503313694787285
    w86  budget  1.0
    w86  sector5  1.0
    w87  OBJ  -0.03576347734564004
    w87  budget  1.0
    w87  sector3  1.0
    w88  OBJ  -0.1264375549900622
    w88  budget  1.0
    w88  sector2  1.0
    w89  OBJ  -0.14248183458988048
    w89  budget  1.0
    w89  sector2  1.0
    w90  OBJ  -0.12605814548877609
    w90  budget  1.0
    w90  sector4  1.0
    w91  OBJ  -0.14929323265345407
    w91  budget  1.0
    w91  sector0  1.0
    w92  OBJ  -0.11661141617638203
    w92  budget  1.0
    w92  sector2  1.0
    w93  OBJ  -0.13179375929234746
    w93  budget  1.0
    w93  sector2  1.0
    w94  OBJ  -0.06491366992907883
    w94  budget  1.0
    w94  sector4  1.0
    w95  OBJ  -0.1419087891371204
    w95  budget  1.0
    w95  sector5  1.0
    w96  OBJ  -0.045996247757494876
    w96  budget  1.0
    w96  sector7  1.0
    w97  OBJ  -0.12233194528340552
    w97  budget  1.0
    w97  sector4  1.0
    w98  OBJ  -0.06150428122624352
    w98  budget  1.0
    w98  sector1  1.0
    w99  OBJ  -0.11694403463870014
    w99  budget  1.0
    w99  sector4  1.0
    w100  OBJ  -0.046162680707963547
    w100  budget  1.0
    w100  sector2  1.0
    w101  OBJ  -0.04559726298206913
    w101  budget  1.0
    w101  sector4  1.0
    w102  OBJ  -0.13872273781919958
    w102  budget  1.0
    w102  sector0  1.0
    w103  OBJ  -0.06287839536970304
    w103  budget  1.0
    w103  sector2  1.0
    w104  OBJ  -0.07930944473396104
    w104  budget  1.0
    w104  sector2  1.0
    w105  OBJ  -0.09321369397062967
    w105  budget  1.0
    w105  sector6  1.0
    w106  OBJ  -0.07179072537762067
    w106  budget  1.0
    w106  sector3  1.0
    w107  OBJ  -0.07334867322016793
    w107  budget  1.0
    w107  sector7  1.0
    w108  OBJ  -0.13342610569002203
    w108  budget  1.0
    w108  sector6  1.0
    w109  OBJ  -0.09762059873130911
    w109  budget  1.0
    w109  sector5  1.0
    w110  OBJ  -0.0766644744640279
    w110  budget  1.0
    w110  sector0  1.0
    w111  OBJ  -0.07413881947527362
    w111  budget  1.0
    w111  sector5  1.0
    w112  OBJ  -0.05786716303901174
    w112  budget  1.0
    w112  sector6  1.0
    w113  OBJ  -0.08704977581731078
    w113  budget  1.0
    w113  sector2  1.0
    w114  OBJ  -0.1437617383479131
    w114  budget  1.0
    w114  sector3  1.0
    w115  OBJ  -0.03504574024980313
    w115  budget  1.0
    w115  sector3  1.0
    w116  OBJ  -0.08918929350322972
    w116  budget  1.0
    w116  sector4  1.0
    w117  OBJ  -0.08990798996736911
    w117  budget  1.0
    w117  sector0  1.0
    w118  OBJ  -0.02029183900311645
    w118  budget  1.0
    w118  sector2  1.0
    w119  OBJ  -0.0789356860850375
    w119  budget  1.0
    w119  sector6  1.0
    w120  OBJ  -0.07123381955355258
    w120  budget  1.0
    w120  sector5  1.0
    w121  OBJ  -0.05142802069966236
    w121  budget  1.0
    w121  sector7  1.0
    w122  OBJ  -0.041062217244848945
    w122  budget  1.0
    w122  sector2  1.0
    w123  OBJ  -0.13995524235281143
    w123  budget  1.0
    w123  sector0  1.0
    w124  OBJ  -0.027729024207437288
    w124  budget  1.0
    w124  sector7  1.0
    w125  OBJ  -0.09189820008675974
    w125  budget  1.0
    w125  sector0  1.0
    w126  OBJ  -0.045617288888662996
    w126  budget  1.0
    w126  sector0  1.0
    w127  OBJ  -0.11812136980183036
    w127  budget  1.0
    w127  sector0  1.0
    w128  OBJ  -0.13732341353092872
    w128  budget  1.0
    w128  sector2  1.0
    w129  OBJ  -0.076379333093189
    w129  budget  1.0
    w129  sector4  1.0
    w130  OBJ  -0.1038654008524511
    w130  budget  1.0
    w130  sector7  1.0
    w131  OBJ  -0.09930664555312126
    w131  budget  1.0
    w131  sector0  1.0
    w132  OBJ  -0.13631192653998206
    w132  budget  1.0
    w132  sector5  1.0
    w133  OBJ  -0.07143061915039696
    w133  budget  1.0
    w133  sector2  1.0
    w134  OBJ  -0.1445589401049208
    w134  budget  1.0
    w134  sector7  1.0
    w135  OBJ  -0.03661745941413774
    w135  budget  1.0
    w135  sector0  1.0
    w136  OBJ  -0.1214224698087323
    w136  budget  1.0
    w136  sector4  1.0
    w137  OBJ  -0.13339429529500607
    w137  budget  1.0
    w137  sector0  1.0
    w138  OBJ  -0.039969989857371664
    w138  budget  1.0
    w138  sector0  1.0
    w139  OBJ  -0.04904128719637077
    w139  budget  1.0
    w139  sector0  1.0
    w140  OBJ  -0.12457528504294853
    w140  budget  1.0
    w140  sector1  1.0
    w141  OBJ  -0.1337769856305517
    w141  budget  1.0
    w141  sector3  1.0
    w142  OBJ  -0.11978569756938091
    w142  budget  1.0
    w142  sector5  1.0
    w143  OBJ  -0.07973973298518591
    w143  budget  1.0
    w143  sector7  1.0
    w144  OBJ  -0.03341859782059684
    w144  budget  1.0
    w144  sector3  1.0
    w145  OBJ  -0.06317620921916929
    w145  budget  1.0
    w145  sector6  1.0
    w146  OBJ  -0.08483975365068708
    w146  budget  1.0
    w146  sector0  1.0
    w147  OBJ  -0.14748012626987536
    w147  budget  1.0
    w147  sector1  1.0
    w148  OBJ  -0.1073351394632791
    w148  budget  1.0
    w148  sector0  1.0
    w149  OBJ  -0.10084012326197266
    w149  budget  1.0
    w149  sector4  1.0
    w150  OBJ  -0.10538400803417637
    w150  budget  1.0
    w150  sector0  1.0
    w151  OBJ  -0.14027450271898884
    w151  budget  1.0
    w151  sector6  1.0
    w152  OBJ  -0.050733048504514364
    w152  budget  1.0
    w152  sector1  1.0
    w153  OBJ  -0.09403576562074846
    w153  budget  1.0
    w153  sector1  1.0
    w154  OBJ  -0.055457405281027036
    w154  budget  1.0
    w154  sector3  1.0
    w155  OBJ  -0.1411200583503532
    w155  budget  1.0
    w155  sector3  1.0
    w156  OBJ  -0.025830288342789262
    w156  budget  1.0
    w156  sector2  1.0
    w157  OBJ  -0.04544160516364136
    w157  budget  1.0
    w157  sector6  1.0
    w158  OBJ  -0.032024308683462684
    w158  budget  1.0
    w158  sector7  1.0
    w159  OBJ  -0.11887882524934965
    w159  budget  1.0
    w159  sector3  1.0
    w160  OBJ  -0.14040957414539057
    w160  budget  1.0
    w160  sector3  1.0
    w161  OBJ  -0.06763335535251916
    w161  budget  1.0
    w161  sector2  1.0
    w162  OBJ  -0.07316355833606414
    w162  budget  1.0
    w162  sector3  1.0
    w163  OBJ  -0.03933661272052012
    w163  budget  1.0
    w163  sector6  1.0
    w164  OBJ  -0.07260302207226402
    w164  budget  1.0
    w164  sector3  1.0
    w165  OBJ  -0.1189582219035628
    w165  budget  1.0
    w165  sector0  1.0
    w166  OBJ  -0.1176601126493562
    w166  budget  1.0
    w166  sector7  1.0
    w167  OBJ  -0.03855101455588535
    w167  budget  1.0
    w167  sector5  1.0
    w168  OBJ  -0.11795630432760293
    w168  budget  1.0
    w168  sector4  1.0
    w169  OBJ  -0.13368163813897538
    w169  budget  1.0
    w169  sector1  1.0
    w170  OBJ  -0.08093102333331499
    w170  budget  1.0
    w170  sector6  1.0
    w171  OBJ  -0.10494091710047819
    w171  budget  1.0
    w171  sector2  1.0
    w172  OBJ  -0.12334809156176336
    w172  budget  1.0
    w172  sector3  1.0
    w173  OBJ  -0.036075236900843556
    w173  budget  1.0
    w173  sector4  1.0
    w174  OBJ  -0.13444201583281354
    w174  budget  1.0
    w174  sector0  1.0
    w175  OBJ  -0.10465951873002337
    w175  budget  1.0
    w175  sector0  1.0
    w176  OBJ  -0.08737718766880821
    w176  budget  1.0
    w176  sector5  1.0
    w177  OBJ  -0.10598573017674622
    w177  budget  1.0
    w177  sector7  1.0
    w178  OBJ  -0.028193531783812762
    w178  budget  1.0
    w178  sector3  1.0
    w179  OBJ  -0.037772828579824225
    w179  budget  1.0
    w179  sector7  1.0
    w180  OBJ  -0.08823112312931461
    w180  budget  1.0
    w180  sector5  1.0
    w181  OBJ  -0.028019415593835185
    w181  budget  1.0
    w181  sector0  1.0
    w182  OBJ  -0.02215603473995921
    w182  budget  1.0
    w182  sector4  1.0
    w183  OBJ  -0.06164393427159913
    w183  budget  1.0
    w183  sector5  1.0
    w184  OBJ  -0.09235009246842736
    w184  budget  1.0
    w184  sector2  1.0
    w185  OBJ  -0.05001268672051094
    w185  budget  1.0
    w185  sector0  1.0
    w186  OBJ  -0.13920876768528542
    w186  budget  1.0
    w186  sector0  1.0
    w187  OBJ  -0.06438728585841468
    w187  budget  1.0
    w187  sector7  1.0
    w188  OBJ  -0.026141974104584683
    w188  budget  1.0
    w188  sector1  1.0
    w189  OBJ  -0.11187497368632586
    w189  budget  1.0
    w189  sector5  1.0
    w190  OBJ  -0.034263900766275224
    w190  budget  1.0
    w190  sector3  1.0
    w191  OBJ  -0.021503173697379984
    w191  budget  1.0
    w191  sector3  1.0
    w192  OBJ  -0.08960825530103095
    w192  budget  1.0
    w192  sector5  1.0
    w193  OBJ  -0.029846053178302898
    w193  budget  1.0
    w193  sector1  1.0
    w194  OBJ  -0.07868247019598043
    w194  budget  1.0
    w194  sector7  1.0
    w195  OBJ  -0.1390779891645364
    w195  budget  1.0
    w195  sector5  1.0
    w196  OBJ  -0.08975814154838126
    w196  budget  1.0
    w196  sector2  1.0
    w197  OBJ  -0.1470144412784999
    w197  budget  1.0
    w197  sector6  1.0
    w198  OBJ  -0.14723710977516127
    w198  budget  1.0
    w198  sector1  1.0
    w199  OBJ  -0.10189622239342563
    w199  budget  1.0
    w199  sector5  1.0
RHS
    RHS  budget  1.0
    RHS  sector0  0.3
    RHS  sector1  0.3
    RHS  sector2  0.3
    RHS  sector3  0.3
    RHS  sector4  0.3
    RHS  sector5  0.3
    RHS  sector6  0.3
    RHS  sector7  0.3
RANGES
BOUNDS
 UP BND  w0  0.1
 UP BND  w1  0.1
 UP BND  w2  0.1
 UP BND  w3  0.1
 UP BND  w4  0.1
 UP BND  w5  0.1
 UP BND  w6  0.1
 UP BND  w7  0.1
 UP BND  w8  0.1
 UP BND  w9  0.1
 UP BND  w10  0.1
 UP BND  w11  0.1
 UP BND  w12  0.1
 UP BND  w13  0.1
 UP BND  w14  0.1
 UP BND  w15  0.1
 UP BND  w16  0.1
 UP BND  w17  0.1
 UP BND  w18  0.1
 UP BND  w19  0.1
 UP BND  w20  0.1
 UP BND  w21  0.1
 UP BND  w22  0.1
 UP BND  w23  0.1
 UP BND  w24  0.1
 UP BND  w25  0.1
 UP BND  w26  0.1
 UP BND  w27  0.1
 UP BND  w28  0.1
 UP BND  w29  0.1
 UP BND  w30  0.1
 UP BND  w31  0.1
 UP BND  w32  0.1
 UP BND  w33  0.1
 UP BND  w34  0.1
 UP BND  w35  0.1
 UP BND  w36  0.1
 UP BND  w37  0.1
 UP BND  w38  0.1
 UP BND  w39  0.1
 UP BND  w40  0.1
 UP BND  w41  0.1
 UP BND  w42  0.1
 UP BND  w43  0.1
 UP BND  w44  0.1
 UP BND  w45  0.1
 UP BND  w46  0.1
 UP BND  w47  0.1
 UP BND  w48  0.1
 UP BND  w49  0.1
 UP BND  w50  0.1
 UP BND  w51  0.1
 UP BND  w52  0.1
 UP BND  w53  0.1
 UP BND  w54  0.1
 UP BND  w55  0.1
 UP BND  w56  0.1
 UP BND  w57  0.1
 UP BND  w58  0.1
 UP BND  w59  0.1
 UP BND  w60  0.1
 UP BND  w61  0.1
 UP BND  w62  0.1
 UP BND  w63  0.1
 UP BND  w64  0.1
 UP BND  w65  0.1
 UP BND  w66  0.1
 UP BND  w67  0.1
 UP BND  w68  0.1
 UP BND  w69  0.1
 UP BND  w70  0.1
 UP BND  w71  0.1
 UP BND  w72  0.1
 UP BND  w73  0.1
 UP BND  w74  0.1
 UP BND  w75  0.1
 UP BND  w76  0.1
 UP BND  w77  0.1
 UP BND  w78  0.1
 UP BND  w79  0.1
 UP BND  w80  0.1
 UP BND  w81  0.1
 UP BND  w82  0.1
 UP BND  w83  0.1
 UP BND  w84  0.1
 UP BND  w85  0.1
 UP BND  w86  0.1
 UP BND  w87  0.1
 UP BND  w88  0.1
 UP BND  w89  0.1
 UP BND  w90  0.1
 UP BND  w91  0.1
 UP BND  w92  0.1
 UP BND  w93  0.1
 UP BND  w94  0.1
 UP BND  w95  0.1
 UP BND  w96  0.1
 UP BND  w97  0.1
 UP BND  w98  0.1
 UP BND  w99  0.1
 UP BND  w100  0.1
 UP BND  w101  0.1
 UP BND  w102  0.1
 UP BND  w103  0.1
 UP BND  w104  0.1
 UP BND  w105  0.1
 UP BND  w106  0.1
 UP BND  w107  0.1
 UP BND  w108  0.1
 UP BND  w109  0.1
 UP BND  w110  0.1
 UP BND  w111  0.1
 UP BND  w112  0.1
 UP BND  w113  0.1
 UP BND  w114  0.1
 UP BND  w115  0.1
 UP BND  w116  0.1
 UP BND  w117  0.1
 UP BND  w118  0.1
 UP BND  w119  0.1
 UP BND  w120  0.1
 UP BND  w121  0.1
 UP BND  w122  0.1
 UP BND  w123  0.1
 UP BND  w124  0.1
 UP BND  w125  0.1
 UP BND  w126  0.1
 UP BND  w127  0.1
 UP BND  w128  0.1
 UP BND  w129  0.1
 UP BND  w130  0.1
 UP BND  w131  0.1
 UP BND  w132  0.1
 UP BND  w133  0.1
 UP BND  w134  0.1
 UP BND  w135  0.1
 UP BND  w136  0.1
 UP BND  w137  0.1
 UP BND  w138  0.1
 UP BND  w139  0.1
 UP BND  w140  0.1
 UP BND  w141  0.1
 UP BND  w142  0.1
 UP BND  w143  0.1
 UP BND  w144  0.1
 UP BND  w145  0.1
 UP BND  w146  0.1
 UP BND  w147  0.1
 UP BND  w148  0.1
 UP BND  w149  0.1
 UP BND  w150  0.1
 UP BND  w151  0.1
 UP BND  w152  0.1
 UP BND  w153  0.1
 UP BND  w154  0.1
 UP BND  w155  0.1
 UP BND  w156  0.1
 UP BND  w157  0.1
 UP BND  w158  0.1
 UP BND  w159  0.1
 UP BND  w160  0.1
 UP BND  w161  0.1
 UP BND  w162  0.1
 UP BND  w163  0.1
 UP BND  w164  0.1
 UP BND  w165  0.1
 UP BND  w166  0.1
 UP BND  w167  0.1
 UP BND  w168  0.1
 UP BND  w169  0.1
 UP BND  w170  0.1
 UP BND  w171  0.1
 UP BND  w172  0.1
 UP BND  w173  0.1
 UP BND  w174  0.1
 UP BND  w175  0.1
 UP BND  w176  0.1
 UP BND  w177  0.1
 UP BND  w178  0.1
 UP BND  w179  0.1
 UP BND  w180  0.1
 UP BND  w181  0.1
 UP BND  w182  0.1
 UP BND  w183  0.1
 UP BND  w184  0.1
 UP BND  w185  0.1
 UP BND  w186  0.1
 UP BND  w187  0.1
 UP BND  w188  0.1
 UP BND  w189  0.1
 UP BND  w190  0.1
 UP BND  w191  0.1
 UP BND  w192  0.1
 UP BND  w193  0.1
 UP BND  w194  0.1
 UP BND  w195  0.1
 UP BND  w196  0.1
 UP BND  w197  0.1
 UP BND  w198  0.1
 UP BND  w199  0.1
QUADOBJ
    w0  w0  0.26208765274440904
    w0  w1  0.0665912335501022
    w0  w2  0.05343971907772462
    w0  w3  -0.1054518752340975
    w0  w4  0.0039816672287631884
    w0  w5  -0.08769129153807179
    w0  w6  -0.019595469479654088
    w0  w7  0.14123756806902463
    w0  w8  -0.021695190139975312
    w0  w9  0.052355559811915496
    w0  w10  -0.04403116536476591
    w0  w11  0.05321484371429644
    w0  w12  0.04453519613394321
    w0  w13  -0.0324144544470387
    w0  w14  -0.05581207603984426
    w0  w15  -0.04025093617968024
    w0  w16  0.0327667304764132
    w0  w17  -0.05636227054835018
    w0  w18  0.04024326796774318
    w0  w19  0.057947297061556415
    w0  w20  0.07561090540983556
    w0  w21  0.016435483893939454
    w0  w22  0.009662122873715515
    w0  w23  -0.0381317037407893
    w0  w24  0.0726650382859123
    w0  w25  -0.05671925813715891
    w0  w26  -0.010710659197817461
    w0  w27  0.061635016119629814
    w0  w28  0.015693912407303376
    w0  w29  0.016110747247406885
    w0  w30  0.04931928917095556
    w0  w31  0.028592326490408784
    w0  w32  0.14018352713422333
    w0  w33  -0.048377641119162706
    w0  w34  -0.00976225773849041
    w0  w35  -0.05977511951861491
    w0  w36  0.02096637040574787
    w0  w37  -0.008259862810979627
    w0  w38  0.03017007053718781
    w0  w39  0.04716089141315193
    w0  w40  -0.0060190629614660564
    w0  w41  0.021780766407866144
    w0  w42  0.014289966987073268
    w0  w43  0.07884539977450543
    w0  w44  -0.07700494528873855
    w0  w45  -0.005454747055704585
    w0  w46  0.0813725209719765
    w0  w47  -0.04349913200680239
    w0  w48  0.02847111894551458
    w0  w49  -0.05906033288676207
    w0  w50  0.014209511194167449
    w0  w51  0.046631150168068555
    w0  w52  -0.013227172785207105
    w0  w53  -0.06832215913275454
    w0  w54  -0.020053661354149585
    w0  w55  -0.026039156637171854
    w0  w56  -0.04758657319501261
    w0  w57  -0.031002053630912945
    w0  w58  -0.031205843220682244
    w0  w59  -0.04958356106476057
    w0  w60  0.02528499256222854
    w0  w61  0.1234654950143394
    w0  w62  -0.03933201046642954
    w0  w63  0.010310946421378572
    w0  w64  0.0640480508688053
    w0  w65  -0.11051345746685008
    w0  w66  0.029099551080478642
    w0  w67  0.05466749829226946
    w0  w68  0.018955350609367497
    w0  w69  -0.10683931573603711
    w0  w70  0.10151309937082026
    w0  w71  0.01351500151426888
    w0  w72  -0.035464373759174814
    w0  w73  -0.021498600545280157
    w0  w74  -0.06421581000437113
    w0  w75  1.2349222455777682e-05
    w0  w76  0.08060645810782623
    w0  w77  0.05357238389394575
    w0  w78  -0.001294009234980142
    w0  w79  -0.053049080137830586
    w0  w80  -0.011814646677179281
    w0  w81  -0.02285192092663524
    w0  w82  0.07094411470981649
    w0  w83  -0.058366714313728314
    w0  w84  0.04338355604978919
    w0  w85  0.09114485361067837
    w0  w86  0.1823834751179029
    w0  w87  -0.09689592127502515
    w0  w88  -0.1027205608298001
    w0  w89  0.09439576151607285
    w0  w90  -0.03869962810870199
    w0  w91  0.01311213545729889
    w0  w92  0.037669637958364206
    w0  w93  0.023093109884608335
    w0  w94  0.030184132123001656
    w0  w95  0.1038610426842539
    w0  w96  0.06162315979564802
    w0  w97  0.10343948623856364
    w0  w98  0.032383019618363124
    w0  w99  -0.047567616177375205
    w0  w100  -0.029245395804518515
    w0  w101  -0.01001923625925363
    w0  w102  0.0019691830662784365
    w0  w103  0.007400753053150305
    w0  w104  -0.13607466727488884
    w0  w105  0.003723526089158624
    w0  w106  0.07987797929818136
    w0  w107  -0.19088627102334452
    w0  w108  -0.013667627105327308
    w0  w109  -0.07067342662222405
    w0  w110  -0.021846952025158656
    w0  w111  -0.13380725848541786
    w0  w112  -0.05853231473699368
    w0  w113  -0.08524290638690142
    w0  w114  0.03725137220562558
    w0  w115  0.030874625983546688
    w0  w116  -0.043431423105700875
    w0  w117  -0.11181662784003923
    w0  w118  -0.033193904987363264
    w0  w119  -0.03886010468446364
    w0  w120  0.058188877888494084
    w0  w121  0.058468900547582595
    w0  w122  0.036093021112481305
    w0  w123  -0.03327309839386686
    w0  w124  0.06821860458524284
    w0  w125  0.06675281416069852
    w0  w126  -0.035429640997844236
    w0  w127  -0.053691378661447624
    w0  w128  -0.041972732591103144
    w0  w129  0.004620718131408239
    w0  w130  0.0431150033806259
    w0  w131  0.053394695409451715
    w0  w132  0.057563686259043824
    w0  w133  -0.013670040327322037
    w0  w134  0.09174269368303836
    w0  w135  -0.06172980357022912
    w0  w136  -0.06035505540142659
    w0  w137  -0.02688698250385737
    w0  w138  0.09297871608917699
    w0  w139  0.014812671593167629
    w0  w140  -0.02499646126924941
    w0  w141  -0.04701933937048079
    w0  w142  -0.007550875927061884
    w0  w143  0.028078012784158356
    w0  w144  0.07169142841271443
    w0  w145  0.05881007915918667
    w0  w146  0.0473119891990748
    w0  w147  -0.03149371180183954
    w0  w148  -0.03510786374275635
    w0  w149  -0.04547340656261492
    w0  w150  0.045596012003480055
    w0  w151  0.018845883674459156
    w0  w152  -0.04297730040191973
    w0  w153  -0.010590382811844105
    w0  w154  -0.0009058346027026337
    w0  w155  -0.02941912609903835
    w0  w156  -0.05926692129892593
    w0  w157  -0.006599324319696973
    w0  w158  -0.05791092615494112
    w0  w159  -0.05091142396147969
    w0  w160  -0.0664034803685796
    w0  w161  0.12492614201855044
    w0  w162  0.062141294585164264
    w0  w163  -0.03494574604048793
    w0  w164  -0.035948663800329295
    w0  w165  -0.010018303809758622
    w0  w166  0.024021246970530916
    w0  w167  0.05343212317105375
    w0  w168  0.03388302324983332
    w0  w169  -0.1126405432265555
    w0  w170  0.015890319592763862
    w0  w171  -0.08631470570702467
    w0  w172  -0.011768228089238459
    w0  w173  0.14705491405843363
    w0  w174  0.0070667125238029135
    w0  w175  0.07190686820907556
    w0  w176  -0.02316215379338789
    w0  w177  0.07952635356839219
    w0  w178  0.02654230847652779
    w0  w179  0.016483981088894886
    w0  w180  -0.031630419754585554
    w0  w181  0.07091972086397644
    w0  w182  0.03466089112109581
    w0  w183  -0.09923941896623324
    w0  w184  -0.06800975262470006
    w0  w185  -0.016533602559163564
    w0  w186  -0.07117450638296054
    w0  w187  -0.04428971022460717
    w0  w188  0.04027032909003017
    w0  w189  0.10298283767834554
    w0  w190  -0.0374124870557006
    w0  w191  -0.012897408992952511
    w0  w192  0.003657400658600958
    w0  w193  -0.01765531210790405
    w0  w194  0.05615270522326054
    w0  w195  0.08109107784821448
    w0  w196  0.0652278035112718
    w0  w197  0.018883061287959364
    w0  w198  0.03739793828168896
    w0  w199  -0.053409108975788676
    w1  w1  0.1796846042335908
    w1  w2  -0.057917440193758954
    w1  w3  -0.021286310560878728
    w1  w4  -0.03841774599839567
    w1  w5  -0.10663374338017254
    w1  w6  0.06151507233809064
    w1  w7  0.005717141720604045
    w1  w8  0.03147639158230815
    w1  w9  -0.010798671890838493
    w1  w10  -0.04344181419382823
    w1  w11  0.005298084939208308
    w1  w12  0.03481718985294191
    w1  w13  -0.04761891063148875
    w1  w14  -0.007346999854903871
    w1  w15  0.004837537638404915
    w1  w16  -0.0008041948215379881
    w1  w17  0.03314227598825053
    w1  w18  0.013149908074763282
    w1  w19  0.04482000916979346
    w1  w20  -0.03537532955220773
    w1  w21  0.07299431106981814
    w1  w22  0.03582321564478916
    w1  w23  0.012549700804383468
    w1  w24  -0.005857134907383704
    w1  w25  -0.05089499254960389
    w1  w26  -0.0313413481350574
    w1  w27  0.13420642863195548
    w1  w28  -0.012494281016636747
    w1  w29  0.04287205631335057
    w1  w30  0.04689365835495925
    w1  w31  -0.02040318472649132
    w1  w32  0.05693343431509091
    w1  w33  0.06619467701809759
    w1  w34  0.02396414483246315
    w1  w35  -0.0035639791419747146
    w1  w36  -0.08375735838971603
    w1  w37  -0.0058791831014034625
    w1  w38  -0.06600148228133948
    w1  w39  -0.006934858858262591
    w1  w40  0.00011023326052221643
    w1  w41  0.05840400042707814
    w1  w42  -0.05605491007647661
    w1  w43  0.05846897614202682
    w1  w44  -0.06436615575045541
    w1  w45  0.01752391339657644
    w1  w46  0.013208148840415742
    w1  w47  0.01249123642709063
    w1  w48  0.04148791381858449
    w1  w49  -0.059633217635837024
    w1  w50  -0.038331070122773404
    w1  w51  0.007834243507030336
    w1  w52  0.02254412060377572
    w1  w53  -0.04799511982119824
    w1  w54  -0.017812003016397387
    w1  w55  0.005815693686781351
    w1  w56  -0.05024799935194025
    w1  w57  0.026161436475884804
    w1  w58  -0.0026364680312997747
    w1  w59  0.03488724891177344
    w1  w60  -0.05309138539015993
    w1  w61  0.002361214181230778
    w1  w62  -0.02421707410966366
    w1  w63  0.027722882690909847
    w1  w64  -0.0019508503762580883
    w1  w65  -0.10517195468593964
    w1  w66  0.0436620218386215
    w1  w67  0.012109056046167412
    w1  w68  -0.0540983939986711
    w1  w69  -0.07591082855434274
    w1  w70  0.018348483483599503
    w1  w71  -0.05309931913142996
    w1  w72  -0.03083074930245196
    w1  w73  0.05426531960741928
    w1  w74  0.0111953564984537
    w1  w75  -0.003476603382085063
    w1  w76  -0.050405581035060286
    w1  w77  0.03789906469087207
    w1  w78  -0.06256931414545552
    w1  w79  -0.0004245686864834393
    w1  w80  -0.010312328880232367
    w1  w81  -0.05240554004416305
    w1  w82  0.07449826879242985
    w1  w83  -0.10830996955293035
    w1  w84  -0.07551710776158838
    w1  w85  -0.051073992146915125
    w1  w86  0.030256596171408252
    w1  w87  -0.0548409355595794
    w1  w88  -0.016424369137633243
    w1  w89  0.03696970999890415
    w1  w90  -0.08320470697986956
    w1  w91  0.014530855822250215
    w1  w92  -0.02845596854314074
    w1  w93  0.009425363360346316
    w1  w94  0.04177893409456053
    w1  w95  0.11316151823536401
    w1  w96  -0.04862445272588618
    w1  w97  0.11880026283807159
    w1  w98  -0.028770368138471464
    w1  w99  -0.03716071236425573
    w1  w100  -0.018622625021340666
    w1  w101  -0.0015566220997410112
    w1  w102  0.04086015723459408
    w1  w103  -0.09729207677698617
    w1  w104  -0.05567919515393564
    w1  w105  0.04507372063773004
    w1  w106  0.057602279795679036
    w1  w107  -0.04770265866470854
    w1  w108  -0.00659023910496078
    w1  w109  -0.07328795364883336
    w1  w110  0.020126168612951804
    w1  w111  3.4399228656440753e-05
    w1  w112  -0.1483265392443295
    w1  w113  -0.0626054051282398
    w1  w114  -0.04165739880571165
    w1  w115  -0.05147505052435448
    w1  w116  -0.05655767860616315
    w1  w117  -0.04358696336177991
    w1  w118  -0.020312582383540546
    w1  w119  -0.06191320312697573
    w1  w120  -0.009406903879424605
    w1  w121  0.08168125169066406
    w1  w122  0.029531883245110448
    w1  w123  -0.04216475011696596
    w1  w124  0.049899933955417544
    w1  w125  0.0536103963512586
    w1  w126  -0.018911470809609865
    w1  w127  0.00023629950259036853
    w1  w128  -0.07418043937737205
    w1  w129  -0.048558104399925035
    w1  w130  0.09155102036854297
    w1  w131  0.010513387650569557
    w1  w132  -0.034990797268045847
    w1  w133  -0.006712033610360248
    w1  w134  -0.03952448951318485
    w1  w135  -0.08022565845468459
    w1  w136  -0.042385739627297275
    w1  w137  0.05148267052014809
    w1  w138  0.1447757763430827
    w1  w139  0.0050966799641635275
    w1  w140  -0.0054484876886944115
    w1  w141  -0.03328172582178283
    w1  w142  -0.05706159624895385
    w1  w143  -0.03219510671705234
    w1  w144  -0.07295909647834435
    w1  w145  0.007603469072310428
    w1  w146  -0.04593923270191642
    w1  w147  0.006765681783543896
    w1  w148  0.047202628933887256
    w1  w149  0.12898798425686658
    w1  w150  0.0472548756341721
    w1  w151  0.0327024589651649
    w1  w152  -0.0385685515218753
    w1  w153  0.016545543159066037
    w1  w154  -0.04624153262178417
    w1  w155  -0.06377504595375218
    w1  w156  -0.060133992187522245
    w1  w157  -0.07406137882059761
    w1  w158  0.02091689363922148
    w1  w159  0.028488581845040658
    w1  w160  -0.08089351954447499
    w1  w161  0.07934117641839812
    w1  w162  0.01951608522725961
    w1  w163  -0.05539972178106384
    w1  w164  0.013031326709031841
    w1  w165  0.028840147207848506
    w1  w166  -0.029755416671811065
    w1  w167  -0.029148136027919113
    w1  w168  0.0702010454915416
    w1  w169  -0.049099682282640944
    w1  w170  0.08728643930826657
    w1  w171  -0.021541550997430443
    w1  w172  -0.019970056034181165
    w1  w173  0.030063603405300773
    w1  w174  -0.0057739370984130345
    w1  w175  -0.0012058590143559397
    w1  w176  0.04635991472431871
    w1  w177  0.06127945452722355
    w1  w178  0.04671584438419194
    w1  w179  0.03257436807028851
    w1  w180  0.0037721270759453304
    w1  w181  -0.03491773245239408
    w1  w182  0.12393352421990275
    w1  w183  -0.0202278052850463
    w1  w184  -0.05585860457311689
    w1  w185  -0.03810476014326974
    w1  w186  -0.14995078688855534
    w1  w187  0.024085749532365544
    w1  w188  0.030531715796191555
    w1  w189  0.09313470505326757
    w1  w190  0.08301760150118276
    w1  w191  0.1119257708569452
    w1  w192  -0.08019618634020065
    w1  w193  -0.004467218697421002
    w1  w194  -0.05237427742111074
    w1  w195  -0.0022486280390889854
    w1  w196  0.08306762272348359
    w1  w197  0.020893450013165154
    w1  w198  0.004571635089193534
    w1  w199  0.050003372756733326
    w2  w2  0.23835801105553228
    w2  w3  -0.055209763556352466
    w2  w4  -0.010779153963529922
    w2  w5  0.04674764145983442
    w2  w6  -0.0660502503843999
    w2  w7  0.06409041459884621
    w2  w8  -0.05379572135645354
    w2  w9  0.11400653955840981
    w2  w10  0.07881825723348823
    w2  w11  0.062142917396765064
    w2  w12  -0.0007576447430288207
    w2  w13  -0.07933752661061688
    w2  w14  0.02710927629334574
    w2  w15  0.010276583838084389
    w2  w16  -0.0014110908796506829
    w2  w17  -0.05069463762537533
    w2  w18  0.021900518757210857
    w2  w19  -0.022347116830853348
    w2  w20  -0.03982565206764847
    w2  w21  0.03462428467289509
    w2  w22  -0.052717421736630105
    w2  w23  -0.01069262150699518
    w2  w24  0.029811884248466668
    w2  w25  0.009173494189261834
    w2  w26  0.017243737892481212
    w2  w27  -0.08297891873568922
    w2  w28  0.08407015102949295
    w2  w29  0.008547216005029756
    w2  w30  0.024156573328178606
    w2  w31  0.04861480220217466
    w2  w32  0.018252575411099262
    w2  w33  0.038083141783066425
    w2  w34  -0.030669058500037646
    w2  w35  0.07876704582203256
    w2  w36  -0.0064135012911528955
    w2  w37  0.01669302469751185
    w2  w38  0.07785781596768755
    w2  w39  -0.011515287957653985
    w2  w40  0.08322818096433425
    w2  w41  -0.07275111741655857
    w2  w42  0.010904712352388737
    w2  w43  -0.00017644318268080603
    w2  w44  0.047839102021801236
    w2  w45  -0.045365312581479876
    w2  w46  0.05226587130691942
    w2  w47  -0.10411819173259611
    w2  w48  -0.03533643497656642
    w2  w49  0.015842491876103395
    w2  w50  -0.0038824852004099605
    w2  w51  0.04258750399624609
    w2  w52  -0.031050359005233417
    w2  w53  0.01027763539431136
    w2  w54  0.025318887909581245
    w2  w55  0.03153589360060224
    w2  w56  0.007849893152376851
    w2  w57  -0.071933502742018
    w2  w58  -0.062287883821860825
    w2  w59  0.03404537478264176
    w2  w60  0.13850881018065914
    w2  w61  0.043910661251977526
    w2  w62  0.01574664856850144
    w2  w63  0.01592116533429153
    w2  w64  0.03823571620599344
    w2  w65  0.014909445558629005
    w2  w66  -0.0019634653329817582
    w2  w67  0.03711107196659244
    w2  w68  -0.03315324244475704
    w2  w69  0.03059838120997598
    w2  w70  0.0012694503945210357
    w2  w71  0.061255195198185286
    w2  w72  -0.054021313906760494
    w2  w73  -0.016849797789645397
    w2  w74  -0.02324645778825623
    w2  w75  0.09706065832914808
    w2  w76  -0.011764253210242024
    w2  w77  -0.05412294330280612
    w2  w78  0.04160810850500932
    w2  w79  -0.008092328466284654
    w2  w80  0.009296570929715225
    w2  w81  -0.007490371321547036
    w2  w82  0.02910831355655612
    w2  w83  0.007718560617566667
    w2  w84  0.13969276739968356
    w2  w85  0.10951642522496353
    w2  w86  0.0028083746730470822
    w2  w87  0.035089617168303014
    w2  w88  -0.04496838785919115
    w2  w89  -0.03705904786658562
    w2  w90  -0.019256325349293963
    w2  w91  -0.030399361221474915
    w2  w92  0.06627174549322863
    w2  w93  0.035414303572244246
    w2  w94  0.0030841063102882375
    w2  w95  -0.08762757878978933
    w2  w96  0.04660757990967779
    w2  w97  0.04468099476404798
    w2  w98  0.08469070455121028
    w2  w99  0.001887605017551606
    w2  w100  0.0015080770695135844
    w2  w101  0.005702265351964736
    w2  w102  -0.08754990642375189
    w2  w103  0.020058724845032704
    w2  w104  0.0746094800345352
    w2  w105  -0.11061145637542089
    w2  w106  -0.014950111075588234
    w2  w107  -0.10899303036544027
    w2  w108  0.07464659143498494
    w2  w109  -0.020800066850761134
    w2  w110  -0.0367561850479084
    w2  w111  -0.09596749877169065
    w2  w112  0.10390681197830065
    w2  w113  -0.0794175137639251
    w2  w114  0.052484531119262365
    w2  w115  0.056343483402438714
    w2  w116  0.012976334680300333
    w2  w117  -0.07394247765967882
    w2  w118  -0.05978080179073907
    w2  w119  -0.017564883319042143
    w2  w120  -0.058158995650811944
    w2  w121  -0.01609905923912946
    w2  w122  0.08865744204235305
    w2  w123  0.00023620051225481994
    w2  w124  -0.013374727209321436
    w2  w125  -0.021882746249630804
    w2  w126  -0.023763497826655655
    w2  w127  -0.012171098219042558
    w2  w128  0.024173748276238652
    w2  w129  0.005699198569695468
    w2  w130  -0.06639085709188522
    w2  w131  0.05869993845281203
    w2  w132  0.03044393629710898
    w2  w133  -0.02718703953923178
    w2  w134  0.027009397528156235
    w2  w135  0.03091268347038445
    w2  w136  0.060668578584209036
    w2  w137  0.004998050310955458
    w2  w138  -0.015389423931841749
    w2  w139  -0.0900280422508782
    w2  w140  -0.04729700539697935
    w2  w141  -0.001378804734975344
    w2  w142  0.0914379134863389
    w2  w143  -0.05932644339418502
    w2  w144  0.023187921610682047
    w2  w145  0.0467857848313928
    w2  w146  0.07768103000728903
    w2  w147  0.020315944639010236
    w2  w148  0.018123906658661988
    w2  w149  -0.11759755516881362
    w2  w150  0.0684442018241053
    w2  w151  -0.09388033487889712
    w2  w152  0.04605369570075517
    w2  w153  -0.011480652053569431
    w2  w154  0.03727487416342854
    w2  w155  0.06329489568622126
    w2  w156  0.0011373901323901133
    w2  w157  0.06235041552049417
    w2  w158  -0.05193714594727975
    w2  w159  -0.068647273784224
    w2  w160  0.058242690903537446
    w2  w161  -0.051215110165903764
    w2  w162  0.023673720013397525
    w2  w163  0.009235124715952371
    w2  w164  -0.05492716507724673
    w2  w165  -0.035220976024710166
    w2  w166  -0.013370162332531224
    w2  w167  -0.02294121803565763
    w2  w168  -0.05986026246342296
    w2  w169  0.009501329371752385
    w2  w170  -0.10862700043121316
    w2  w171  0.015890299338336532
    w2  w172  0.10339157587145885
    w2  w173  0.0800967072830871
    w2  w174  0.038968248995065354
    w2  w175  0.044388020753418134
    w2  w176  -0.07574487279337694
    w2  w177  -0.08182630200149134
    w2  w178  -0.05006400303747205
    w2  w179  -0.04337428580205529
    w2  w180  -0.024895588938681903
    w2  w181  0.11290974209331334
    w2  w182  -0.016913191191139734
    w2  w183  -0.04344975121052345
    w2  w184  -0.035787613866717444
    w2  w185  0.017011851379015258
    w2  w186  0.031084727254111807
    w2  w187  -0.0036929080171774096
    w2  w188  -0.022981363129413675
    w2  w189  0.03299501975353821
    w2  w190  -0.0869913718722516
    w2  w191  -0.10138893242035037
    w2  w192  0.10336705849676778
    w2  w193  -0.03356512561642939
    w2  w194  0.06522972949165311
    w2  w195  0.026016719024742122
    w2  w196  -0.005711850879668973
    w2  w197  -0.013294709840061151
    w2  w198  -0.04509694970746285
    w2  w199  0.02870078315647075
    w3  w3  0.28108920112301566
    w3  w4  0.03569786169604637
    w3  w5  -0.03089817113740236
    w3  w6  0.14226694555632158
    w3  w7  0.04319619641051651
    w3  w8  0.023410623840337957
    w3  w9  0.031591700809853934
    w3  w10  -0.023201638750275554
    w3  w11  0.008241757691973748
    w3  w12  -0.0703447524220952
    w3  w13  0.0585554359057857
    w3  w14  -0.007407341256770091
    w3  w15  -0.01800857239919307
    w3  w16  0.08720858136973543
    w3  w17  0.09872914711960853
    w3  w18  -0.00456269214276925
    w3  w19  0.016623560007199296
    w3  w20  0.044569489963991106
    w3  w21  0.02471813989031791
    w3  w22  0.00566501278720945
    w3  w23  0.05004460711235183
    w3  w24  -0.06990888312610657
    w3  w25  0.03240297420727854
    w3  w26  0.008905567714208978
    w3  w27  -0.05442734325208704
    w3  w28  0.018275280038736616
    w3  w29  -0.047894985948296415
    w3  w30  0.0035283801042132034
    w3  w31  -0.08851395990499603
    w3  w32  -0.003350884546894506
    w3  w33  -0.006735614009774122
    w3  w34  0.024077983053722798
    w3  w35  -0.01199748042456775
    w3  w36  0.021625444279605385
    w3  w37  0.0198693480970115
    w3  w38  -0.03979274010729486
    w3  w39  -0.026699533117851646
    w3  w40  0.04861907608444452
    w3  w41  -0.13808734477018045
    w3  w42  -0.0844435685869087
    w3  w43  0.029428790432152793
    w3  w44  -0.07403321777836108
    w3  w45  0.1380000429886259
    w3  w46  -0.06733908197198041
    w3  w47  0.05851772617843305
    w3  w48  -0.07861990841085797
    w3  w49  0.06795049398941727
    w3  w50  0.014701595640879297
    w3  w51  -0.014352412265997018
    w3  w52  -0.05688187575009156
    w3  w53  -0.019768246562364974
    w3  w54  0.007088551977821455
    w3  w55  0.10120968655946704
    w3  w56  0.017772427528080816
    w3  w57  0.05222458845380951
    w3  w58  0.05077206106529226
    w3  w59  -0.0021953952581717034
    w3  w60  0.03174132240570333
    w3  w61  -0.1559130835015308
    w3  w62  -0.01575453945751114
    w3  w63  -0.029921645144622425
    w3  w64  -0.06172151756779362
    w3  w65  -0.008847543929103932
    w3  w66  -0.11788347050538768
    w3  w67  -0.10060137107579405
    w3  w68  0.004456763184540729
    w3  w69  0.10031255294855299
    w3  w70  -0.04412006967213917
    w3  w71  -0.03219465653459439
    w3  w72  -0.05103389984888066
    w3  w73  -0.0033159794181823734
    w3  w74  0.15420155879921277
    w3  w75  -0.05836342482723219
    w3  w76  -0.006674640869808903
    w3  w77  0.0273060420592316
    w3  w78  -0.004837336547191529
    w3  w79  -0.05769654463853623
    w3  w80  0.02627812953108549
    w3  w81  0.0223218505800774
    w3  w82  -0.01235898530370029
    w3  w83  0.09885473781523657
    w3  w84  -0.1832852069285062
    w3  w85  -0.08162264446394034
    w3  w86  -0.07511127960434993
    w3  w87  -0.06644088324574077
    w3  w88  0.13134682453018642
    w3  w89  -0.0056759062735861595
    w3  w90  0.026740667536631544
    w3  w91  0.029755708905724293
    w3  w92  0.010804718342746114
    w3  w93  0.027989395671640778
    w3  w94  0.029554856510662298
    w3  w95  0.04409229889322463
    w3  w96  0.05480094284877443
    w3  w97  -0.03017338263343677
    w3  w98  -0.08533288277240819
    w3  w99  0.07260427036402561
    w3  w100  0.1577416584932663
    w3  w101  0.028971880264768386
    w3  w102  -0.007853385484133484
    w3  w103  0.04255599970461414
    w3  w104  -0.007800402156672481
    w3  w105  -0.08023435493355718
    w3  w106  -0.0523329593121969
    w3  w107  0.056832973939439216
    w3  w108  0.02991830302706887
    w3  w109  0.13018458753127904
    w3  w110  -0.006225042450633752
    w3  w111  0.06188204456335586
    w3  w112  -0.003226154133550414
    w3  w113  0.09520586280731297
    w3  w114  -0.058515235154998624
    w3  w115  -0.03906226064332085
    w3  w116  -0.07763925602976161
    w3  w117  0.033047444132158495
    w3  w118  0.12759230839782187
    w3  w119  0.02472597806626447
    w3  w120  -0.025736448365174764
    w3  w121  -0.005860052100638935
    w3  w122  -0.06675781629465129
    w3  w123  0.06303622638156722
    w3  w124  -0.07215222348192325
    w3  w125  0.019606101686531922
    w3  w126  0.05246369316502114
    w3  w127  0.1025371091755095
    w3  w128  -0.050137965919927335
    w3  w129  -0.05906870841833555
    w3  w130  -0.0004937129769969579
    w3  w131  0.05070105909857243
    w3  w132  -0.016883894517060866
    w3  w133  -0.02494893267634229
    w3  w134  -0.07173556048017181
    w3  w135  0.049580263353919955
    w3  w136  0.09109376374524965
    w3  w137  -0.017016923882612417
    w3  w138  -0.06694973723424737
    w3  w139  0.12436683822247827
    w3  w140  0.05303538655745522
    w3  w141  0.019324563539304545
    w3  w142  0.003318261176831546
    w3  w143  -0.0603385692838763
    w3  w144  -0.16621290500226202
    w3  w145  -0.0394708944533008
    w3  w146  -0.1460527895725563
    w3  w147  0.05125654073700882
    w3  w148  -0.019840440236717653
    w3  w149  0.0782956473389153
    w3  w150  -0.01889384310791651
    w3  w151  -0.013650857405226851
    w3  w152  0.0176183445136171
    w3  w153  -0.11552509485740198
    w3  w154  -0.08312568320195446
    w3  w155  -0.09143560795977802
    w3  w156  0.055869506745683695
    w3  w157  0.008639131036113117
    w3  w158  0.09291758622032588
    w3  w159  0.13389609218179083
    w3  w160  -0.02243468340445712
    w3  w161  -0.048343599823460044
    w3  w162  -0.06386553354799442
    w3  w163  -0.00936825725326558
    w3  w164  0.18514180489002258
    w3  w165  -0.05302365653987874
    w3  w166  0.051614929489671994
    w3  w167  0.0015762414021131116
    w3  w168  -0.10601946879053255
    w3  w169  0.20043201053802015
    w3  w170  0.022081476219838986
    w3  w171  0.06610155531921696
    w3  w172  -0.038705711807381284
    w3  w173  -0.07643651165420644
    w3  w174  -0.006847589623946255
    w3  w175  -0.08762409796370003
    w3  w176  -0.036192851058470574
    w3  w177  -0.05892822061563676
    w3  w178  0.03736789430213895
    w3  w179  -0.045378675418360395
    w3  w180  0.004865731538809492
    w3  w181  -0.14842260683702563
    w3  w182  0.01633516299587482
    w3  w183  0.06711065508443877
    w3  w184  -0.06324612868647923
    w3  w185  -0.003599159347783684
    w3  w186  -0.04353949561423265
    w3  w187  -0.014032456127529494
    w3  w188  0.05149682843728477
    w3  w189  -0.09855626340252144
    w3  w190  0.014633102460237536
    w3  w191  0.12909030686210848
    w3  w192  0.024735149327981078
    w3  w193  0.046156782003819195
    w3  w194  -0.08349662782294096
    w3  w195  0.012438798027003433
    w3  w196  -0.07448733956874903
    w3  w197  -0.061579400327867906
    w3  w198  0.048481656550997114
    w3  w199  -0.04936839812609977
    w4  w4  0.21663738927716736
    w4  w5  -0.0134953021312767
    w4  w6  -0.04288803356047758
    w4  w7  0.09363797101439393
    w4  w8  0.0453912546289143
    w4  w9  -0.12302790360361189
    w4  w10  0.003231041823005531
    w4  w11  0.04369191740642114
    w4  w12  -0.1018832619768443
    w4  w13  -0.09960665670809808
    w4  w14  -0.008748548222400832
    w4  w15  -0.04795701033958552
    w4  w16  0.021157619184770396
    w4  w17  -0.02115315887996261
    w4  w18  -0.04905108829557326
    w4  w19  -0.028578056828927965
    w4  w20  0.07870573798495518
    w4  w21  -0.017869745409277004
    w4  w22  0.021564096219665013
    w4  w23  -0.02299928772931552
    w4  w24  0.018211703568946757
    w4  w25  -0.05117413660580687
    w4  w26  -0.03132474005128884
    w4  w27  -0.04114485833455671
    w4  w28  0.009354474133407693
    w4  w29  -0.06845457589321781
    w4  w30  -0.06498192368109479
    w4  w31  0.02326307336509443
    w4  w32  -0.014297796493625016
    w4  w33  -0.12242662386421616
    w4  w34  -0.017867747967392125
    w4  w35  -0.054951986527788904
    w4  w36  0.04034650053102839
    w4  w37  -0.032662481240229475
    w4  w38  0.06683574849072682
    w4  w39  0.03745920438483268
    w4  w40  -0.010084818483963755
    w4  w41  -0.01652894678288983
    w4  w42  0.024914654083131954
    w4  w43  0.0230246686910694
    w4  w44  -0.05002500278845633
    w4  w45  -0.050536627973039906
    w4  w46  -0.09385400328813218
    w4  w47  0.0844576429998307
    w4  w48  -0.01768186435390816
    w4  w49  0.06864854045079788
    w4  w50  -0.028242783605332666
    w4  w51  -0.02176320053594226
    w4  w52  -0.030671603438653463
    w4  w53  0.004512273310060977
    w4  w54  0.0209904981813865
    w4  w55  -0.03989599582723832
    w4  w56  -0.058332266519705966
    w4  w57  0.01629493907853878
    w4  w58  0.03609894222321133
    w4  w59  -0.07728678628770087
    w4  w60  -0.013534264560155499
    w4  w61  0.02347235598971773
    w4  w62  0.027082858599195563
    w4  w63  -0.050178121315271926
    w4  w64  0.01556609763630228
    w4  w65  -0.011383163747730907
    w4  w66  -0.040014581450981336
    w4  w67  0.020198464307995396
    w4  w68  0.07193104265652289
    w4  w69  -0.005164629351176945
    w4  w70  0.06335958754158669
    w4  w71  0.005435742857308112
    w4  w72  0.01679396701165924
    w4  w73  -0.11147426402389733
    w4  w74  0.03617212314959929
    w4  w75  -0.03499615787551629
    w4  w76  0.027710537298813037
    w4  w77  0.004226494465903494
    w4  w78  0.0021628823446544947
    w4  w79  0.0030563522293947424
    w4  w80  -0.024123131412426828
    w4  w81  0.043087441429170426
    w4  w82  -0.02157139944346257
    w4  w83  0.06572913637478359
    w4  w84  -0.0589480390962803
    w4  w85  -0.0025145140033619377
    w4  w86  0.08123606665348444
    w4  w87  0.023043998539094245
    w4  w88  -0.006440509591330939
    w4  w89  -0.011563464972875201
    w4  w90  0.08438854056538607
    w4  w91  -0.04215738135473133
    w4  w92  -0.007597572245527173
    w4  w93  -0.025270533071159583
    w4  w94  -0.004618846576566171
    w4  w95  0.006188110328718643
    w4  w96  0.02730462478144854
    w4  w97  -0.055093109610491506
    w4  w98  0.003874415714291277
    w4  w99  0.0330633498905434
    w4  w100  0.03761310907074404
    w4  w101  0.013388161024383153
    w4  w102  0.026448718593028428
    w4  w103  -0.0006319546571302297
    w4  w104  -0.05909714016217529
    w4  w105  -0.058899587875098455
    w4  w106  -0.0007894133884147203
    w4  w107  -0.00497116143459795
    w4  w108  -0.09115454101584936
    w4  w109  0.04037136118639346
    w4  w110  -0.0583561565206593
    w4  w111  -0.0022736674808241162
    w4  w112  0.04677030472947041
    w4  w113  0.07613335594045238
    w4  w114  -0.057402886173486614
    w4  w115  0.07163198400440562
    w4  w116  0.026091093550772163
    w4  w117  -0.01904215054986525
    w4  w118  0.0331078039412944
    w4  w119  0.014159307607652154
    w4  w120  -0.012538262248970351
    w4  w121  0.061152770802951846
    w4  w122  -0.09654328137810622
    w4  w123  0.034953411977850235
    w4  w124  -0.021519499564498556
    w4  w125  0.002097325929683275
    w4  w126  -0.03037555396624268
    w4  w127  -0.03326684474715175
    w4  w128  -0.01512958132599855
    w4  w129  -0.027541125955112915
    w4  w130  -0.002668596225238314
    w4  w131  -0.07707955425615881
    w4  w132  0.02286626368539482
    w4  w133  -0.006199380089060209
    w4  w134  0.03541422686132324
    w4  w135  0.011213798040151237
    w4  w136  0.03756499500644481
    w4  w137  -0.07598575852563474
    w4  w138  -0.04274340863339783
    w4  w139  0.012395386086890968
    w4  w140  -0.020510324771810546
    w4  w141  0.033912413295627324
    w4  w142  -0.050569982325356776
    w4  w143  0.14637320951707325
    w4  w144  0.06480328036841682
    w4  w145  0.04638731774383803
    w4  w146  -0.005667885277318039
    w4  w147  -0.03019254906240793
    w4  w148  -0.08134525952795862
    w4  w149  -0.08302494110345832
    w4  w150  -0.04979016338845122
    w4  w151  0.007045960681887641
    w4  w152  -0.05322202134667806
    w4  w153  -0.00031544255937079245
    w4  w154  -0.11968581012242029
    w4  w155  -0.0034429829797048444
    w4  w156  0.012708079362113368
    w4  w157  -0.01468138236978165
    w4  w158  -0.049219570734178195
    w4  w159  -0.0133162877978605
    w4  w160  0.03357867710091473
    w4  w161  -0.05617601002776243
    w4  w162  -0.145503517635714
    w4  w163  0.014569801138072302
    w4  w164  0.02039937519905034
    w4  w165  0.0767884719071336
    w4  w166  0.08440921384152743
    w4  w167  0.08148393541333902
    w4  w168  -0.03252674848314359
    w4  w169  0.009171718935608647
    w4  w170  0.02569059687481932
    w4  w171  0.03200533319929976
    w4  w172  -0.01779074292860155
    w4  w173  0.026836093684989685
    w4  w174  0.01625676003105462
    w4  w175  -0.0007676303527602337
    w4  w176  -0.029007163790476985
    w4  w177  0.0022323876762016747
    w4  w178  -0.009826593938624312
    w4  w179  -0.024502653655709528
    w4  w180  0.006154343719913212
    w4  w181  -0.05132067813697623
    w4  w182  0.01850466048361889
    w4  w183  0.009596584928870614
    w4  w184  -0.037217530056878646
    w4  w185  0.025288758814889744
    w4  w186  0.07496123947224233
    w4  w187  -0.08224810156091697
    w4  w188  -0.038105430592659716
    w4  w189  0.06151760424367797
    w4  w190  -0.032440998219665444
    w4  w191  0.027370936412360353
    w4  w192  -0.014257383222593133
    w4  w193  0.1092458515305304
    w4  w194  0.03989473957129449
    w4  w195  -0.037122432882008186
    w4  w196  0.01676419712191608
    w4  w197  0.03580995122272725
    w4  w198  0.05769743610826482
    w4  w199  -0.07963030569438732
    w5  w5  0.22761306295705408
    w5  w6  -0.06820459059398543
    w5  w7  -0.12156958837274158
    w5  w8  -0.06600178522812543
    w5  w9  0.04394519823217676
    w5  w10  0.027707238345267185
    w5  w11  -0.03068294576757562
    w5  w12  -0.02594950037942621
    w5  w13  0.009691224630000793
    w5  w14  0.048475390937417484
    w5  w15  0.05095651651157982
    w5  w16  -0.023612336055760182
    w5  w17  -0.026614247668985905
    w5  w18  -0.006191659107774331
    w5  w19  -0.10249032717988739
    w5  w20  -0.061897405910588066
    w5  w21  -0.05326947241401916
    w5  w22  -0.012867360432871426
    w5  w23  0.002968807448090196
    w5  w24  -0.03900001077018448
    w5  w25  0.07404624879605903
    w5  w26  0.04920848152202567
    w5  w27  -0.0721849353622714
    w5  w28  0.014080746384605701
    w5  w29  -0.014092800165111666
    w5  w30  -0.057018159063893896
    w5  w31  0.04765448567620185
    w5  w32  -0.10183071175920994
    w5  w33  -0.030873656953881765
    w5  w34  -0.02017120610716997
    w5  w35  0.043683691842149326
    w5  w36  -0.008115051505035737
    w5  w37  0.022095078781524773
    w5  w38  0.041259591421718936
    w5  w39  -0.008732151087400358
    w5  w40  0.01140010054947932
    w5  w41  -0.03944943154571748
    w5  w42  0.0562456609127492
    w5  w43  -0.08544241805969015
    w5  w44  0.13542990290357174
    w5  w45  -0.08618170300909986
    w5  w46  -0.019863977509989653
    w5  w47  -0.05283473725654432
    w5  w48  0.011271622067262491
    w5  w49  0.04178386374697532
    w5  w50  -0.006076450593394825
    w5  w51  -0.009020195804720639
    w5  w52  0.02820945283191187
    w5  w53  0.07302425802321637
    w5  w54  -0.011107185482055687
    w5  w55  -0.08875196902271838
    w5  w56  -0.006725887265961615
    w5  w57  -0.01467983037074779
    w5  w58  -0.0038550320954507996
    w5  w59  0.029956858478007782
    w5  w60  0.06168847485364276
    w5  w61  0.017048497952257366
    w5  w62  0.02756070316816583
    w5  w63  0.009165107586217785
    w5  w64  -0.043750854689902634
    w5  w65  0.10476219919005196
    w5  w66  -0.026705359597676552
    w5  w67  0.034212168153422554
    w5  w68  0.0038875953891649375
    w5  w69  0.062119352805146875
    w5  w70  -0.0602711590201841
    w5  w71  0.027519553118555723
    w5  w72  0.04920470089195733
    w5  w73  -0.0005451182117145323
    w5  w74  -0.05126352484463788
    w5  w75  0.038814076750934366
    w5  w76  0.0024616731980575414
    w5  w77  -0.06398462107927051
    w5  w78  0.0639782701314035
    w5  w79  0.07257380313104528
    w5  w80  0.013206287873894645
    w5  w81  -0.005051817650492311
    w5  w82  -0.06461405359661822
    w5  w83  0.04254594777812689
    w5  w84  0.1261251222998845
    w5  w85  0.01891478904600782
    w5  w86  -0.08122168754097414
    w5  w87  0.101882960603393
    w5  w88  0.05516880320781889
    w5  w89  -0.06852997304177882
    w5  w90  0.011789168908088106
    w5  w91  -0.01723670217281225
    w5  w92  0.0070404113104933766
    w5  w93  -0.0265181325255109
    w5  w94  -0.025189600909313756
    w5  w95  -0.09726821192924898
    w5  w96  -0.03447667715008794
    w5  w97  -0.05940678845707726
    w5  w98  0.032436979865258855
    w5  w99  0.022946626070724122
    w5  w100  -0.032458998235638914
    w5  w101  0.033510991332986725
    w5  w102  -0.0277312820846514
    w5  w103  0.054980883311896524
    w5  w104  0.1307295719594477
    w5  w105  -0.03446200123510812
    w5  w106  -0.02799276458237736
    w5  w107  0.05945360145137281
    w5  w108  0.03653971792585512
    w5  w109  -0.001587020556333132
    w5  w110  -0.04068593126083483
    w5  w111  0.07556173950938899
    w5  w112  0.1420304450858861
    w5  w113  -0.012608558571742891
    w5  w114  0.03607800314656295
    w5  w115  0.06816686964108339
    w5  w116  0.12210423880630189
    w5  w117  0.06301811420207117
    w5  w118  0.01393705095973106
    w5  w119  0.06723000239255622
    w5  w120  0.011014804534590684
    w5  w121  -0.08075420094567709
    w5  w122  0.04029222645806078
    w5  w123  0.002286695303819199
    w5  w124  0.027573488661787673
    w5  w125  -0.08596182161004833
    w5  w126  -0.0013507288003204334
    w5  w127  0.012262370506615163
    w5  w128  0.07101338872683174
    w5  w129  0.010466812871684734
    w5  w130  -0.07349052492840909
    w5  w131  -0.03797489932537358
    w5  w132  -0.009246784485867406
    w5  w133  0.007115857377788575
    w5  w134  0.013327764784701187
    w5  w135  0.07240703792631371
    w5  w136  0.023434118132387577
    w5  w137  0.0010171235040917369
    w5  w138  -0.08664987568837856
    w5  w139  -0.0780454230701283
    w5  w140  -0.03746087305157294
    w5  w141  0.012935157457866804
    w5  w142  0.06407875889608944
    w5  w143  0.0013990183645734289
    w5  w144  0.043046447126293096
    w5  w145  -0.01069208145979069
    w5  w146  0.06318963065811266
    w5  w147  0.03780168490057195
    w5  w148  -0.01605381749227776
    w5  w149  -0.08997011296598309
    w5  w150  -0.01779991384302915
    w5  w151  -0.036226112657325546
    w5  w152  0.07613956039397217
    w5  w153  -0.016921502273228816
    w5  w154  0.0800976176476965
    w5  w155  0.12292398139704333
    w5  w156  0.05587817389542365
    w5  w157  0.028009081760055652
    w5  w158  -0.008787722333300071
    w5  w159  -0.10385747952141355
    w5  w160  0.07038445981369398
    w5  w161  -0.07803342128184726
    w5  w162  0.015426991874057628
    w5  w163  0.01624732537608417
    w5  w164  -0.08159071876907768
    w5  w165  0.02889651976224015
    w5  w166  -0.052182555958335194
    w5  w167  -0.031659513707499
    w5  w168  0.027309611504149026
    w5  w169  -0.009975975014560521
    w5  w170  -0.13812858119282642
    w5  w171  0.04510607013776103
    w5  w172  0.03840528852965274
    w5  w173  -0.05333872317483838
    w5  w174  0.01563044459400127
    w5  w175  0.002776873364491231
    w5  w176  -0.010923191884569212
    w5  w177  -0.07810241387054041
    w5  w178  -0.08681202442733113
    w5  w179  -0.061693581161237125
    w5  w180  0.05500667914851512
    w5  w181  0.048625176218260395
    w5  w182  -0.10899714471482745
    w5  w183  0.0015111650598646647
    w5  w184  0.06799042241322745
    w5  w185  0.0413282307887061
    w5  w186  0.10332016405392475
    w5  w187  0.04661575833617199
    w5  w188  -0.046062710500568045
    w5  w189  -0.02942004345218999
    w5  w190  -0.030441196361561795
    w5  w191  -0.0966093261499739
    w5  w192  0.013390031810473088
    w5  w193  -0.052263813355261236
    w5  w194  0.005094105707880031
    w5  w195  -0.037256982362122944
    w5  w196  -0.10404267730323496
    w5  w197  0.014809536166125705
    w5  w198  -0.07691305797974189
    w5  w199  0.02359897758777517
    w6  w6  0.32133447853229724
    w6  w7  0.03328427299692368
    w6  w8  0.0033539874833266444
    w6  w9  0.14167755368373122
    w6  w10  -0.06069069104223441
    w6  w11  -0.003056305031355167
    w6  w12  0.0941676654285667
    w6  w13  0.07225299469439452
    w6  w14  -0.08326526898011491
    w6  w15  0.07923072727562924
    w6  w16  0.044234958813435796
    w6  w17  0.01816171245642672
    w6  w18  -0.0826605464817273
    w6  w19  0.09523321903823692
    w6  w20  0.05902823011362729
    w6  w21  0.03617486238004997
    w6  w22  0.005361933839024305
    w6  w23  0.12120633731082112
    w6  w24  -0.09466655813619468
    w6  w25  -0.05182006674851317
    w6  w26  -0.025945103970885734
    w6  w27  0.08387596112372364
    w6  w28  -0.042645349353117534
    w6  w29  -0.054415912143231174
    w6  w30  -0.022397712256428108
    w6  w31  -0.07685265543683786
    w6  w32  0.01093817740972688
    w6  w33  0.08972573092291783
    w6  w34  0.03320337495898361
    w6  w35  -0.02134890864012577
    w6  w36  -0.05099592076101973
    w6  w37  0.03682028661229078
    w6  w38  -0.11847756353756221
    w6  w39  0.002117423457189885
    w6  w40  0.019673205696839252
    w6  w41  -0.09081774208389573
    w6  w42  -0.06502681885573823
    w6  w43  0.06016100570458709
    w6  w44  -0.08894441416520768
    w6  w45  0.14127347414384822
    w6  w46  0.011888087171366864
    w6  w47  -0.0454395602683563
    w6  w48  -0.06825820501423169
    w6  w49  -0.026809723999144792
    w6  w50  0.007744448896967722
    w6  w51  0.06756390028508548
    w6  w52  -0.013577820833632502
    w6  w53  -0.05331890465740921
    w6  w54  0.014793589725549087
    w6  w55  0.034613800667102006
    w6  w56  -0.014700810544981744
    w6  w57  0.06793849615825874
    w6  w58  0.05632092960954496
    w6  w59  0.0701958811612622
    w6  w60  0.025092295429990683
    w6  w61  -0.07250809480544758
    w6  w62  0.003225227779909739
    w6  w63  0.006195538190826206
    w6  w64  0.02732916830226236
    w6  w65  -0.02997565977611464
    w6  w66  -0.08005107545900242
    w6  w67  -0.020631088355233477
    w6  w68  -0.06425835951886892
    w6  w69  0.10685201848647753
    w6  w70  0.02169293839166983
    w6  w71  0.016733899873391307
    w6  w72  0.027510574715572438
    w6  w73  0.09526023402438112
    w6  w74  0.04476900600679571
    w6  w75  -0.09786349662702139
    w6  w76  -0.023147351146692703
    w6  w77  0.0859810261646661
    w6  w78  -0.00935736084000646
    w6  w79  -0.027948678889202692
    w6  w80  -0.012707709541777652
    w6  w81  -0.05015058393098156
    w6  w82  0.14173559942562253
    w6  w83  -0.03602170232796913
    w6  w84  -0.08669551178893327
    w6  w85  -0.023159842758837097
    w6  w86  0.01758464792908416
    w6  w87  -0.13836873097482819
    w6  w88  0.08061730252659101
    w6  w89  0.10419475274115364
    w6  w90  -0.15448612693725464
    w6  w91  0.09746873027714369
    w6  w92  0.019103138949102923
    w6  w93  0.05504448255801374
    w6  w94  0.04141402788526783
    w6  w95  0.08038931303264316
    w6  w96  0.0648420791281373
    w6  w97  0.0588479797123695
    w6  w98  -0.06378396247016485
    w6  w99  -0.027323638957066344
    w6  w100  0.11553443760206408
    w6  w101  0.018887933796484093
    w6  w102  -0.03088263796039905
    w6  w103  -0.06430763864059959
    w6  w104  -0.011331232794122641
    w6  w105  -0.02907749088821839
    w6  w106  0.04405081537459756
    w6  w107  -0.010982665131056741
    w6  w108  0.12402899348389086
    w6  w109  -0.05859635645073623
    w6  w110  0.0053860121370019375
    w6  w111  0.04018197818792987
    w6  w112  -0.050711354052484864
    w6  w113  -0.014004168591978956
    w6  w114  -0.009193168109062321
    w6  w115  -0.057694123960531855
    w6  w116  -0.10372553345052822
    w6  w117  0.0015770232825870316
    w6  w118  0.14622803362095108
    w6  w119  0.06075195973915135
    w6  w120  0.07157789981012218
    w6  w121  -0.07373994913914379
    w6  w122  0.06856234478688117
    w6  w123  0.06815649017061234
    w6  w124  -0.02817134674286719
    w6  w125  0.09996185368892428
    w6  w126  0.12133408340365029
    w6  w127  0.07724822948927665
    w6  w128  -0.08244704630791674
    w6  w129  -0.042864583023145976
    w6  w130  -0.006467777778979124
    w6  w131  0.0704549200779676
    w6  w132  -0.030833434427871616
    w6  w133  0.02990591611818317
    w6  w134  -0.12620963675566307
    w6  w135  -0.043203100440315466
    w6  w136  -0.011737437164973587
    w6  w137  0.059483749981543814
    w6  w138  0.01745866123495964
    w6  w139  0.08871019680299695
    w6  w140  0.06300145284047862
    w6  w141  0.021702540367534245
    w6  w142  0.06686823067228173
    w6  w143  -0.1279905425385156
    w6  w144  -0.11979538259972977
    w6  w145  -0.053542806940723615
    w6  w146  -0.09104387233635762
    w6  w147  0.06449121476197262
    w6  w148  -0.07399401796096386
    w6  w149  0.11890435324976771
    w6  w150  0.0416344489557182
    w6  w151  0.04643859113147812
    w6  w152  0.03178907899325403
    w6  w153  -0.23696363494215622
    w6  w154  -0.008802477963440055
    w6  w155  -0.029751431400209388
    w6  w156  0.02186470845291404
    w6  w157  0.031773175249244966
    w6  w158  0.1310483373604656
    w6  w159  0.1016479055183331
    w6  w160  -0.15998114409033062
    w6  w161  0.04340249391783586
    w6  w162  0.04749689037158478
    w6  w163  -0.07741858247432849
    w6  w164  0.15700201771280162
    w6  w165  -0.061974140877448694
    w6  w166  -0.027184751130742337
    w6  w167  0.0002601556365481
    w6  w168  -0.0461507978124308
    w6  w169  0.13664006641188225
    w6  w170  0.0773348926110355
    w6  w171  -0.06997755988789153
    w6  w172  -0.036341494233669905
    w6  w173  -0.06595695854729201
    w6  w174  -0.032966069934682214
    w6  w175  -0.06527483733716152
    w6  w176  -0.03833967421266446
    w6  w177  0.032765165972616334
    w6  w178  0.06665507814849352
    w6  w179  0.008482925040835027
    w6  w180  0.06854018231379572
    w6  w181  -0.17035309981698588
    w6  w182  0.020428888694576403
    w6  w183  -0.015097339558416809
    w6  w184  -0.056451773050860625
    w6  w185  0.00035835500420974934
    w6  w186  -0.22889083679009573
    w6  w187  0.04997124719802141
    w6  w188  0.07327644603297719
    w6  w189  -0.07067253008154431
    w6  w190  0.11824334053454472
    w6  w191  0.13450982221372437
    w6  w192  0.036940001787288734
    w6  w193  -0.09273395242499172
    w6  w194  -0.11235003717416876
    w6  w195  0.05519333873526131
    w6  w196  -0.0589646507985093
    w6  w197  -0.060245875113313245
    w6  w198  0.07012169541791113
    w6  w199  -0.04076921058396025
    w7  w7  0.36043405048752597
    w7  w8  0.025332632495073816
    w7  w9  -0.02636082519969989
    w7  w10  -0.021334555144119305
    w7  w11  0.09207644588446601
    w7  w12  -0.017095173560384036
    w7  w13  -0.07087362076184421
    w7  w14  -0.12445020126691062
    w7  w15  -0.08209204367366316
    w7  w16  0.05764934337815345
    w7  w17  -0.0694037503882426
    w7  w18  0.023906031179734718
    w7  w19  0.0877665436876577
    w7  w20  0.13341795549363233
    w7  w21  0.013007739965458677
    w7  w22  0.017704574279586757
    w7  w23  -0.010829332727914193
    w7  w24  0.07174220051402581
    w7  w25  -0.09790799440591479
    w7  w26  -0.0017598032277479298
    w7  w27  -0.01692499369933001
    w7  w28  0.02418865665466747
    w7  w29  -0.055251106828403854
    w7  w30  0.0728286758778049
    w7  w31  -0.016912254083050825
    w7  w32  0.13630749629984398
    w7  w33  -0.05893181957180703
    w7  w34  0.006481910274602548
    w7  w35  -0.04949886067354067
    w7  w36  0.051350176406882754
    w7  w37  -0.04612898695309135
    w7  w38  0.05689482275365965
    w7  w39  0.05947579515123079
    w7  w40  0.05595100879410465
    w7  w41  -0.026493420583593854
    w7  w42  -0.0014093006785685102
    w7  w43  0.11123453129544951
    w7  w44  -0.12381196788953758
    w7  w45  0.025521938656698353
    w7  w46  0.0377119028262544
    w7  w47  0.016157690701551146
    w7  w48  -0.08961805149261715
    w7  w49  -0.009470802818172558
    w7  w50  -0.011977555324379848
    w7  w51  0.056297981197159536
    w7  w52  -0.084275339338671
    w7  w53  -0.03390370168720462
    w7  w54  0.03555875239166204
    w7  w55  0.08195259621293116
    w7  w56  -0.014086282699019395
    w7  w57  -0.04019964519873468
    w7  w58  -0.03912222335511133
    w7  w59  -0.11200959354527396
    w7  w60  0.047886440374273316
    w7  w61  0.0410351855310634
    w7  w62  -0.04502029403986224
    w7  w63  -0.043335038953129096
    w7  w64  0.10341000480854853
    w7  w65  -0.08774026878653898
    w7  w66  -0.006734928186102393
    w7  w67  -0.05297413600649329
    w7  w68  0.07392419556631938
    w7  w69  -0.027479758362601962
    w7  w70  0.13631110754603884
    w7  w71  0.08414325115858835
    w7  w72  -0.03494333442956557
    w7  w73  -0.11075967727984302
    w7  w74  -0.0018903508542812478
    w7  w75  -0.025741975258816364
    w7  w76  0.06583283824317918
    w7  w77  0.06379324868362284
    w7  w78  -0.01910878269393999
    w7  w79  -0.07936633758361791
    w7  w80  -0.10749883694465674
    w7  w81  0.04870223628233491
    w7  w82  0.10305210955115249
    w7  w83  0.013589219017904663
    w7  w84  -0.03716018927314789
    w7  w85  0.058994589001680836
    w7  w86  0.19441209125456332
    w7  w87  -0.11038894413770338
    w7  w88  -0.029783793742080778
    w7  w89  0.05128664353119754
    w7  w90  0.06626966986806598
    w7  w91  -0.010109774475235648
    w7  w92  0.06694525787082282
    w7  w93  0.04621414144886201
    w7  w94  0.050560361603070474
    w7  w95  0.06648873367897794
    w7  w96  0.14984380815349432
    w7  w97  0.00040514634977561814
    w7  w98  0.02790187910047961
    w7  w99  -0.02994597999864063
    w7  w100  0.10090274068050996
    w7  w101  0.0020300876071596983
    w7  w102  0.006075209222171291
    w7  w103  0.06525792416054364
    w7  w104  -0.15806480044746563
    w7  w105  -0.05976793221771496
    w7  w106  0.047825915534768275
    w7  w107  -0.166183666936809
    w7  w108  -0.049836488581018856
    w7  w109  0.014126267670262684
    w7  w110  -0.05102850010595561
    w7  w111  -0.1644097505021557
    w7  w112  0.0016054870554155097
    w7  w113  0.037457656626700475
    w7  w114  -0.007817610616114868
    w7  w115  0.030764528780553024
    w7  w116  -0.09138360488666031
    w7  w117  -0.14542968763846054
    w7  w118  0.009136196133144344
    w7  w119  -0.007614984468453784
    w7  w120  -0.011442163843113612
    w7  w121  0.075033427382978
    w7  w122  -0.03971632822166433
    w7  w123  -0.0071277615277544
    w7  w124  -0.05998098510232164
    w7  w125  0.12212396977164519
    w7  w126  -0.0127213855084737
    w7  w127  -0.07587709473812114
    w7  w128  -0.06521070355241365
    w7  w129  -0.020241035124647085
    w7  w130  0.02272393876414505
    w7  w131  0.04916161086291136
    w7  w132  0.06167042965927922
    w7  w133  -0.04250508275397489
    w7  w134  0.02038729319053575
    w7  w135  -0.04711191578419232
    w7  w136  0.05887148806924715
    w7  w137  -0.08520649314537716
    w7  w138  0.007713434846079132
    w7  w139  0.09757125081688148
    w7  w140  -0.014675626804111786
    w7  w141  -0.009721937364352737
    w7  w142  -0.023325620848564377
    w7  w143  0.011999892030984928
    w7  w144  0.036249587966479285
    w7  w145  0.06246534262745651
    w7  w146  -0.0027039748722939667
    w7  w147  -0.05941651260302808
    w7  w148  -0.07667912786001023
    w7  w149  -0.047818433095192577
    w7  w150  0.057746550136697244
    w7  w151  0.014457680079755945
    w7  w152  -0.07713769986827325
    w7  w153  -0.05395372513535658
    w7  w154  -0.08356606780312803
    w7  w155  -0.10993235079289986
    w7  w156  -0.05462654184502116
    w7  w157  0.06280783938406677
    w7  w158  -0.058287740359498165
    w7  w159  0.07618249348111225
    w7  w160  -0.0007608115615169991
    w7  w161  0.012657136548481756
    w7  w162  -0.06026705251887684
    w7  w163  -0.04796986202734547
    w7  w164  0.061790353841023854
    w7  w165  -0.06184043283646734
    w7  w166  0.09989358911527267
    w7  w167  0.06958069384290856
    w7  w168  -0.06721117221331545
    w7  w169  0.06954096847352764
    w7  w170  0.08791494666575879
    w7  w171  -0.04640308822491636
    w7  w172  -0.02462994325606856
    w7  w173  0.10517922667664767
    w7  w174  -0.03904515799600262
    w7  w175  0.02905493561278052
    w7  w176  -0.10278942621148622
    w7  w177  0.053571839710171244
    w7  w178  0.10518343016397655
    w7  w179  -0.06784512934043498
    w7  w180  -0.0874054218200566
    w7  w181  -0.05360195403555402
    w7  w182  0.06670954044509707
    w7  w183  -0.033550218734505574
    w7  w184  -0.16298679189114657
    w7  w185  -0.021848991192336922
    w7  w186  -0.03773164395033149
    w7  w187  -0.09172869442530311
    w7  w188  0.048559135580640886
    w7  w189  0.018714985100137076
    w7  w190  -0.079343091460008
    w7  w191  0.039989549768365266
    w7  w192  0.10333285769813302
    w7  w193  0.05982441342041604
    w7  w194  0.061927994135977826
    w7  w195  0.09196277240097386
    w7  w196  0.10259782298993368
    w7  w197  -0.0015151003776574775
    w7  w198  0.07687154272366176
    w7  w199  -0.1182477103374183
    w8  w8  0.26725010355248846
    w8  w9  -0.09370926052294383
    w8  w10  0.08164005717652972
    w8  w11  -0.008410013349640243
    w8  w12  0.03013721186738691
    w8  w13  -0.07820545259304307
    w8  w14  0.02580782138319628
    w8  w15  -0.08263235474536836
    w8  w16  -0.09060773301688979
    w8  w17  -0.00905443907947191
    w8  w18  -0.030300208518942582
    w8  w19  0.033586702310603234
    w8  w20  0.03193688069918413
    w8  w21  0.07577619949380136
    w8  w22  0.04609267011766888
    w8  w23  0.018173537719222085
    w8  w24  -0.06080000577553124
    w8  w25  -0.06942150861614917
    w8  w26  -0.09953039504391685
    w8  w27  0.013120818741852553
    w8  w28  -0.08858317275389246
    w8  w29  -0.01071964165898383
    w8  w30  0.042947564046019925
    w8  w31  -0.060783128441617755
    w8  w32  -0.05004063479808515
    w8  w33  0.12410573222349178
    w8  w34  0.002773523134366344
    w8  w35  0.04086821114298209
    w8  w36  0.018584333619631684
    w8  w37  -0.06962931140795858
    w8  w38  -0.0038702601626603387
    w8  w39  -0.011158319312057597
    w8  w40  -0.07720017908879406
    w8  w41  0.0868909229608115
    w8  w42  0.030800645558096234
    w8  w43  0.0742854246397374
    w8  w44  -0.12726210923685333
    w8  w45  0.009887237145449266
    w8  w46  -0.026364822253455378
    w8  w47  0.09693574672094753
    w8  w48  -0.037688351783888
    w8  w49  -0.01641338555084947
    w8  w50  -0.06949103750584756
    w8  w51  -0.024820347754364428
    w8  w52  -0.07013005890588259
    w8  w53  -0.0019029026036905985
    w8  w54  0.10183155406532271
    w8  w55  -0.013691312114577138
    w8  w56  0.08977169082364873
    w8  w57  0.017250908011169006
    w8  w58  0.004164754342989565
    w8  w59  -0.017712207098329564
    w8  w60  -0.11536856085554258
    w8  w61  -0.09949498135034433
    w8  w62  0.07256872715232124
    w8  w63  -0.015021709535325554
    w8  w64  0.028503382738539876
    w8  w65  -0.025596810446534612
    w8  w66  0.0037094711170459387
    w8  w67  -0.0631391594721558
    w8  w68  -0.009970906773709239
    w8  w69  -0.006918595353506907
    w8  w70  0.011987497661801046
    w8  w71  -0.040977311687879686
    w8  w72  -0.015543625490601171
    w8  w73  -0.035859594900141366
    w8  w74  0.047659356968203295
    w8  w75  0.02770829326333097
    w8  w76  -0.10026812009754722
    w8  w77  0.019980216350785323
    w8  w78  -0.06832602772515267
    w8  w79  0.012555792677716003
    w8  w80  -0.007483867999088312
    w8  w81  0.05436543177517512
    w8  w82  0.041696409722487525
    w8  w83  0.01977653653853594
    w8  w84  -0.09202602685743239
    w8  w85  -0.013152959807495097
    w8  w86  -0.02224774634491019
    w8  w87  0.00032191643621491575
    w8  w88  -0.04084462353244769
    w8  w89  -0.040572946077466
    w8  w90  -0.013504714186336272
    w8  w91  -0.0872029057146228
    w8  w92  -0.050358000564164285
    w8  w93  0.010401188671793358
    w8  w94  0.0010905884325598796
    w8  w95  -0.034722381099274904
    w8  w96  -0.03345246982387057
    w8  w97  -0.06487093470500825
    w8  w98  -0.09638125338646701
    w8  w99  -0.021178769724241372
    w8  w100  0.004691703457659829
    w8  w101  -0.053398213029231145
    w8  w102  0.024549150761317886
    w8  w103  -0.14762139004299524
    w8  w104  0.020831129199569653
    w8  w105  0.06166069310744721
    w8  w106  -0.02377362682504256
    w8  w107  0.13398467618044269
    w8  w108  -0.06288503061865805
    w8  w109  0.09036627746700372
    w8  w110  0.023334585959171754
    w8  w111  -0.042216448008778405
    w8  w112  -0.03726988010260149
    w8  w113  0.09002543936188395
    w8  w114  -0.13051075346415833
    w8  w115  -0.017842811090541734
    w8  w116  -0.0766170048205441
    w8  w117  -0.07853291176074514
    w8  w118  -0.001216443617120766
    w8  w119  -0.06488266821401502
    w8  w120  -0.10315278798825937
    w8  w121  0.0016205976694196624
    w8  w122  -0.10160647884754594
    w8  w123  0.040350529693228346
    w8  w124  -0.09595024248741442
    w8  w125  0.026056357761575537
    w8  w126  -0.017534663007753498
    w8  w127  -0.033865271378521564
    w8  w128  -0.013689617120427662
    w8  w129  0.02414298570399031
    w8  w130  0.06752098561687987
    w8  w131  -0.043259280817646316
    w8  w132  0.042982503733351704
    w8  w133  0.10355205644816923
    w8  w134  -0.03611906570465554
    w8  w135  -0.05627962762874059
    w8  w136  -0.002553332727680963
    w8  w137  -0.08019110893178279
    w8  w138  0.008664080470288956
    w8  w139  -0.026079462469251333
    w8  w140  0.05491343098161114
    w8  w141  0.11190881242848254
    w8  w142  -0.2029481748642815
    w8  w143  0.10185196106973614
    w8  w144  -0.0015895603469881588
    w8  w145  0.017606160218613758
    w8  w146  -0.016009344295832655
    w8  w147  -0.027975971139859297
    w8  w148  0.04395068769488829
    w8  w149  0.04696005341221769
    w8  w150  -0.06902837545423131
    w8  w151  0.06092238365339851
    w8  w152  -0.07692729054139726
    w8  w153  0.1095675201646216
    w8  w154  -0.17219429998021796
    w8  w155  -0.006739827570628718
    w8  w156  0.0075160741068706315
    w8  w157  0.006286778361769923
    w8  w158  0.002634514274634101
    w8  w159  0.048916169829274325
    w8  w160  -0.005862072482555098
    w8  w161  -0.024591695173969176
    w8  w162  -0.12677829905764967
    w8  w163  0.024324768772944504
    w8  w164  0.039262528947355636
    w8  w165  0.01833450784247549
    w8  w166  0.11830452956668545
    w8  w167  0.01964326037255694
    w8  w168  -0.07045527433443309
    w8  w169  -0.06257739189728201
    w8  w170  0.1064393581429814
    w8  w171  0.11168217229405897
    w8  w172  -0.015323075940821392
    w8  w173  0.012925618175681265
    w8  w174  -0.015877049488531716
    w8  w175  -0.09269706904486606
    w8  w176  0.029938913274176703
    w8  w177  0.04251899775722437
    w8  w178  0.03650939704135676
    w8  w179  0.06686536240224228
    w8  w180  -0.019254513757277894
    w8  w181  0.005273638925562867
    w8  w182  0.08810258787818641
    w8  w183  0.06605905706357988
    w8  w184  0.010094024547749445
    w8  w185  -0.011615030199015473
    w8  w186  0.020527258917451056
    w8  w187  -0.029221377271780438
    w8  w188  -0.05811698542257012
    w8  w189  0.021255925087199135
    w8  w190  -0.026476532050639035
    w8  w191  -0.018021307881646912
    w8  w192  -0.041378597381020746
    w8  w193  0.05712769627637192
    w8  w194  0.05111455490486286
    w8  w195  -0.101542822848712
    w8  w196  0.053305734118950954
    w8  w197  -0.02486695617268707
    w8  w198  0.06442736514531537
    w8  w199  -0.044890015861101404
    w9  w9  0.4750261919666796
    w9  w10  -0.015602176344132369
    w9  w11  0.004039262969480261
    w9  w12  0.13978965554989561
    w9  w13  0.11152904171442123
    w9  w14  0.01584704280265615
    w9  w15  0.03979551451937109
    w9  w16  0.06109415344013027
    w9  w17  -0.007060326246135858
    w9  w18  0.03701304419198374
    w9  w19  0.028472905214776533
    w9  w20  0.03806004260598961
    w9  w21  0.06023399150285453
    w9  w22  -0.015418890291923854
    w9  w23  0.09588958895547457
    w9  w24  -0.12624412264492707
    w9  w25  0.06368766952640166
    w9  w26  0.027454690181511705
    w9  w27  -0.019996440574441377
    w9  w28  0.02344330537578813
    w9  w29  0.00693833265974601
    w9  w30  0.05579098587499118
    w9  w31  -0.054933681927471154
    w9  w32  0.05116312129092755
    w9  w33  0.12016219480460504
    w9  w34  -0.015053948997247017
    w9  w35  0.026120013401753777
    w9  w36  -0.0022930694199731353
    w9  w37  0.07098644985165989
    w9  w38  -0.028987718069872048
    w9  w39  -0.03238911665794792
    w9  w40  0.049627178395777044
    w9  w41  -0.1995427667451938
    w9  w42  -0.010054080219667675
    w9  w43  0.06236797102800674
    w9  w44  -0.03517193460206002
    w9  w45  0.1508494557586437
    w9  w46  0.14070396531623594
    w9  w47  -0.2152151694970587
    w9  w48  -0.03038495442861613
    w9  w49  -0.038677077694332596
    w9  w50  0.049280511536286285
    w9  w51  0.09737778403457649
    w9  w52  -0.05291427980121482
    w9  w53  -0.07663238258859809
    w9  w54  0.003514083810461124
    w9  w55  -0.08301087805371651
    w9  w56  0.03088437990208424
    w9  w57  -0.007860611941889114
    w9  w58  -0.009237923716952784
    w9  w59  0.11976778096430937
    w9  w60  0.18782420511552264
    w9  w61  -0.0075594731209399245
    w9  w62  0.009600959758644325
    w9  w63  0.0677433118068634
    w9  w64  -0.018820146230802064
    w9  w65  -0.04847061507199302
    w9  w66  -0.15527153140964714
    w9  w67  0.04795800161505722
    w9  w68  -0.10545096677763628
    w9  w69  0.08155617476599714
    w9  w70  -0.058236163438995264
    w9  w71  -0.01378337939307727
    w9  w72  -0.09870271967024831
    w9  w73  0.1237882706783627
    w9  w74  -0.02038176393717048
    w9  w75  0.050429103541774524
    w9  w76  0.033186907462380184
    w9  w77  0.0580979337699192
    w9  w78  0.08826617666272596
    w9  w79  -0.03493642100961061
    w9  w80  0.1261411597236303
    w9  w81  -0.10376128732694094
    w9  w82  0.08675872347883741
    w9  w83  0.016834898352524913
    w9  w84  0.11965567350239611
    w9  w85  0.13835760394104019
    w9  w86  -0.005023747929141857
    w9  w87  -0.15308446813532872
    w9  w88  0.026729669318018595
    w9  w89  0.08925907805333165
    w9  w90  -0.26459730455668634
    w9  w91  0.05409286324041337
    w9  w92  0.09043254692429446
    w9  w93  0.0785100110438329
    w9  w94  0.04025301263391571
    w9  w95  0.062245614168402554
    w9  w96  0.08640269819856511
    w9  w97  0.1500899009195119
    w9  w98  -0.07174185327992011
    w9  w99  -0.00440000761155769
    w9  w100  0.03708029844635913
    w9  w101  0.0249234375585303
    w9  w102  -0.12638829621139946
    w9  w103  0.00939703538416775
    w9  w104  0.08322777263947985
    w9  w105  -0.09103023487013652
    w9  w106  0.033306974677029
    w9  w107  -0.13744062395113074
    w9  w108  0.21891152432859734
    w9  w109  -0.0174490535063672
    w9  w110  -0.05157701791735009
    w9  w111  -0.040395041228448836
    w9  w112  0.06419094773540321
    w9  w113  -0.16215046215806914
    w9  w114  0.04750661800334356
    w9  w115  0.049532219612321904
    w9  w116  -0.07636590968857344
    w9  w117  -0.08852822623720115
    w9  w118  0.1195864843564187
    w9  w119  0.03537945063429132
    w9  w120  0.08702041355439459
    w9  w121  -0.16605874664367878
    w9  w122  0.1813905640868492
    w9  w123  0.065020325531315
    w9  w124  0.07024053230461691
    w9  w125  0.024381768961365652
    w9  w126  0.06888074889929942
    w9  w127  0.12242062813694876
    w9  w128  -0.010814764278460943
    w9  w129  0.012417507286651952
    w9  w130  -0.053600193888876595
    w9  w131  0.1927781651885704
    w9  w132  0.0706296284517909
    w9  w133  0.06562151633453826
    w9  w134  0.005599039826068564
    w9  w135  0.01801254442109101
    w9  w136  -0.026834458474326438
    w9  w137  0.01703385985058867
    w9  w138  -0.0013853549624182723
    w9  w139  -0.008431454500317083
    w9  w140  0.011355477435757535
    w9  w141  -0.004978727290358021
    w9  w142  0.10591232609149243
    w9  w143  -0.1424296714466643
    w9  w144  -0.1046949106743564
    w9  w145  -0.017705440663987642
    w9  w146  0.019024489503295713
    w9  w147  0.1536472285827428
    w9  w148  -0.019123940151561904
    w9  w149  -0.018549937839375377
    w9  w150  0.04887100063651775
    w9  w151  -0.031843419349604656
    w9  w152  0.14666437260788562
    w9  w153  -0.23021369721094903
    w9  w154  0.0765623118190752
    w9  w155  0.12219970539498337
    w9  w156  0.07297493241676561
    w9  w157  0.07053628023061766
    w9  w158  0.10781092881983734
    w9  w159  -0.09428997108798429
    w9  w160  -0.15046252815308497
    w9  w161  0.10822899320833297
    w9  w162  0.19860998084184708
    w9  w163  -0.03794058118746728
    w9  w164  0.06160919194476823
    w9  w165  -0.11425095503656081
    w9  w166  -0.04756899779056636
    w9  w167  -0.02442406023533911
    w9  w168  -0.06748174080440919
    w9  w169  -0.030428436152117336
    w9  w170  -0.18402322514750508
    w9  w171  0.010166639029317486
    w9  w172  0.020573856011782497
    w9  w173  0.06253482987975122
    w9  w174  0.05873638557990533
    w9  w175  -0.03353829732513838
    w9  w176  -0.08186928399810921
    w9  w177  -0.05612505617127258
    w9  w178  -0.05838706212136768
    w9  w179  -0.009552619324744964
    w9  w180  0.08645325524877617
    w9  w181  0.10967041427867376
    w9  w182  -0.09584845601283169
    w9  w183  -0.11408835413765336
    w9  w184  -0.018402008937272455
    w9  w185  0.033762690918186775
    w9  w186  -0.18854762860168198
    w9  w187  0.07059834835677252
    w9  w188  0.07258240778437422
    w9  w189  -0.03176957110853279
    w9  w190  -0.0637522671833748
    w9  w191  -0.07439685957502609
    w9  w192  0.05541567244123678
    w9  w193  -0.2288247087320044
    w9  w194  -0.03035481843477107
    w9  w195  0.1005055900003449
    w9  w196  -0.2037341016100222
    w9  w197  -0.11762117021927164
    w9  w198  0.007641790014520512
    w9  w199  -0.04684675945089046
    w10  w10  0.2192000745148013
    w10  w11  0.03049688276676469
    w10  w12  0.016188716336528127
    w10  w13  -0.09530732442424014
    w10  w14  0.08221314871247222
    w10  w15  0.012333590213290405
    w10  w16  -0.08946175495078854
    w10  w17  -0.013253814381067928
    w10  w18  -0.05129998370071806
    w10  w19  -0.013889908332926618
    w10  w20  -0.06657406734112603
    w10  w21  0.07911325163884855
    w10  w22  -0.06394431953865826
    w10  w23  -0.01084707360713406
    w10  w24  -0.011448643084335597
    w10  w25  -0.01236973745667553
    w10  w26  -0.08410468762588859
    w10  w27  -0.057556786262830756
    w10  w28  0.004820485561156529
    w10  w29  0.00916041190287161
    w10  w30  -0.020096086083462684
    w10  w31  0.029389696474589763
    w10  w32  -0.07802918866463776
    w10  w33  0.13290462850833726
    w10  w34  -0.027163017715401003
    w10  w35  0.13402132234872174
    w10  w36  0.0008751619676816095
    w10  w37  0.006305687745799632
    w10  w38  0.03402475504482238
    w10  w39  -0.030708378887218286
    w10  w40  -0.020884244820126685
    w10  w41  0.006072907174395568
    w10  w42  0.012914713718144932
    w10  w43  -0.0035234600468742315
    w10  w44  -0.011642862062167175
    w10  w45  -0.0540884105781211
    w10  w46  -0.015259869658666344
    w10  w47  0.004697342494049317
    w10  w48  -0.04078659363198527
    w10  w49  0.021430381984062864
    w10  w50  -0.033050944003606066
    w10  w51  -0.007976211480444017
    w10  w52  -0.03865554247171447
    w10  w53  0.01862246519869974
    w10  w54  0.08229236749686344
    w10  w55  0.07356689026761218
    w10  w56  0.08406110460631812
    w10  w57  -0.024538035753801566
    w10  w58  -0.019030698849581886
    w10  w59  0.0503635532371617
    w10  w60  0.00960885187811513
    w10  w61  -0.07483255021261567
    w10  w62  0.08929494597837305
    w10  w63  0.0023432119338656354
    w10  w64  0.02927638908856907
    w10  w65  0.061376288093219294
    w10  w66  0.03147925664386542
    w10  w67  -0.006023227235276542
    w10  w68  -0.06439313110258801
    w10  w69  0.06592024911393222
    w10  w70  -0.014275684111021295
    w10  w71  0.013322413532190488
    w10  w72  -0.008613479705885892
    w10  w73  0.00427553629770452
    w10  w74  0.056250301654348314
    w10  w75  0.07705384297723845
    w10  w76  -0.10599666104224972
    w10  w77  -0.08490675130037241
    w10  w78  -0.016156746113042394
    w10  w79  -0.005482077850084972
    w10  w80  0.041279651028010775
    w10  w81  0.04985207421289336
    w10  w82  0.028109523613318324
    w10  w83  0.021210854126072043
    w10  w84  0.029581026305096698
    w10  w85  0.06606947237679105
    w10  w86  -0.1011264062174509
    w10  w87  0.09086378646280834
    w10  w88  -0.07037953748701192
    w10  w89  -0.06817393068815865
    w10  w90  -0.0009589885847018302
    w10  w91  -0.05445194587918149
    w10  w92  -0.009110690859391679
    w10  w93  0.03783740036281657
    w10  w94  -0.02502679409603005
    w10  w95  -0.1770076845356515
    w10  w96  -0.029724405909624618
    w10  w97  -0.033643638330091645
    w10  w98  0.03509754415089439
    w10  w99  0.0036601629380783036
    w10  w100  0.004669267995924066
    w10  w101  -0.0472554288757185
    w10  w102  -0.08160674320196785
    w10  w103  -0.13441290915163218
    w10  w104  0.13762174565781612
    w10  w105  -0.05063833389064466
    w10  w106  -0.07514161844263974
    w10  w107  0.09982442608346583
    w10  w108  0.06984471814012662
    w10  w109  0.04847741090361484
    w10  w110  0.04966003945118694
    w10  w111  -0.07010970849746895
    w10  w112  0.05767020345829896
    w10  w113  0.011799982871565022
    w10  w114  -0.010350026342086576
    w10  w115  -0.01960352925281813
    w10  w116  -0.014270293995018765
    w10  w117  -0.023325600242153327
    w10  w118  -0.056213544342335275
    w10  w119  -0.06325472979860812
    w10  w120  -0.13101018948592852
    w10  w121  -0.03785013194195425
    w10  w122  -0.000543523132311019
    w10  w123  0.05486719825852009
    w10  w124  -0.10246716856082355
    w10  w125  -0.059176133743376075
    w10  w126  -0.0034210264872586503
    w10  w127  -0.00025920209776381266
    w10  w128  0.025215691114853514
    w10  w129  0.021407056090381325
    w10  w130  -0.030986280122191776
    w10  w131  0.002825791337141953
    w10  w132  0.018434991110883064
    w10  w133  0.04481242555383679
    w10  w134  -0.004294831146526398
    w10  w135  0.019697026363842175
    w10  w136  0.03175674885663336
    w10  w137  -0.0018193212676477684
    w10  w138  -0.02482839755194979
    w10  w139  -0.1338182004598773
    w10  w140  0.0515994329951022
    w10  w141  0.10803940413127201
    w10  w142  -0.015313308816099236
    w10  w143  -0.016695603277927528
    w10  w144  0.01761225954464011
    w10  w145  0.027658554763342606
    w10  w146  0.034087033845000725
    w10  w147  -0.012169897502416406
    w10  w148  0.06041844768645427
    w10  w149  -0.07002768106486128
    w10  w150  -0.010069480234086159
    w10  w151  -0.060187791308520686
    w10  w152  -0.00979468194041619
    w10  w153  0.08125778632427945
    w10  w154  -0.05319354623697452
    w10  w155  0.05269657705576023
    w10  w156  0.03375543391509425
    w10  w157  0.05007767504371856
    w10  w158  -0.027761884747098082
    w10  w159  -0.009874926713255747
    w10  w160  0.049121514398832784
    w10  w161  -0.08474580970313958
    w10  w162  -0.068039440213607
    w10  w163  0.050560594334642724
    w10  w164  -0.01758566600882445
    w10  w165  -0.00291264991577843
    w10  w166  0.05748959820370347
    w10  w167  -0.018806503452388105
    w10  w168  -0.11707264494935593
    w10  w169  0.002041287587887987
    w10  w170  -0.015048272147374328
    w10  w171  0.06824288354476425
    w10  w172  0.1267227828241492
    w10  w173  0.030961958443026134
    w10  w174  0.017098748572742878
    w10  w175  -0.03507758214168731
    w10  w176  0.0045910114191048965
    w10  w177  -0.06626904691480844
    w10  w178  -0.05598775204852313
    w10  w179  0.06154990341637345
    w10  w180  -0.017201401686674653
    w10  w181  0.08030277702323818
    w10  w182  0.027255223117653438
    w10  w183  0.04717839179691133
    w10  w184  0.05412778116385685
    w10  w185  0.006560613449815319
    w10  w186  0.0925173926657629
    w10  w187  0.003649539186650216
    w10  w188  -0.0873760345291572
    w10  w189  0.013925539894578601
    w10  w190  -0.014245645821012396
    w10  w191  -0.10107679171728548
    w10  w192  0.06304781224916498
    w10  w193  0.029550526090314937
    w10  w194  0.07081185580643401
    w10  w195  -0.09268408295752181
    w10  w196  0.009825461634843713
    w10  w197  -0.022131332303464903
    w10  w198  -0.013607121977766734
    w10  w199  0.041608121255192886
    w11  w11  0.1142637499968017
    w11  w12  -0.04896701990686373
    w11  w13  -0.10210604149398762
    w11  w14  0.00893582345061009
    w11  w15  0.02988480940452301
    w11  w16  0.03825207696383316
    w11  w17  -0.005133195241847545
    w11  w18  -0.047758496299014956
    w11  w19  -0.005482325606948297
    w11  w20  0.011783317425748998
    w11  w21  0.04607947055668895
    w11  w22  -0.045630670910071135
    w11  w23  -0.025712967890948762
    w11  w24  0.037184032351587286
    w11  w25  -0.03623797640601062
    w11  w26  -0.04606349426560138
    w11  w27  0.002832899648472123
    w11  w28  0.061162552756202325
    w11  w29  -0.029043714785643777
    w11  w30  -0.06322964175885756
    w11  w31  0.06237455578544481
    w11  w32  0.034616616015203834
    w11  w33  -0.052056834650247207
    w11  w34  -0.021747607116475127
    w11  w35  0.013842280991313871
    w11  w36  -0.010336709502367923
    w11  w37  0.03818426638286118
    w11  w38  0.03690275665313401
    w11  w39  0.025163156148984817
    w11  w40  0.023340889298419203
    w11  w41  -0.07327482949271635
    w11  w42  -0.029706181011096722
    w11  w43  0.03256015033463728
    w11  w44  -0.04503572883981444
    w11  w45  -0.04664388089182948
    w11  w46  -0.04034832670795312
    w11  w47  -0.002728085023171598
    w11  w48  -0.01124238891655549
    w11  w49  0.03928343898791804
    w11  w50  -0.008798319623713666
    w11  w51  0.020022612175807943
    w11  w52  -0.012859479625070523
    w11  w53  -0.0370620417763547
    w11  w54  -0.0032936584740012476
    w11  w55  0.04720724492358062
    w11  w56  -0.07540662687035894
    w11  w57  0.005105763725979604
    w11  w58  0.017620532163310908
    w11  w59  -0.0023097268629655924
    w11  w60  0.07053349474367003
    w11  w61  0.027806660756099447
    w11  w62  0.01598954128974021
    w11  w63  -0.01283882568690308
    w11  w64  0.02218754844403304
    w11  w65  -0.030340114554431332
    w11  w66  -0.012274733621859615
    w11  w67  0.05590149065657934
    w11  w68  -0.01535367739189498
    w11  w69  0.017210927128721625
    w11  w70  0.07016803159997999
    w11  w71  0.017036437496069232
    w11  w72  -0.006242090126491522
    w11  w73  -0.02288292669369123
    w11  w74  0.05582762415274527
    w11  w75  -0.013879252636178539
    w11  w76  0.014123943353259331
    w11  w77  -0.029185020958816046
    w11  w78  0.007984215227190046
    w11  w79  -0.04759689762698459
    w11  w80  0.02092538312586351
    w11  w81  0.005511398998429342
    w11  w82  0.055788281361077684
    w11  w83  0.0004571087503340069
    w11  w84  -0.02265818128706613
    w11  w85  0.0578436447684691
    w11  w86  0.06069360010328954
    w11  w87  -0.0015607306059120165
    w11  w88  -0.038269683397921576
    w11  w89  0.03225676815767095
    w11  w90  0.0046337611049431845
    w11  w91  0.018937365346998105
    w11  w92  0.02467468406282464
    w11  w93  0.03349253689744115
    w11  w94  0.019897506352762075
    w11  w95  -0.008015751703578693
    w11  w96  0.03607071197610039
    w11  w97  0.06512610327583643
    w11  w98  0.06793158826876082
    w11  w99  0.017468485067889956
    w11  w100  0.05841120887931451
    w11  w101  0.013900442589559851
    w11  w102  -0.051234433417541456
    w11  w103  -0.051317545334856905
    w11  w104  -0.020204918230529438
    w11  w105  -0.1230450104018191
    w11  w106  0.006095714780811589
    w11  w107  -0.08487140901970727
    w11  w108  0.05672244043121208
    w11  w109  -0.028238028097905682
    w11  w110  -0.01607028091597391
    w11  w111  -0.06125043920866092
    w11  w112  0.01652563492994218
    w11  w113  -0.03787783157197128
    w11  w114  0.02623653952276083
    w11  w115  0.02376277686830704
    w11  w116  -0.0018140993855245856
    w11  w117  -0.02810417677793836
    w11  w118  0.01612474014470558
    w11  w119  -0.021802272103117352
    w11  w120  -0.014486155551307715
    w11  w121  0.05076394945864711
    w11  w122  0.0175214690634392
    w11  w123  0.03566833052184764
    w11  w124  0.003034527244929067
    w11  w125  -0.006666957275950371
    w11  w126  -0.007105372695041796
    w11  w127  0.012868831765670394
    w11  w128  -0.05188622069608081
    w11  w129  -0.059826228570117795
    w11  w130  -0.012397051456978638
    w11  w131  0.02048409005705065
    w11  w132  0.005773744982009092
    w11  w133  -0.04266418224889481
    w11  w134  0.04715177132836713
    w11  w135  0.0129064747416848
    w11  w136  0.020501369325083466
    w11  w137  0.007894805156074006
    w11  w138  0.02831704647854201
    w11  w139  -0.04159314368219495
    w11  w140  0.0065248767006019824
    w11  w141  0.018841020038468114
    w11  w142  0.06567869297763805
    w11  w143  -0.007853834015109591
    w11  w144  0.015052126773624738
    w11  w145  0.05633924220883247
    w11  w146  -0.009442975842620565
    w11  w147  -0.0025166478884555616
    w11  w148  -0.05425321321118625
    w11  w149  -0.08677496742764762
    w11  w150  0.035544270516076934
    w11  w151  -0.05509940323102251
    w11  w152  -0.020489567098822808
    w11  w153  -0.06533303035907516
    w11  w154  -0.04970488776630256
    w11  w155  -0.011795263798238765
    w11  w156  0.005871145989750302
    w11  w157  -0.0027159296455937653
    w11  w158  -0.03680811621186489
    w11  w159  -0.029406784689102086
    w11  w160  -0.025617332464020336
    w11  w161  -0.006384314888449208
    w11  w162  -0.045114088546822126
    w11  w163  -0.019789222163453756
    w11  w164  0.020007619585934628
    w11  w165  0.03506141533460939
    w11  w166  0.03717127249775393
    w11  w167  0.04144728337825635
    w11  w168  -0.04947782138296553
    w11  w169  0.0342926000621957
    w11  w170  -0.016007696093087987
    w11  w171  -0.03494291911004531
    w11  w172  0.07648553402017189
    w11  w173  0.0834923834758415
    w11  w174  0.025582241908724514
    w11  w175  0.029990861401735812
    w11  w176  -0.030948108029028035
    w11  w177  -0.029548721915445896
    w11  w178  -0.03895117448528015
    w11  w179  -0.00210988671907322
    w11  w180  0.012236457542309426
    w11  w181  -0.015197344468761257
    w11  w182  0.04000307878348775
    w11  w183  -0.036000292069611306
    w11  w184  -0.05174734922204579
    w11  w185  0.008232985812793022
    w11  w186  -0.005995431222476967
    w11  w187  -0.033068548301970806
    w11  w188  -0.012193246687888903
    w11  w189  0.09480510580522886
    w11  w190  0.029822657050374072
    w11  w191  0.031815443122462206
    w11  w192  0.03984502589493371
    w11  w193  0.04815913913392673
    w11  w194  0.018586539263227196
    w11  w195  0.00029393970480514996
    w11  w196  0.006844353445869632
    w11  w197  0.024803792581869342
    w11  w198  0.018661086643888148
    w11  w199  -0.016845094239737155
    w12  w12  0.23821176950013248
    w12  w13  0.10321962856126878
    w12  w14  -0.06763766047212702
    w12  w15  0.03417038908200068
    w12  w16  -0.08309530981849375
    w12  w17  -0.07441106230533129
    w12  w18  -0.015379526606536313
    w12  w19  0.10646140073365658
    w12  w20  0.022596793571284267
    w12  w21  0.015479958476434045
    w12  w22  -0.0005581919773508799
    w12  w23  0.07057548817513222
    w12  w24  -0.04803096427445432
    w12  w25  -0.038989272563694506
    w12  w26  -0.026891203523658036
    w12  w27  0.07249671376661057
    w12  w28  -0.10457679474964386
    w12  w29  0.020366824325307384
    w12  w30  0.06902384013218348
    w12  w31  -0.052562544379540506
    w12  w32  0.006997797580847888
    w12  w33  0.19213002153762765
    w12  w34  0.017897102773789204
    w12  w35  0.037956961167525456
    w12  w36  -0.005286014280820459
    w12  w37  -0.008355310448940816
    w12  w38  -0.07950357611883423
    w12  w39  0.0006015778899106194
    w12  w40  -0.05662361880020674
    w12  w41  0.07160692013871515
    w12  w42  0.04390935544740073
    w12  w43  0.037152136187534664
    w12  w44  -0.035525270477558595
    w12  w45  0.0691121621753753
    w12  w46  0.14208888486408605
    w12  w47  -0.0948844560241123
    w12  w48  -0.034996454277826446
    w12  w49  -0.12087078248515495
    w12  w50  0.012443516263848613
    w12  w51  0.07023827282885571
    w12  w52  -0.010876507996555778
    w12  w53  -0.014552269187575347
    w12  w54  0.0539151577675839
    w12  w55  -0.00957121417536139
    w12  w56  0.11700975308884042
    w12  w57  -0.014889941532547447
    w12  w58  -0.03282202686115512
    w12  w59  0.05431905390666539
    w12  w60  -0.034147028906655615
    w12  w61  -0.009041629560015784
    w12  w62  0.020302632535109756
    w12  w63  0.03817820513429425
    w12  w64  0.08613305403750636
    w12  w65  0.014367220569054982
    w12  w66  0.040333025649640815
    w12  w67  -0.027817767781074216
    w12  w68  -0.06150209303528865
    w12  w69  0.028264288417316444
    w12  w70  0.015172530177853772
    w12  w71  0.048993627646597475
    w12  w72  0.04276303225209619
    w12  w73  0.1000549132397063
    w12  w74  -0.10088299865010046
    w12  w75  0.0035255703716215304
    w12  w76  -0.03188425144465046
    w12  w77  0.058653462926895085
    w12  w78  -0.014101049950814218
    w12  w79  0.001289669967109458
    w12  w80  -0.028897754093933015
    w12  w81  -0.01869744495589234
    w12  w82  0.1256491284406864
    w12  w83  -0.0800102107456714
    w12  w84  0.0966944105841744
    w12  w85  0.0719717358916303
    w12  w86  0.015245561607018792
    w12  w87  -0.08607298784326
    w12  w88  -0.04855659677229577
    w12  w89  0.07037313625938668
    w12  w90  -0.149127848224213
    w12  w91  0.034643945135788376
    w12  w92  0.012792058142047185
    w12  w93  0.050012311227994204
    w12  w94  0.000883003749935346
    w12  w95  -0.026376194915789183
    w12  w96  0.028419572090396906
    w12  w97  0.0031676084573707764
    w12  w98  -0.03646310636719436
    w12  w99  -0.10383286564991762
    w12  w100  -0.03472878708466815
    w12  w101  -0.052070466878849204
    w12  w102  -0.03468814155549035
    w12  w103  -0.07004588786612513
    w12  w104  0.035985495882149304
    w12  w105  0.11509378151506237
    w12  w106  0.03977894648586397
    w12  w107  0.02398350472692311
    w12  w108  0.09511742979023775
    w12  w109  -0.06792135413698491
    w12  w110  0.058993324358873465
    w12  w111  -0.07294646610359694
    w12  w112  -0.03025085842531132
    w12  w113  -0.0450936369885978
    w12  w114  0.03811903850517386
    w12  w115  -0.06171037480524201
    w12  w116  -0.08232790377024073
    w12  w117  -0.05343065549212815
    w12  w118  0.0016453713139117712
    w12  w119  0.013073676108730342
    w12  w120  0.04602925927292762
    w12  w121  -0.138317784552859
    w12  w122  0.09171436027060323
    w12  w123  0.009857624011605616
    w12  w124  -0.037528973102957705
    w12  w125  0.07594995167701847
    w12  w126  0.07819527593601362
    w12  w127  -0.0252172922767219
    w12  w128  0.012736449865858058
    w12  w129  0.0846334127141137
    w12  w130  0.0006083296790066735
    w12  w131  0.07105016320933337
    w12  w132  0.0331876487625921
    w12  w133  0.10276461304970663
    w12  w134  -0.05742280384495469
    w12  w135  -0.07885374819359463
    w12  w136  -0.08814441860020003
    w12  w137  0.02286142695586444
    w12  w138  0.024026125603101023
    w12  w139  -0.006311163196116064
    w12  w140  0.06392916039975917
    w12  w141  0.04113250919835046
    w12  w142  -0.01005644945001266
    w12  w143  -0.09979466834150853
    w12  w144  0.024009034496951614
    w12  w145  -0.0423763865757986
    w12  w146  0.05588054058336224
    w12  w147  -0.0011095095784521762
    w12  w148  0.016553709855268526
    w12  w149  0.06412154541140334
    w12  w150  0.026570287897275818
    w12  w151  0.07420950101100665
    w12  w152  0.01619135241070231
    w12  w153  -0.04182540619038586
    w12  w154  0.08369542294350063
    w12  w155  0.04189333567126147
    w12  w156  -0.013010948073197748
    w12  w157  0.0875498568680011
    w12  w158  0.05572189358617004
    w12  w159  0.02710916313008811
    w12  w160  -0.09708462934671166
    w12  w161  0.08564265995106607
    w12  w162  0.13565633569721014
    w12  w163  -0.027680376439516163
    w12  w164  -0.0055146721885271964
    w12  w165  -0.10882866022749932
    w12  w166  -0.025547986952965153
    w12  w167  -0.028099166996738905
    w12  w168  -0.010372881246926069
    w12  w169  -0.05778409784647232
    w12  w170  0.056035157334993146
    w12  w171  -0.07078486034584407
    w12  w172  -0.009982442605371294
    w12  w173  -0.007722253874151304
    w12  w174  -0.056969158609853875
    w12  w175  -0.02975325182799611
    w12  w176  0.0010368332772833248
    w12  w177  0.08438713583829602
    w12  w178  0.061500098286519214
    w12  w179  0.07045791318394715
    w12  w180  0.0016066807977602074
    w12  w181  0.04146017040300963
    w12  w182  -0.02964114271094539
    w12  w183  -0.027064527643827014
    w12  w184  0.04587102092114811
    w12  w185  -0.01574990632921609
    w12  w186  -0.11736795270742907
    w12  w187  0.06981750297317608
    w12  w188  0.0256216518400938
    w12  w189  -0.09064180773272282
    w12  w190  0.020374168301400115
    w12  w191  -0.0848165343892241
    w12  w192  0.056978134886228354
    w12  w193  -0.15840521749009767
    w12  w194  0.012026668929732198
    w12  w195  0.042671283303113344
    w12  w196  -0.00027846744877417805
    w12  w197  -0.06290335971703162
    w12  w198  0.020565289408282197
    w12  w199  -0.013850238672074277
    w13  w13  0.4835793749099091
    w13  w14  -0.05816646484722922
    w13  w15  -0.023885726512836006
    w13  w16  0.07057285156006234
    w13  w17  0.07731992921504072
    w13  w18  0.09742496389614552
    w13  w19  0.09751335628053022
    w13  w20  0.09423617746323579
    w13  w21  -0.12548051197657964
    w13  w22  -0.04583424819274384
    w13  w23  -0.021590281451509402
    w13  w24  0.04583218991167429
    w13  w25  0.13542343987558877
    w13  w26  0.08190263207520802
    w13  w27  -0.042442709929672126
    w13  w28  -0.049436366101934553
    w13  w29  0.056376737427168366
    w13  w30  0.0651017201545149
    w13  w31  -0.09021283645918511
    w13  w32  0.09384780173733373
    w13  w33  -0.0407936950789908
    w13  w34  0.029215016406191893
    w13  w35  -0.1057656719972525
    w13  w36  0.1620747343302411
    w13  w37  0.048055095543586966
    w13  w38  -0.08751318185345333
    w13  w39  -0.015089217175207188
    w13  w40  -0.07396619331015965
    w13  w41  -0.011885401189399755
    w13  w42  -0.020346815317624264
    w13  w43  -0.05853389825212377
    w13  w44  0.007358581407561884
    w13  w45  0.23345612963772425
    w13  w46  0.12703736265340548
    w13  w47  -0.01819871389911755
    w13  w48  0.013778636571872697
    w13  w49  -0.05614474978627636
    w13  w50  0.19603438155028188
    w13  w51  -0.016398879169725832
    w13  w52  0.01742762945692485
    w13  w53  -0.04893889510494874
    w13  w54  -0.07591645284751361
    w13  w55  0.11574593929233792
    w13  w56  0.16033244611942032
    w13  w57  0.003970842390471687
    w13  w58  0.01758029191307803
    w13  w59  -0.045576952552546304
    w13  w60  -0.048026974975502665
    w13  w61  -0.04486175838924429
    w13  w62  -0.09839321278139276
    w13  w63  0.005035944201173513
    w13  w64  -0.03938454615881064
    w13  w65  0.04821625746391161
    w13  w66  -0.010041332408515864
    w13  w67  -0.10470390688515001
    w13  w68  0.05168108417305743
    w13  w69  -0.0012958882252946653
    w13  w70  -0.06940949152274963
    w13  w71  -0.024758677239438885
    w13  w72  -0.011555045466836016
    w13  w73  0.08944151439100044
    w13  w74  -0.0050530534296821875
    w13  w75  -0.09769843959344017
    w13  w76  0.16526438521293635
    w13  w77  0.06796092630273434
    w13  w78  0.03773302208521251
    w13  w79  -0.12881359999725203
    w13  w80  0.0851263108083186
    w13  w81  0.02592039970235419
    w13  w82  -0.12455896028968726
    w13  w83  0.06970266558225557
    w13  w84  -0.03803196149422056
    w13  w85  -0.006222867958101248
    w13  w86  -0.04569726169293817
    w13  w87  -0.13319745983521367
    w13  w88  0.0070725246191593715
    w13  w89  0.11522997251452055
    w13  w90  0.05182267828004424
    w13  w91  0.12587088165788463
    w13  w92  0.01738600287072121
    w13  w93  0.008278911547650739
    w13  w94  -0.049288158170378224
    w13  w95  0.04867776358216972
    w13  w96  0.07676190617339647
    w13  w97  -0.07079613548806774
    w13  w98  -0.0642395603995735
    w13  w99  0.0174078183510578
    w13  w100  -0.004274068808891949
    w13  w101  -0.051835469775900186
    w13  w102  0.0012979817042238107
    w13  w103  0.20701373691461364
    w13  w104  -0.10619105780270897
    w13  w105  0.15006297404194377
    w13  w106  -0.05092153565296277
    w13  w107  0.04102754209081859
    w13  w108  0.03253320040865093
    w13  w109  0.1093721100810898
    w13  w110  0.130832154295493
    w13  w111  -0.0013658323165281537
    w13  w112  -0.07650042761938206
    w13  w113  0.05583333043873639
    w13  w114  0.13146440309107238
    w13  w115  -0.13595652656722257
    w13  w116  -0.08121262520467523
    w13  w117  0.13055669399645592
    w13  w118  0.03258405560215689
    w13  w119  0.03838284681752749
    w13  w120  0.15883763153962252
    w13  w121  -0.12530552828916114
    w13  w122  -0.032824520098690024
    w13  w123  0.004400796682353328
    w13  w124  -0.007718973534822539
    w13  w125  0.0036027532412416
    w13  w126  0.095063038579903
    w13  w127  0.07511230709460659
    w13  w128  0.06684573194657999
    w13  w129  0.12830818382652237
    w13  w130  -0.02300629583081277
    w13  w131  0.13560472105387425
    w13  w132  0.033245448218238785
    w13  w133  -0.0007626750358543815
    w13  w134  0.0629865609136186
    w13  w135  0.04966461896935854
    w13  w136  -0.09438132530694263
    w13  w137  0.011147896866712194
    w13  w138  -0.09070105501112741
    w13  w139  0.205577149736596
    w13  w140  0.1188035658902794
    w13  w141  -0.07486936076913288
    w13  w142  0.07403599727468364
    w13  w143  -0.10701286732095827
    w13  w144  -0.02724173761350188
    w13  w145  -0.12159733408575793
    w13  w146  -0.05711691252019288
    w13  w147  -0.023191254389955635
    w13  w148  0.023854435642985256
    w13  w149  0.07442744425206156
    w13  w150  -0.06253345316437288
    w13  w151  0.045713177269608704
    w13  w152  0.04432809514496058
    w13  w153  -0.01913888495661886
    w13  w154  0.20908987679273855
    w13  w155  -0.10110047235477891
    w13  w156  0.02680223876657515
    w13  w157  0.04654793665767165
    w13  w158  0.09038902852571978
    w13  w159  0.1227503803088936
    w13  w160  -0.05547206197510889
    w13  w161  0.15621699035294018
    w13  w162  0.23140511713121883
    w13  w163  0.06836805900440082
    w13  w164  0.08879768833851397
    w13  w165  -0.19513580934388167
    w13  w166  -0.016670289917524776
    w13  w167  0.01354008703950962
    w13  w168  -0.029363839849192986
    w13  w169  0.05165428786458217
    w13  w170  -0.0003678658210977251
    w13  w171  -0.12389694033772505
    w13  w172  -0.11192838539520211
    w13  w173  -0.07424957509152355
    w13  w174  -0.04497337662857168
    w13  w175  0.007006410048274682
    w13  w176  0.04366900053402792
    w13  w177  0.0546403490615194
    w13  w178  0.05782965301818983
    w13  w179  0.09034136103411915
    w13  w180  -0.06772803818494079
    w13  w181  0.027429381440866263
    w13  w182  -0.17635790276589988
    w13  w183  0.016910346492469596
    w13  w184  0.12352675004559942
    w13  w185  -0.03249207423082147
    w13  w186  0.024218214814998553
    w13  w187  0.008400217632251895
    w13  w188  0.1277901401475707
    w13  w189  -0.27317878242502236
    w13  w190  -0.022002881707969546
    w13  w191  -0.0499429239999657
    w13  w192  0.04458814059948506
    w13  w193  -0.07869365428267622
    w13  w194  -0.03280686234355337
    w13  w195  0.1538445053928639
    w13  w196  -0.09527813971507859
    w13  w197  -0.10412935579337951
    w13  w198  0.03675564989898578
    w13  w199  -0.04771328414507467
    w14  w14  0.20112389107042708
    w14  w15  -0.009178108235745573
    w14  w16  -0.012376041821659588
    w14  w17  0.07904259043582568
    w14  w18  0.0007795085310164696
    w14  w19  -0.07998156150301827
    w14  w20  -0.07773556159167148
    w14  w21  0.06616071620634736
    w14  w22  -0.034435804531091706
    w14  w23  -0.040309930014308486
    w14  w24  -0.02593039096031159
    w14  w25  0.062152979627588194
    w14  w26  -0.047697232888959155
    w14  w27  -0.04759920392262883
    w14  w28  0.04902029686405606
    w14  w29  0.04253269740220715
    w14  w30  -0.041263624123261025
    w14  w31  0.028786812354657697
    w14  w32  -0.05582077238202013
    w14  w33  0.02062653022125483
    w14  w34  -0.03348903071206074
    w14  w35  0.05856881987708923
    w14  w36  -0.0014599496798123072
    w14  w37  0.03301189887007403
    w14  w38  0.03236044394388057
    w14  w39  -0.052171441561922924
    w14  w40  -0.020271720588808186
    w14  w41  -0.04372138034662883
    w14  w42  -0.025036798248934906
    w14  w43  -0.025715918239594376
    w14  w44  0.007109682442005952
    w14  w45  -0.02279388034081672
    w14  w46  -0.06042169713356503
    w14  w47  0.022933547239436178
    w14  w48  0.05446876880037702
    w14  w49  0.05771626109259111
    w14  w50  -0.0034575230662832377
    w14  w51  -0.05800183762556832
    w14  w52  -0.001071995172644417
    w14  w53  -0.01887826867381991
    w14  w54  -0.0006092013880689499
    w14  w55  -0.014494369510656434
    w14  w56  0.0009339552469203185
    w14  w57  0.0128436325650453
    w14  w58  0.023091856413880396
    w14  w59  0.05845659244134771
    w14  w60  0.012395723145215433
    w14  w61  -0.049193039858734355
    w14  w62  0.05572348809060037
    w14  w63  0.018603415029490013
    w14  w64  -0.08415142619283844
    w14  w65  0.0022201819092749365
    w14  w66  -0.030247212289610834
    w14  w67  0.05100061060805103
    w14  w68  -0.05692989346751149
    w14  w69  -0.004138194760009354
    w14  w70  -0.08046254968964997
    w14  w71  -0.10143606332030489
    w14  w72  -0.07382115213977386
    w14  w73  0.01978106394362337
    w14  w74  0.09732682788559335
    w14  w75  0.06984917729857268
    w14  w76  -0.05426816102134052
    w14  w77  -0.07515186514596235
    w14  w78  0.008956849955073187
    w14  w79  -0.0005533743232907692
    w14  w80  0.1448625196093986
    w14  w81  -0.00858088028641786
    w14  w82  -0.08747937120677673
    w14  w83  0.048094103671635496
    w14  w84  -0.030430796137993727
    w14  w85  0.007178052701783133
    w14  w86  -0.12357600893561865
    w14  w87  0.08243147360704174
    w14  w88  -0.037668311760411514
    w14  w89  -0.05897494965636357
    w14  w90  -0.015480336776451402
    w14  w91  -0.04548382256445868
    w14  w92  -0.03288377240332274
    w14  w93  -0.010313597236254144
    w14  w94  -0.02523524348502603
    w14  w95  -0.05417267974621257
    w14  w96  -0.08712664211578888
    w14  w97  0.044964113524039735
    w14  w98  -0.015468873067809363
    w14  w99  0.07155448983940733
    w14  w100  -0.03668358339406256
    w14  w101  -0.011749579071142923
    w14  w102  -0.042304259149541765
    w14  w103  -0.08771423953186334
    w14  w104  0.09627106692511313
    w14  w105  -0.059313447142427124
    w14  w106  -0.07023866225377355
    w14  w107  0.0632853272360689
    w14  w108  0.025953311814020566
    w14  w109  0.07331387635275564
    w14  w110  0.01861044439174057
    w14  w111  0.03366585897095511
    w14  w112  0.005544712379780001
    w14  w113  -0.02889595669560932
    w14  w114  -0.0351838593329039
    w14  w115  0.012322111196463665
    w14  w116  0.026463478481149084
    w14  w117  0.03013668610324025
    w14  w118  -0.027814830111033084
    w14  w119  -0.07573843968872819
    w14  w120  -0.07667508893731825
    w14  w121  0.01988124514621432
    w14  w122  -0.019210869601959207
    w14  w123  0.03809972950975005
    w14  w124  0.023046080233891653
    w14  w125  -0.11483162324294426
    w14  w126  -0.04891804019780372
    w14  w127  0.0718268643320453
    w14  w128  0.020331606188348825
    w14  w129  -0.015034962624230312
    w14  w130  0.0005195613180546087
    w14  w131  -0.005660015279360681
    w14  w132  0.0026699724387286047
    w14  w133  0.01328154882646274
    w14  w134  0.056531918423288016
    w14  w135  0.057176479923391525
    w14  w136  0.005266807752459517
    w14  w137  0.009570058323309226
    w14  w138  0.009817169539522835
    w14  w139  -0.10637381567151154
    w14  w140  0.010644865364276418
    w14  w141  0.03439183988098503
    w14  w142  -0.025120660759585835
    w14  w143  0.05002935119253364
    w14  w144  -0.04362722740354743
    w14  w145  0.02123230568955204
    w14  w146  -0.015720387136784343
    w14  w147  0.04418671810800399
    w14  w148  0.0772056669533694
    w14  w149  -0.04097708561563508
    w14  w150  -0.05220474662843642
    w14  w151  -0.07453595237369996
    w14  w152  0.024435208548447815
    w14  w153  0.08837248270753852
    w14  w154  -0.06067477058077039
    w14  w155  0.057358858123162895
    w14  w156  0.05158088443898776
    w14  w157  -0.0625639899904028
    w14  w158  -0.005847405456652146
    w14  w159  -0.07740441337347151
    w14  w160  0.023445722578844565
    w14  w161  -0.024470843368978274
    w14  w162  -0.041094193899219617
    w14  w163  0.06864252811791614
    w14  w164  -0.015049894558331976
    w14  w165  0.0677036641533854
    w14  w166  0.02114980287719099
    w14  w167  -0.012323523745080372
    w14  w168  -0.04322694852941014
    w14  w169  -0.06621753512552633
    w14  w170  -0.09785611522256608
    w14  w171  0.10761939933660622
    w14  w172  0.07366972967775771
    w14  w173  0.03528848440013002
    w14  w174  0.08624553838264182
    w14  w175  -0.020934216141211298
    w14  w176  0.05166778266298854
    w14  w177  -0.09056934080257474
    w14  w178  -0.11909292829518622
    w14  w179  0.064486046642172
    w14  w180  0.03070717305717868
    w14  w181  0.10690985162885522
    w14  w182  0.012518773336398357
    w14  w183  0.020420210320655982
    w14  w184  0.07059282851658262
    w14  w185  0.017663339661094388
    w14  w186  0.07877467325284408
    w14  w187  -0.005378487732256376
    w14  w188  -0.061924952935299676
    w14  w189  0.0824617860682591
    w14  w190  -0.013755063116987603
    w14  w191  -0.03879449317912481
    w14  w192  -0.06945401490312521
    w14  w193  0.04812430076640327
    w14  w194  0.016546910660717423
    w14  w195  -0.09322123804867939
    w14  w196  -0.05971868110359764
    w14  w197  -0.006692442432084986
    w14  w198  -0.02560472361942445
    w14  w199  0.06155794475309324
    w15  w15  0.24207304163610643
    w15  w16  -0.00022495715264083568
    w15  w17  -0.01376601873179016
    w15  w18  -0.1483360942505504
    w15  w19  -0.02311125068938221
    w15  w20  -0.08696302280519473
    w15  w21  0.004876431714194914
    w15  w22  -0.0979784548884739
    w15  w23  0.022814700688009868
    w15  w24  0.00036555193824744733
    w15  w25  -0.011531364062543572
    w15  w26  -0.04173863073758611
    w15  w27  0.0958846349039586
    w15  w28  0.022255406169832778
    w15  w29  -0.037318384681929474
    w15  w30  -0.18600335093483666
    w15  w31  0.11903266476325927
    w15  w32  -0.06393253676483153
    w15  w33  -0.008954373664599845
    w15  w34  -0.00657494158804961
    w15  w35  0.06259392061303692
    w15  w36  -0.10224652382900531
    w15  w37  0.11983066901895176
    w15  w38  -0.06442522034344274
    w15  w39  0.031873116888798035
    w15  w40  -0.007323167065232265
    w15  w41  -0.0660699832951475
    w15  w42  -0.03534365710797841
    w15  w43  -0.06202337586551453
    w15  w44  0.07669388231701836
    w15  w45  -0.1051058306550703
    w15  w46  -0.051842408947243054
    w15  w47  -0.06810698638020378
    w15  w48  0.012736548230504643
    w15  w49  0.013931265841335626
    w15  w50  0.002687310156603408
    w15  w51  0.04630972711778491
    w15  w52  0.09341382384453362
    w15  w53  0.0026192493728914327
    w15  w54  -0.04707094707496867
    w15  w55  0.045804147934557796
    w15  w56  -0.11437135080202157
    w15  w57  0.05267282153596398
    w15  w58  0.05986578360304288
    w15  w59  0.09747210949659442
    w15  w60  0.0715567407704116
    w15  w61  0.02905107033308593
    w15  w62  0.03194547950677957
    w15  w63  0.014008120438298894
    w15  w64  0.014169323840307424
    w15  w65  0.08532560787650072
    w15  w66  0.03551362450324549
    w15  w67  0.10506567848633852
    w15  w68  -0.08575239826778133
    w15  w69  0.11888289484614027
    w15  w70  0.055502236519179675
    w15  w71  0.06599408435419626
    w15  w72  0.15193987810287132
    w15  w73  0.10991664422474294
    w15  w74  0.004921623306137932
    w15  w75  -0.08631228824242147
    w15  w76  -0.013220642533924309
    w15  w77  -0.07119206630837656
    w15  w78  0.027870649644870956
    w15  w79  0.0033485073946612604
    w15  w80  0.004191183884168885
    w15  w81  -0.03499852289587332
    w15  w82  0.11225851017804074
    w15  w83  -0.08809894784649457
    w15  w84  0.0451785803845171
    w15  w85  0.03476729380758679
    w15  w86  -0.02349074753085818
    w15  w87  0.05203123167596302
    w15  w88  0.021739817127470133
    w15  w89  0.06957921078761796
    w15  w90  -0.06973800012466103
    w15  w91  0.13065045437281106
    w15  w92  0.0018353552658394922
    w15  w93  0.04007361471084423
    w15  w94  0.006244506957948923
    w15  w95  -0.08090572455938586
    w15  w96  -0.022016104833382157
    w15  w97  0.06728804425311671
    w15  w98  0.13445002856903504
    w15  w99  -0.022532368792256174
    w15  w100  0.05097657634327291
    w15  w101  0.036284781821885694
    w15  w102  -0.08449104024331114
    w15  w103  -0.10590641386433232
    w15  w104  0.09380593381517549
    w15  w105  -0.1023463454122818
    w15  w106  0.021866570164227557
    w15  w107  0.009472281159280579
    w15  w108  0.20658468135956257
    w15  w109  -0.17381525565861394
    w15  w110  0.04159644192793011
    w15  w111  0.0521938563532899
    w15  w112  0.032626091731488685
    w15  w113  -0.0928618360122689
    w15  w114  0.13277058189891455
    w15  w115  -0.04046147537659251
    w15  w116  0.0832001135033418
    w15  w117  0.12244468347699985
    w15  w118  0.06479378994814321
    w15  w119  0.0659574050909155
    w15  w120  0.0720456056669171
    w15  w121  -0.05564823411687042
    w15  w122  0.13523305976876945
    w15  w123  0.0457139477485069
    w15  w124  0.0324978112563089
    w15  w125  -0.04286026747329784
    w15  w126  0.09129377857220271
    w15  w127  0.05296785898788663
    w15  w128  -0.04595018788137844
    w15  w129  -0.07983896863911887
    w15  w130  -0.06733557889891638
    w15  w131  0.0006706007246927096
    w15  w132  -0.08781991315489816
    w15  w133  -0.04396123593681093
    w15  w134  -0.02182487082937032
    w15  w135  0.025687235142265175
    w15  w136  -0.043460413589629106
    w15  w137  0.14317620896617853
    w15  w138  0.02821434527189298
    w15  w139  -0.09943309233385558
    w15  w140  0.05187846500798267
    w15  w141  0.031033958499664848
    w15  w142  0.22792063777246518
    w15  w143  -0.15754177060850094
    w15  w144  0.02151313784715841
    w15  w145  -0.008559629796499069
    w15  w146  -0.003308241989566174
    w15  w147  0.0213278288769553
    w15  w148  -0.09853917177530404
    w15  w149  -0.05416851190187512
    w15  w150  0.07499158177140533
    w15  w151  -0.047025125109482376
    w15  w152  0.04071644561309855
    w15  w153  -0.19343154427918371
    w15  w154  0.1136266279540726
    w15  w155  0.051258989829879
    w15  w156  0.03315494251751183
    w15  w157  0.012381509679990044
    w15  w158  0.02725699933787214
    w15  w159  -0.04701763533904096
    w15  w160  -0.08896236398586692
    w15  w161  -0.010563787208883584
    w15  w162  0.05835129167904008
    w15  w163  -0.07177520644708198
    w15  w164  -0.014450410815402704
    w15  w165  0.04703244210488044
    w15  w166  -0.0933631405972927
    w15  w167  -0.014544942037839636
    w15  w168  0.025505609793891083
    w15  w169  0.09755103541272435
    w15  w170  -0.02583542777181957
    w15  w171  -0.1577135151037839
    w15  w172  0.1291565877187213
    w15  w173  -0.035859068105137795
    w15  w174  -0.023196723650792322
    w15  w175  0.034708844327764866
    w15  w176  0.016109950102005097
    w15  w177  -0.03159613765004304
    w15  w178  -0.07369805567362252
    w15  w179  0.011559984098183897
    w15  w180  0.10918308307708896
    w15  w181  -0.10940289713504503
    w15  w182  -0.030107774218249242
    w15  w183  -0.03946592474159555
    w15  w184  0.04174934367182579
    w15  w185  0.018530465192882706
    w15  w186  -0.062475399980943876
    w15  w187  0.09322535694803362
    w15  w188  -0.014896144978952863
    w15  w189  0.03370704198003633
    w15  w190  0.22103107975733985
    w15  w191  0.0540889463669383
    w15  w192  0.061177474892060435
    w15  w193  -0.06348008261625325
    w15  w194  -0.07907809038898497
    w15  w195  -0.013904173786362021
    w15  w196  -0.06283106916187892
    w15  w197  0.052869116359432235
    w15  w198  -0.0494880794695415
    w15  w199  0.06478426659090396
    w16  w16  0.21940468540875685
    w16  w17  0.07149745477684893
    w16  w18  0.02415265198295946
    w16  w19  0.0016225511442508006
    w16  w20  0.06771939662042066
    w16  w21  -0.030708625809768558
    w16  w22  -0.026363847463412735
    w16  w23  -0.028745815907863046
    w16  w24  0.045241220728544515
    w16  w25  0.04545732294083492
    w16  w26  0.03965546864808591
    w16  w27  -0.022569705734807405
    w16  w28  0.08123420744142715
    w16  w29  -0.014291223177669319
    w16  w30  -0.03966307093208193
    w16  w31  0.007340049069611172
    w16  w32  0.09695091196906915
    w16  w33  -0.16455821368603046
    w16  w34  -0.003872745315366187
    w16  w35  -0.099209079844997
    w16  w36  0.045039905781821626
    w16  w37  0.05745152575301844
    w16  w38  0.00548785669047477
    w16  w39  0.013791680032209963
    w16  w40  0.04111459420796222
    w16  w41  -0.1327846823699757
    w16  w42  -0.06981515100572244
    w16  w43  0.0033606879365974157
    w16  w44  -0.026367164096613344
    w16  w45  0.08272682361120359
    w16  w46  -0.02639513059700511
    w16  w47  -0.00043031239434946435
    w16  w48  0.02117563482493137
    w16  w49  0.052224207001755785
    w16  w50  0.07946218502691464
    w16  w51  -0.0033610496477226655
    w16  w52  0.007095192425552145
    w16  w53  -0.06733946458259918
    w16  w54  -0.0833708571508316
    w16  w55  0.04422510857987458
    w16  w56  -0.0846516437521211
    w16  w57  0.026436636070847647
    w16  w58  0.04664393965180293
    w16  w59  -0.03288266440425467
    w16  w60  0.07550882514142314
    w16  w61  0.031088575271343802
    w16  w62  -0.0636321573502224
    w16  w63  -0.015061592797619473
    w16  w64  -0.050132389790524354
    w16  w65  -0.05423626026359173
    w16  w66  -0.07663850711248167
    w16  w67  0.030244258224442374
    w16  w68  0.034986501155360984
    w16  w69  -0.011010968067402588
    w16  w70  0.012770336219762814
    w16  w71  -0.03364867392891059
    w16  w72  -0.0516852469562185
    w16  w73  -0.006693604152807858
    w16  w74  0.0735543064671623
    w16  w75  -0.07260455931237678
    w16  w76  0.12116424427730595
    w16  w77  0.02689345538616626
    w16  w78  0.04167541150680977
    w16  w79  -0.08681536501133656
    w16  w80  0.0685879469110954
    w16  w81  -0.02337637636965851
    w16  w82  -0.053637605879110734
    w16  w83  0.053143868741579545
    w16  w84  -0.08329251018803442
    w16  w85  -0.005020839894939693
    w16  w86  0.05917100776395308
    w16  w87  -0.07885416963957234
    w16  w88  0.028469330205808527
    w16  w89  0.07911020121256766
    w16  w90  0.03327098714114575
    w16  w91  0.0755088914286541
    w16  w92  0.03545301871620563
    w16  w93  0.0024276169614783584
    w16  w94  0.012850239094993053
    w16  w95  0.11471439490185245
    w16  w96  0.0674138712530666
    w16  w97  0.07192763994196626
    w16  w98  0.010942449228693966
    w16  w99  0.06813184078421194
    w16  w100  0.06628811512843288
    w16  w101  0.037405563216968925
    w16  w102  -0.010186661507386752
    w16  w103  0.10994843206484153
    w16  w104  -0.1149621332060214
    w16  w105  -0.08984933700869265
    w16  w106  0.003963231738674691
    w16  w107  -0.12622397759066561
    w16  w108  0.017154709737384418
    w16  w109  0.023182203381470954
    w16  w110  -0.020321004392352522
    w16  w111  0.01633931604706101
    w16  w112  -0.02760693333816397
    w16  w113  -0.01996646400995935
    w16  w114  0.04964670114453078
    w16  w115  0.007609407115495367
    w16  w116  -0.014161554780490705
    w16  w117  0.04368365245234447
    w16  w118  0.0670188906339586
    w16  w119  0.018304451501004192
    w16  w120  0.08780313181715926
    w16  w121  0.05120361820962236
    w16  w122  -0.009359433138783256
    w16  w123  0.018997028723591262
    w16  w124  0.06520241846739072
    w16  w125  -0.0024576626938209683
    w16  w126  0.010368984767629857
    w16  w127  0.07624635084854571
    w16  w128  -0.039676570236017
    w16  w129  -0.0474261311433576
    w16  w130  -0.014113821912222975
    w16  w131  0.062333887040731464
    w16  w132  -0.0012625460328497173
    w16  w133  -0.0858313632734582
    w16  w134  0.06997070099182565
    w16  w135  0.052537773478356725
    w16  w136  0.00841938741073527
    w16  w137  0.012346267170768673
    w16  w138  -0.005652425137604226
    w16  w139  0.10387109240142336
    w16  w140  -0.0016236552808354893
    w16  w141  -0.07777304098796262
    w16  w142  0.1046934709749878
    w16  w143  -0.015359284494940739
    w16  w144  -0.05126721288781241
    w16  w145  0.00014809254315988375
    w16  w146  -0.07539541302288012
    w16  w147  0.0270309690277907
    w16  w148  -0.06357583978542813
    w16  w149  -0.02523983940446621
    w16  w150  0.005385898023981183
    w16  w151  -0.040944806589177
    w16  w152  0.021781931493313145
    w16  w153  -0.11456969512002188
    w16  w154  0.020591524042733858
    w16  w155  -0.0703116448407254
    w16  w156  0.015746599484027336
    w16  w157  -0.04148108051698557
    w16  w158  0.01890345516511475
    w16  w159  0.011517670531486111
    w16  w160  -0.048080885764085035
    w16  w161  0.062103079948971726
    w16  w162  0.04018701168458404
    w16  w163  -0.0020319018035430793
    w16  w164  0.08348535760646623
    w16  w165  -0.009673718935921515
    w16  w166  -0.000900984982498151
    w16  w167  0.05248809109890029
    w16  w168  -0.014505035034157631
    w16  w169  0.07617004770865504
    w16  w170  -0.049268176827817554
    w16  w171  -0.06264847958745517
    w16  w172  -0.02992326683500633
    w16  w173  0.03178346937593861
    w16  w174  0.03935322889393335
    w16  w175  0.042703744542034995
    w16  w176  -0.02519853332052692
    w16  w177  -0.02421983115482128
    w16  w178  -0.018460203903508225
    w16  w179  -0.01855198246023107
    w16  w180  0.007711630469336082
    w16  w181  -0.04706683191629367
    w16  w182  -0.03294708960010848
    w16  w183  -0.044278930287229734
    w16  w184  -0.04681051123556503
    w16  w185  0.005316160640089074
    w16  w186  -0.03335889636417647
    w16  w187  -0.04713303551679409
    w16  w188  0.07491305968364441
    w16  w189  0.006019151776437687
    w16  w190  0.008037507111614932
    w16  w191  0.09254213229942997
    w16  w192  -0.0015161054411374773
    w16  w193  0.03492744582876681
    w16  w194  -0.04665298826573265
    w16  w195  0.08984090144273521
    w16  w196  -0.060859488926876426
    w16  w197  -0.0065761183053874095
    w16  w198  0.03517820136873578
    w16  w199  -0.041643341043687665
    w17  w17  0.24152158885599545
    w17  w18  0.03783570255052587
    w17  w19  -0.006455485930726255
    w17  w20  -0.031904314069149495
    w17  w21  0.026765556052837425
    w17  w22  -0.038569811624389105
    w17  w23  -0.03955760867987932
    w17  w24  0.01835851922082368
    w17  w25  0.0796128952596897
    w17  w26  -0.0025963937391509976
    w17  w27  -0.018691136643755744
    w17  w28  0.05466832657009821
    w17  w29  0.050287747563189704
    w17  w30  -0.006240796963288437
    w17  w31  -0.026289163549322835
    w17  w32  0.03254253685204767
    w17  w33  -0.032921927657929465
    w17  w34  0.005335531323546659
    w17  w35  -0.016422966816246144
    w17  w36  0.024890276516687085
    w17  w37  0.05063601197079835
    w17  w38  -0.036477515268516426
    w17  w39  -0.048345540838979656
    w17  w40  0.0014275193765192868
    w17  w41  -0.061149935322513616
    w17  w42  -0.10132658454539152
    w17  w43  -0.02314205294604028
    w17  w44  -0.024611708128596758
    w17  w45  0.10073477650410688
    w17  w46  -0.046472239340899106
    w17  w47  0.05976204070849091
    w17  w48  0.0411181879648592
    w17  w49  0.04312263292027322
    w17  w50  0.06360843189544552
    w17  w51  -0.061524189258032
    w17  w52  0.012595272075791529
    w17  w53  -0.054164135902672765
    w17  w54  -0.05595518911723511
    w17  w55  0.11213181316247772
    w17  w56  0.005821168351431812
    w17  w57  0.0368310246489582
    w17  w58  0.04167081891211852
    w17  w59  0.0196837918210942
    w17  w60  -0.014616977578287707
    w17  w61  -0.08472975755168599
    w17  w62  -0.03148798268734694
    w17  w63  0.0024714449764564996
    w17  w64  -0.09828731221102018
    w17  w65  -0.028225814237955314
    w17  w66  -0.026786962375601655
    w17  w67  -0.024460789634707037
    w17  w68  -0.023426068246335002
    w17  w69  -0.013511567199028733
    w17  w70  -0.0757144523677702
    w17  w71  -0.10567925404244122
    w17  w72  -0.08480491223884189
    w17  w73  0.04383365560467204
    w17  w74  0.144220054142706
    w17  w75  -0.021846147640210374
    w17  w76  0.011722905852017016
    w17  w77  -0.021358714389670554
    w17  w78  -0.012242405856892772
    w17  w79  -0.07791110654525836
    w17  w80  0.12221372967837321
    w17  w81  -0.0032353186041689046
    w17  w82  -0.10266274035787536
    w17  w83  0.04635071601025404
    w17  w84  -0.15366168837986896
    w17  w85  -0.06992066711598054
    w17  w86  -0.10585635191651366
    w17  w87  -0.01163884309874118
    w17  w88  0.015089656013292941
    w17  w89  0.005921195232330724
    w17  w90  0.04175769574517202
    w17  w91  0.038172147572938527
    w17  w92  -0.02487910468079131
    w17  w93  -0.0022525630882130714
    w17  w94  -0.011074826979900209
    w17  w95  0.04458202337108009
    w17  w96  -0.03417031661546964
    w17  w97  0.04838381905968765
    w17  w98  -0.03376165659057188
    w17  w99  0.08367598343877955
    w17  w100  0.02897539532459997
    w17  w101  -0.007937509550369464
    w17  w102  -0.0037927678100506076
    w17  w103  0.014298048971184042
    w17  w104  -0.027630754996343758
    w17  w105  -0.022072211570815233
    w17  w106  -0.06757449040395735
    w17  w107  0.033190951155370955
    w17  w108  0.011497284635003827
    w17  w109  0.09532940589930101
    w17  w110  0.06720748800447879
    w17  w111  0.05150502733925642
    w17  w112  -0.09658229676463952
    w17  w113  0.015413595843519392
    w17  w114  -0.00010817353941305206
    w17  w115  -0.0806871607941682
    w17  w116  -0.04251768847054075
    w17  w117  0.08665163656104297
    w17  w118  0.003793872674541812
    w17  w119  -0.06129390347263837
    w17  w120  -0.017743682674039144
    w17  w121  0.05482478664368393
    w17  w122  -0.05159083952428422
    w17  w123  0.017195492378813133
    w17  w124  0.01157415507165559
    w17  w125  -0.05820231445374988
    w17  w126  -0.004125507404101195
    w17  w127  0.10557663412142528
    w17  w128  -0.017905190627150305
    w17  w129  -0.027044917246482714
    w17  w130  0.025107707136036127
    w17  w131  0.04830361456620593
    w17  w132  -0.031206282578065327
    w17  w133  -0.05362878177237054
    w17  w134  0.028685490148722993
    w17  w135  0.05451961495067778
    w17  w136  0.006199890865373973
    w17  w137  0.04347923349194901
    w17  w138  0.016495309954495684
    w17  w139  0.0555703761843057
    w17  w140  0.04910206361781927
    w17  w141  -0.0376252239808928
    w17  w142  0.0203262037855868
    w17  w143  -0.03615892602124689
    w17  w144  -0.12494783089413543
    w17  w145  -0.03067965001608568
    w17  w146  -0.11561403315534986
    w17  w147  0.022673238042746097
    w17  w148  0.07021307058108166
    w17  w149  0.06830492620589936
    w17  w150  -0.03145536560854097
    w17  w151  -0.0515400906422394
    w17  w152  0.007993750419068512
    w17  w153  0.03524326487875438
    w17  w154  -0.012277975508086207
    w17  w155  -0.0924991088868489
    w17  w156  0.022051141390250575
    w17  w157  -0.07598308070802233
    w17  w158  0.044869982665922
    w17  w159  0.06548026588226169
    w17  w160  -0.013769270723329534
    w17  w161  0.03345266933479659
    w17  w162  0.01428708958825174
    w17  w163  0.049673875107510375
    w17  w164  0.08839079260241658
    w17  w165  -0.009408385170308597
    w17  w166  0.0058827059348854445
    w17  w167  -0.010093981259451263
    w17  w168  -0.03838786957365716
    w17  w169  0.06217980557419833
    w17  w170  -0.011197399968647695
    w17  w171  0.021623900129725013
    w17  w172  -0.0007339660995217187
    w17  w173  -0.016623183767141964
    w17  w174  0.04282197490812813
    w17  w175  -0.012599945830608354
    w17  w176  0.05798094526069539
    w17  w177  -0.04990502943289003
    w17  w178  -0.028221113581341828
    w17  w179  0.06100023283708267
    w17  w180  -0.018810787114107535
    w17  w181  -0.010200357355230654
    w17  w182  0.020451803124637954
    w17  w183  0.041704257230728625
    w17  w184  0.02908461645180504
    w17  w185  -0.02134095382182656
    w17  w186  0.010684338829561373
    w17  w187  -0.016537367452898362
    w17  w188  0.03501140294736254
    w17  w189  -0.01919711459213933
    w17  w190  0.038376769408361336
    w17  w191  0.08416433906127756
    w17  w192  -0.05235587586392288
    w17  w193  0.07141530911922774
    w17  w194  -0.05731182164166183
    w17  w195  0.00033385572439467845
    w17  w196  -0.03150694000666386
    w17  w197  -0.028218265437241565
    w17  w198  0.005759130566507728
    w17  w199  0.05075972619991079
    w18  w18  0.38418035785763177
    w18  w19  -0.05129890708263891
    w18  w20  -0.07579740737056725
    w18  w21  0.009332967790281487
    w18  w22  0.09558883590768562
    w18  w23  -0.09322394220824297
    w18  w24  0.0037410148461831565
    w18  w25  0.15476664739814555
    w18  w26  0.1427563618136814
    w18  w27  -0.01025863253798375
    w18  w28  -0.006711985992598643
    w18  w29  0.11541781293009465
    w18  w30  0.2882546357866543
    w18  w31  -0.056388401554856686
    w18  w32  0.12550044013819056
    w18  w33  0.008274141103646316
    w18  w34  0.04270031301698987
    w18  w35  0.059604955569721174
    w18  w36  0.02874389914083504
    w18  w37  -0.0403925949199993
    w18  w38  0.03382503778594165
    w18  w39  -0.013389603055748451
    w18  w40  0.023302560832695114
    w18  w41  0.06106556278854008
    w18  w42  0.023764731618314924
    w18  w43  0.040075517172935594
    w18  w44  0.025492616444164732
    w18  w45  -0.023095371499910443
    w18  w46  0.13727145702774737
    w18  w47  0.009356007166303313
    w18  w48  0.02615144143993126
    w18  w49  -0.0857279841553134
    w18  w50  -0.029712948240486127
    w18  w51  -0.03224342555874859
    w18  w52  -0.04751149254939426
    w18  w53  0.05220739658757091
    w18  w54  -0.05885175629113922
    w18  w55  0.020137551906984703
    w18  w56  0.09493023167116887
    w18  w57  -0.07876263412203659
    w18  w58  -0.13977619253532145
    w18  w59  -0.10959821391754693
    w18  w60  0.007752664721622391
    w18  w61  -0.06507122598888808
    w18  w62  -0.15277964014818854
    w18  w63  0.03843472490899364
    w18  w64  -0.11975560257135623
    w18  w65  -0.07373167324964733
    w18  w66  0.05110029764454489
    w18  w67  -0.1985399551742049
    w18  w68  0.06628943592475672
    w18  w69  -0.13915396039701725
    w18  w70  -0.07455672327382884
    w18  w71  -0.04119956361163929
    w18  w72  -0.11041618744290005
    w18  w73  -0.033337701131652436
    w18  w74  -0.057597319965743736
    w18  w75  0.1199342024674747
    w18  w76  0.06317899203807187
    w18  w77  -0.007474575951955679
    w18  w78  -0.024065434866832904
    w18  w79  -0.02807794164512767
    w18  w80  -0.05411717627262584
    w18  w81  0.04427351875600576
    w18  w82  -0.06660759788956828
    w18  w83  0.011716295985072258
    w18  w84  0.0005022683615948642
    w18  w85  -0.048238760159285826
    w18  w86  -0.05092472315500286
    w18  w87  -0.04433756704284769
    w18  w88  0.10867540383676345
    w18  w89  -0.10180540988273928
    w18  w90  0.12504122369173445
    w18  w91  -0.0634116681356501
    w18  w92  0.02252874405758126
    w18  w93  0.019538265192782615
    w18  w94  0.09312369771944541
    w18  w95  0.10383387265040882
    w18  w96  -0.017864779866258715
    w18  w97  -0.02085182199343603
    w18  w98  -0.07831872295629376
    w18  w99  -0.014536034575036983
    w18  w100  -0.007734755741937053
    w18  w101  0.029196006497521205
    w18  w102  0.09050291554148177
    w18  w103  0.22501555280586172
    w18  w104  -0.037975783543838064
    w18  w105  0.11526426509561725
    w18  w106  0.0016562119399180428
    w18  w107  -0.01759557303498824
    w18  w108  -0.06938253229362068
    w18  w109  0.16735456749281716
    w18  w110  -0.006692512586340328
    w18  w111  -0.07806235064322951
    w18  w112  -0.036468394893479354
    w18  w113  0.005380784448872541
    w18  w114  -0.004508009397491641
    w18  w115  -0.015780163761693874
    w18  w116  0.0029321331153797574
    w18  w117  -0.09707602182081873
    w18  w118  -0.04922969356989273
    w18  w119  -0.06536360365223998
    w18  w120  -0.06164406773878479
    w18  w121  0.047175426386666934
    w18  w122  -0.04790364205405845
    w18  w123  -0.17957630755350643
    w18  w124  0.06461943666657302
    w18  w125  -0.011586256104640683
    w18  w126  -0.12389140016081795
    w18  w127  -0.03400102469487857
    w18  w128  0.0096270268883883
    w18  w129  -0.012318787079819133
    w18  w130  0.15226410021587336
    w18  w131  0.10789267173464613
    w18  w132  0.059854789565172206
    w18  w133  -0.05218198550956327
    w18  w134  0.09770452528013543
    w18  w135  0.01885513811860128
    w18  w136  0.03759670795947168
    w18  w137  -0.11473330712198991
    w18  w138  0.04483779172449749
    w18  w139  0.08407190928747503
    w18  w140  -0.030466460090806526
    w18  w141  -0.0883385251192766
    w18  w142  -0.18207003328406357
    w18  w143  -0.09746874217658312
    w18  w144  -0.09354071284776162
    w18  w145  0.01385903710187724
    w18  w146  -0.014161359071131453
    w18  w147  -0.014157394621374414
    w18  w148  0.15680099310845494
    w18  w149  0.08659002742358905
    w18  w150  0.042307934109755765
    w18  w151  0.02440769618402401
    w18  w152  -0.01131732028884844
    w18  w153  0.18536833642322323
    w18  w154  0.05259351253283272
    w18  w155  -0.13104520922895227
    w18  w156  -0.04137806213705571
    w18  w157  0.003726735299958652
    w18  w158  -0.04494135549266513
    w18  w159  0.0008451509082421845
    w18  w160  0.10174329506001038
    w18  w161  0.08513017788232784
    w18  w162  0.11152044299766355
    w18  w163  -0.06395602592640752
    w18  w164  -0.08010070135742413
    w18  w165  -0.11594921901057477
    w18  w166  0.030985164366262224
    w18  w167  -0.11707183429495616
    w18  w168  0.11797188561814262
    w18  w169  -0.09121494977131826
    w18  w170  -0.08715228001730538
    w18  w171  0.1398959810272689
    w18  w172  -0.06780286242886183
    w18  w173  0.058241606586359344
    w18  w174  -0.08461830162438908
    w18  w175  -0.016955733588903826
    w18  w176  0.036188292038598656
    w18  w177  0.0037890863961299592
    w18  w178  0.07079148029510168
    w18  w179  -0.16984830407290802
    w18  w180  -0.1282260727668337
    w18  w181  0.1300224314506298
    w18  w182  0.01400837165449965
    w18  w183  0.02651075150238929
    w18  w184  -0.082823142142388
    w18  w185  -0.09115653986999697
    w18  w186  0.09070740093168495
    w18  w187  0.05155841863081337
    w18  w188  0.08253022149905363
    w18  w189  -0.044528184954221874
    w18  w190  -0.1640226570208586
    w18  w191  -0.058723080004718035
    w18  w192  -0.038965282356798546
    w18  w193  -0.03373234117355489
    w18  w194  0.020930608913109227
    w18  w195  0.050695088633065856
    w18  w196  0.01825648280325949
    w18  w197  0.004189090587200185
    w18  w198  -0.14342592442970512
    w18  w199  -0.010310873636404113
    w19  w19  0.26235498829117965
    w19  w20  0.10411402994699591
    w19  w21  -0.012180227791024888
    w19  w22  -0.032408488276709155
    w19  w23  0.0571263721537675
    w19  w24  0.047875401584079554
    w19  w25  -0.08534049216338535
    w19  w26  -0.031256187517527026
    w19  w27  0.00045625034506516064
    w19  w28  -0.023839386284072676
    w19  w29  0.00216861879106944
    w19  w30  0.032073091286909966
    w19  w31  -0.08521014247506377
    w19  w32  0.06527696091228659
    w19  w33  0.08832625820777194
    w19  w34  0.01335795109097382
    w19  w35  -0.07330704698870842
    w19  w36  0.051217728268028714
    w19  w37  -0.028089147858140495
    w19  w38  -0.0622303296001308
    w19  w39  -0.017223336639984124
    w19  w40  0.006753485746193581
    w19  w41  0.03240156157792803
    w19  w42  -0.0421043441967918
    w19  w43  0.02865023947828973
    w19  w44  -0.08061682410805292
    w19  w45  0.1922062555624725
    w19  w46  0.07040377461818234
    w19  w47  -0.019497954621576684
    w19  w48  -0.04995862835019397
    w19  w49  -0.046207982555913574
    w19  w50  0.0820219997139112
    w19  w51  0.03563744649846115
    w19  w52  -0.01892798376990499
    w19  w53  -0.06937204397947884
    w19  w54  0.04458643963835343
    w19  w55  0.10855662113963828
    w19  w56  0.08881354605313888
    w19  w57  -0.007979895126396281
    w19  w58  0.008264113945407645
    w19  w59  0.019627262007984397
    w19  w60  -0.0539566618809928
    w19  w61  0.007173594613072157
    w19  w62  0.002204762719434895
    w19  w63  -0.010935142361828392
    w19  w64  0.11261533534438756
    w19  w65  -0.025788524998062095
    w19  w66  0.01339655832132554
    w19  w67  -0.013654153103363235
    w19  w68  -0.015379124430458559
    w19  w69  0.004461991356288325
    w19  w70  0.022270472530123146
    w19  w71  0.025576746683032562
    w19  w72  -0.03688979771383844
    w19  w73  0.03590891088040105
    w19  w74  0.005883016399270248
    w19  w75  -0.049279409659309645
    w19  w76  -0.003785047154288177
    w19  w77  0.09165440820383981
    w19  w78  -0.02827838178785154
    w19  w79  -0.06223973612469442
    w19  w80  -0.002630266166556931
    w19  w81  -0.013041727633247454
    w19  w82  0.03587117303763696
    w19  w83  -0.023838477071485002
    w19  w84  -0.028971391571257794
    w19  w85  0.015543708124032954
    w19  w86  0.058084595393701255
    w19  w87  -0.10762360499156975
    w19  w88  -0.09808241128706915
    w19  w89  0.09563430775016
    w19  w90  -0.059069562548860664
    w19  w91  0.04186079616602178
    w19  w92  0.016511689201878565
    w19  w93  0.012615015468052071
    w19  w94  -0.047129552335951945
    w19  w95  0.01959377406233753
    w19  w96  0.08308402782810902
    w19  w97  0.009297928745496491
    w19  w98  -0.019007871184529068
    w19  w99  -0.03142721658199258
    w19  w100  -0.008313491823339838
    w19  w101  -0.07309364480630258
    w19  w102  -0.017058970658912636
    w19  w103  -0.022782215826897444
    w19  w104  -0.09852735898548685
    w19  w105  0.06693390005789329
    w19  w106  0.0016532331045482468
    w19  w107  -0.05133764729046891
    w19  w108  -0.01773411646422019
    w19  w109  -0.03347120046248457
    w19  w110  0.06643630310849588
    w19  w111  -0.05971777862244617
    w19  w112  -0.09728063516134997
    w19  w113  0.0223375727209478
    w19  w114  0.008432566566192965
    w19  w115  -0.08660176824357665
    w19  w116  -0.15370465281833148
    w19  w117  -0.018501675763461005
    w19  w118  -0.044110958712046094
    w19  w119  -0.014616068315170263
    w19  w120  0.032831538560407464
    w19  w121  -0.023277377355259685
    w19  w122  0.008137566988297198
    w19  w123  0.04455715077514637
    w19  w124  -0.08948758159036321
    w19  w125  0.10856438710202891
    w19  w126  0.07924747767230399
    w19  w127  -0.009974967395393634
    w19  w128  0.004410742707222224
    w19  w129  0.09577503016461592
    w19  w130  -0.03851235758307195
    w19  w131  0.046768702709133546
    w19  w132  0.0062312548887288495
    w19  w133  0.03083991790100311
    w19  w134  -0.08345479579323618
    w19  w135  -0.0688661229434481
    w19  w136  -0.031733401083646744
    w19  w137  0.046500737656138505
    w19  w138  -0.0006149869350597362
    w19  w139  0.10036651989899276
    w19  w140  0.040150259129010706
    w19  w141  -0.019892334528850267
    w19  w142  0.039979023692510766
    w19  w143  -0.018899076858302864
    w19  w144  -0.006258765323209274
    w19  w145  -0.05225249075754228
    w19  w146  -0.014492785776570165
    w19  w147  -0.03276355521622088
    w19  w148  0.008457265885946598
    w19  w149  0.08278501676989462
    w19  w150  0.0019948337740941804
    w19  w151  0.03137687532474055
    w19  w152  -0.01798314878725824
    w19  w153  -0.023066242361059097
    w19  w154  0.019613476985127408
    w19  w155  -0.058261022684897676
    w19  w156  -0.04820306397211656
    w19  w157  0.037140640490553864
    w19  w158  0.05200443229029277
    w19  w159  0.14849089507093274
    w19  w160  -0.061831213756319996
    w19  w161  0.04626599959208042
    w19  w162  0.04569045490801402
    w19  w163  0.055956595154503457
    w19  w164  0.10158925063783968
    w19  w165  -0.1009673063877208
    w19  w166  -0.006340514949221768
    w19  w167  0.040403981550725755
    w19  w168  -0.09294318227216382
    w19  w169  0.06560017530836447
    w19  w170  0.1473623553315782
    w19  w171  -0.11052465416521241
    w19  w172  -0.054098936993752574
    w19  w173  -0.022208784427831765
    w19  w174  0.005635107374628257
    w19  w175  0.012779551929218423
    w19  w176  -0.03187806787931747
    w19  w177  0.07439241333108473
    w19  w178  0.10040580000681312
    w19  w179  0.13037978506545972
    w19  w180  -0.061851748760151676
    w19  w181  -0.029748903223187597
    w19  w182  0.01481406088260817
    w19  w183  -0.001049097907107425
    w19  w184  0.006941605881946966
    w19  w185  -0.008331299204040308
    w19  w186  -0.12306191885134254
    w19  w187  -0.053779973399400875
    w19  w188  0.0492890973531248
    w19  w189  -0.10789726726511076
    w19  w190  0.00308031258010181
    w19  w191  0.02486730302990084
    w19  w192  0.06617910346222904
    w19  w193  -0.011408930715005573
    w19  w194  0.005142608826393099
    w19  w195  0.09128930506371565
    w19  w196  0.08437518967744868
    w19  w197  -0.08218269446488898
    w19  w198  0.11921691468512009
    w19  w199  -0.005194341009184605
    w20  w20  0.2967080241253917
    w20  w21  -0.07417601338781636
    w20  w22  0.011599027117369237
    w20  w23  0.033479855778820004
    w20  w24  0.019189467725576295
    w20  w25  -0.07774506090313894
    w20  w26  -0.039530867131361454
    w20  w27  -0.058277698889132604
    w20  w28  -0.03565831389918597
    w20  w29  -0.0824384771261074
    w20  w30  -0.055305434694330545
    w20  w31  -0.06653958814903776
    w20  w32  0.06556867321447739
    w20  w33  -0.1194787137250076
    w20  w34  -0.021456172710097667
    w20  w35  -0.19897486069293455
    w20  w36  0.1550848549432204
    w20  w37  -0.0363267324498187
    w20  w38  0.019874738542694618
    w20  w39  0.03919099444279389
    w20  w40  -0.0542307545622993
    w20  w41  -0.05186564916275384
    w20  w42  0.029616878194978023
    w20  w43  0.05788489142259966
    w20  w44  -0.14324548742111537
    w20  w45  0.17675720453861385
    w20  w46  0.0021488080933303095
    w20  w47  0.02504347979010297
    w20  w48  -0.031303728663655675
    w20  w49  0.02722125800469037
    w20  w50  0.0981253315431113
    w20  w51  0.019287274766536806
    w20  w52  -0.05710023375501419
    w20  w53  -0.09448244588269704
    w20  w54  0.03126248228314857
    w20  w55  -0.06644561481395007
    w20  w56  0.016409703743692144
    w20  w57  0.028694462175844756
    w20  w58  0.07851742695495585
    w20  w59  -0.07766840238093448
    w20  w60  -0.032459548720507575
    w20  w61  0.07040879477178992
    w20  w62  0.02590398326835028
    w20  w63  -0.0511360833559466
    w20  w64  0.08196748533710375
    w20  w65  -0.04907441909395518
    w20  w66  -0.11879521133530288
    w20  w67  0.0495480864855779
    w20  w68  0.08579463446622541
    w20  w69  -0.008728568899491912
    w20  w70  0.0743248389600788
    w20  w71  -0.007948254260436275
    w20  w72  -0.024022092445255428
    w20  w73  -0.0676927810089575
    w20  w74  0.009331551450891103
    w20  w75  -0.1097762120309923
    w20  w76  0.1254671619155617
    w20  w77  0.1353994294464227
    w20  w78  0.03851097514954614
    w20  w79  -0.0679022004194502
    w20  w80  0.05209619772456993
    w20  w81  0.006031591526649627
    w20  w82  -0.02989553585801868
    w20  w83  0.10221455948515559
    w20  w84  -0.05102684579210936
    w20  w85  0.06634102643510827
    w20  w86  0.18347357011945245
    w20  w87  -0.14525458718858347
    w20  w88  -0.09067758955390862
    w20  w89  0.14297150227136335
    w20  w90  -0.02839412584869941
    w20  w91  0.020949472424655974
    w20  w92  0.0242542951038959
    w20  w93  -0.021162270149190286
    w20  w94  -0.05276202049158661
    w20  w95  0.09266821586680048
    w20  w96  0.13662589353760501
    w20  w97  -0.03612349408347427
    w20  w98  -0.07353685696945265
    w20  w99  0.022050542249228942
    w20  w100  0.013703251266554558
    w20  w101  -0.04060473472837447
    w20  w102  0.0008385128866093346
    w20  w103  0.03885046746114395
    w20  w104  -0.1796129756917668
    w20  w105  0.008090177385785427
    w20  w106  0.021938995916079555
    w20  w107  -0.08625235262412137
    w20  w108  -0.08669098301997483
    w20  w109  0.03908420390028027
    w20  w110  -0.03422245137801037
    w20  w111  -0.0400531455283935
    w20  w112  -0.0047561724944305385
    w20  w113  0.07211588938850216
    w20  w114  -0.030405205386951007
    w20  w115  0.052116121014310665
    w20  w116  -0.09981217098558662
    w20  w117  -0.031403969381171126
    w20  w118  0.08090979951425738
    w20  w119  0.0475569528444985
    w20  w120  0.13349593840085736
    w20  w121  -0.03521071748410579
    w20  w122  -0.08420178495791715
    w20  w123  0.1103259303535875
    w20  w124  -0.02602055843386247
    w20  w125  0.08679348621544716
    w20  w126  0.05761821980476961
    w20  w127  0.0008337349712978648
    w20  w128  0.009658457033391585
    w20  w129  0.08956895483976832
    w20  w130  -0.05128969957043985
    w20  w131  0.00191087972700368
    w20  w132  0.08887535102743244
    w20  w133  0.06782460274926362
    w20  w134  0.043733947319833336
    w20  w135  -0.02436952691270328
    w20  w136  -0.0541626721127292
    w20  w137  -0.08417736793142093
    w20  w138  -0.0839804112830461
    w20  w139  0.140450113698823
    w20  w140  0.02623230869966148
    w20  w141  0.00796220277872971
    w20  w142  -0.012046657420330825
    w20  w143  0.1884436400537964
    w20  w144  0.09167728598623162
    w20  w145  -0.010006397094206991
    w20  w146  -0.002492157778147765
    w20  w147  -0.01559681911576327
    w20  w148  -0.1375946509492981
    w20  w149  -0.06238127401308412
    w20  w150  -0.10676460479178848
    w20  w151  0.06688751614035734
    w20  w152  -0.024337484622140772
    w20  w153  -0.10248319362625084
    w20  w154  -0.07084846295996211
    w20  w155  0.010805755835782253
    w20  w156  0.02286382114348046
    w20  w157  0.021470456587529673
    w20  w158  0.02747534309882802
    w20  w159  0.03521825785649239
    w20  w160  -0.09333846367153179
    w20  w161  0.07476680338115581
    w20  w162  -0.026854562568411598
    w20  w163  0.07560541001537555
    w20  w164  0.1217073367501782
    w20  w165  -0.022450077913872372
    w20  w166  0.09291307077541867
    w20  w167  0.17109328488912062
    w20  w168  -0.10784816428567717
    w20  w169  -0.01924979925551192
    w20  w170  0.06389716254428508
    w20  w171  -0.07405096766668086
    w20  w172  -0.1231750664547115
    w20  w173  0.03426493942441195
    w20  w174  0.050761070837906895
    w20  w175  0.006229632838245728
    w20  w176  -0.06410797992328862
    w20  w177  0.0850778576133069
    w20  w178  0.03385156902174272
    w20  w179  0.10503573768083131
    w20  w180  0.007629379146879046
    w20  w181  -0.021751928722170393
    w20  w182  -0.07608539842414337
    w20  w183  -0.05013661385519711
    w20  w184  0.012591200161170999
    w20  w185  0.04860004423117499
    w20  w186  -0.041481831022905494
    w20  w187  -0.13683709210534042
    w20  w188  0.035682888640656024
    w20  w189  -0.0495605791683846
    w20  w190  -0.07973669550010885
    w20  w191  -0.004706471360273007
    w20  w192  0.00948706130559911
    w20  w193  0.02769707884469069
    w20  w194  0.050724450798498744
    w20  w195  0.08683118329375272
    w20  w196  -0.038068207425734656
    w20  w197  -0.06883467677690958
    w20  w198  0.20003371128688405
    w20  w199  -0.17489736372473705
    w21  w21  0.191762327437684
    w21  w22  0.00361909530217824
    w21  w23  0.00539718659164887
    w21  w24  -0.06772450995359029
    w21  w25  -0.015225648955560823
    w21  w26  -0.07558543185359634
    w21  w27  0.05921990902547324
    w21  w28  0.0037864904640108124
    w21  w29  0.02365295294881127
    w21  w30  0.04380248845501076
    w21  w31  0.0022542480489980777
    w21  w32  0.0001965416314457889
    w21  w33  0.13574610128707615
    w21  w34  -0.0010047913655137663
    w21  w35  0.12150701568221553
    w21  w36  -0.07260154387574795
    w21  w37  0.019282387173452622
    w21  w38  -0.011191951665537334
    w21  w39  -0.019841667895495102
    w21  w40  -0.001389921811695338
    w21  w41  -0.02810428594317745
    w21  w42  -0.03508587018589168
    w21  w43  0.08414199682966124
    w21  w44  -0.09017350202114391
    w21  w45  -0.0397277628734245
    w21  w46  -0.004300523266734442
    w21  w47  0.00041016890535805494
    w21  w48  -0.013632837737010923
    w21  w49  -0.017064726751836092
    w21  w50  -0.08360263908895345
    w21  w51  0.012350834952293195
    w21  w52  -0.046149492800823005
    w21  w53  -0.026935664560560034
    w21  w54  0.03980827771318449
    w21  w55  0.028360198350960052
    w21  w56  -0.001912796635330021
    w21  w57  0.012612020725958352
    w21  w58  -0.017301905653856354
    w21  w59  0.055854878458075415
    w21  w60  0.029032053064392896
    w21  w61  -0.09142005361764712
    w21  w62  0.03650074671699091
    w21  w63  0.02968527651173273
    w21  w64  -0.026359076028450952
    w21  w65  -0.06603590506113852
    w21  w66  -0.004087021944806401
    w21  w67  -0.017617461759155132
    w21  w68  -0.09274375393607885
    w21  w69  0.011719177989857103
    w21  w70  0.003642244267500127
    w21  w71  -0.045393243463425464
    w21  w72  -0.053153117336317356
    w21  w73  0.038550254264310316
    w21  w74  0.07754126471518613
    w21  w75  0.06610192754783409
    w21  w76  -0.10083920620635926
    w21  w77  -0.03506949733326089
    w21  w78  -0.04368966004657014
    w21  w79  -0.016280607025344798
    w21  w80  0.03628898743199125
    w21  w81  -0.004071400109307834
    w21  w82  0.10911193111671867
    w21  w83  -0.03758299546888093
    w21  w84  -0.05990303910106471
    w21  w85  0.023784114312924286
    w21  w86  -0.05155188391674951
    w21  w87  -0.008345408612964355
    w21  w88  0.001525550175592898
    w21  w89  -0.028799131027271482
    w21  w90  -0.08539799773894238
    w21  w91  -0.032153218425492666
    w21  w92  -0.008062001912090909
    w21  w93  0.06523777481894757
    w21  w94  0.06453871818472381
    w21  w95  -0.00427159860638218
    w21  w96  -0.041735183890888934
    w21  w97  0.0924443079033893
    w21  w98  -0.02994497586151292
    w21  w99  -0.010803181045126335
    w21  w100  0.05298533554216053
    w21  w101  0.0024558841496376007
    w21  w102  -0.04213643956072486
    w21  w103  -0.15709869508355703
    w21  w104  0.07869459392218751
    w21  w105  -0.06437280530637196
    w21  w106  -0.0014448170829681995
    w21  w107  0.01816194667716448
    w21  w108  0.09558244623352735
    w21  w109  0.024604903884948313
    w21  w110  0.008350431696762766
    w21  w111  -0.05980967979854511
    w21  w112  -0.035077165312725596
    w21  w113  -0.05458317991968775
    w21  w114  -0.05641864038212415
    w21  w115  -0.01685195354070239
    w21  w116  -0.049470321162671346
    w21  w117  -0.09162430426787456
    w21  w118  0.020388233984016027
    w21  w119  -0.08615560627134179
    w21  w120  -0.10785158416854727
    w21  w121  0.02511443931450231
    w21  w122  0.02844629884737555
    w21  w123  0.013402505258579311
    w21  w124  -0.009334549398061316
    w21  w125  -0.009872361033603866
    w21  w126  -0.029514578504387268
    w21  w127  0.03610931159893998
    w21  w128  -0.07445236940439377
    w21  w129  -0.0777898795230296
    w21  w130  0.07533657770636291
    w21  w131  0.05399401773473145
    w21  w132  0.012096892785172522
    w21  w133  0.025213768219583575
    w21  w134  -0.005146542398020998
    w21  w135  -0.02350678998284946
    w21  w136  0.01746826021701488
    w21  w137  -0.0042315561535661485
    w21  w138  0.09437445573062113
    w21  w139  -0.09182574536580546
    w21  w140  0.037935658805700975
    w21  w141  0.07051365744437026
    w21  w142  -0.07827787362846131
    w21  w143  -0.06657802291864233
    w21  w144  -0.09478344772346835
    w21  w145  0.049951251983315986
    w21  w146  -0.037636008939208015
    w21  w147  0.03952896795656884
    w21  w148  0.05900759930858603
    w21  w149  0.02995802414780679
    w21  w150  0.041525791288758496
    w21  w151  -0.026522355925818746
    w21  w152  -0.019788206344937737
    w21  w153  0.006596829582276236
    w21  w154  -0.1137980063254243
    w21  w155  -0.008311982497345214
    w21  w156  0.013847142194530674
    w21  w157  -0.01184739861123573
    w21  w158  0.007832177955810479
    w21  w159  -0.02233574785854551
    w21  w160  -0.05078812386376059
    w21  w161  0.010315063321255463
    w21  w162  -0.037128583080936785
    w21  w163  -0.054659763961575146
    w21  w164  0.021682915350195186
    w21  w165  0.01613149452498013
    w21  w166  0.05281214308644415
    w21  w167  -0.04407114231844858
    w21  w168  -0.0381609061397744
    w21  w169  -0.03134245013637635
    w21  w170  -0.010726673196645045
    w21  w171  0.0916913765018668
    w21  w172  0.08649302484155846
    w21  w173  0.07978180733894627
    w21  w174  0.0029053195557955254
    w21  w175  -0.06099592215857245
    w21  w176  0.018422465283663387
    w21  w177  -0.033549111992206816
    w21  w178  -0.02549608210996732
    w21  w179  -0.0011882388290715806
    w21  w180  0.019093496297086645
    w21  w181  0.026373702826084883
    w21  w182  0.11728350634916775
    w21  w183  0.00435761695353824
    w21  w184  -0.05535960562259722
    w21  w185  -0.02498701715952311
    w21  w186  -0.060790658844105665
    w21  w187  0.04109817988340056
    w21  w188  -0.024377064513194633
    w21  w189  0.11134191439491442
    w21  w190  0.032579269499996566
    w21  w191  0.025224703375536308
    w21  w192  -0.018934158891325232
    w21  w193  -0.00496447625604608
    w21  w194  -0.0027551975754472103
    w21  w195  -0.07289188093736834
    w21  w196  0.0007791069230153549
    w21  w197  -0.003796517424851968
    w21  w198  -0.02553861328355557
    w21  w199  0.021816332691174833
    w22  w22  0.17045556702481096
    w22  w23  0.03800227443430845
    w22  w24  -0.0908392673535377
    w22  w25  -0.01358181641572516
    w22  w26  0.05576422507045534
    w22  w27  0.03489451609049877
    w22  w28  -0.06745312057048677
    w22  w29  -0.004457134604622764
    w22  w30  0.13074590675818348
    w22  w31  -0.07385042588845878
    w22  w32  -0.006910073785493113
    w22  w33  0.027791932781155673
    w22  w34  0.028570550058565982
    w22  w35  -0.016202601143310385
    w22  w36  -0.03981278064940658
    w22  w37  -0.09567577317522893
    w22  w38  0.011270663467417289
    w22  w39  0.005490185947889195
    w22  w40  0.014111612231623012
    w22  w41  0.07189768935323405
    w22  w42  0.059671873118208055
    w22  w43  0.061165571331425105
    w22  w44  -0.01656975977078991
    w22  w45  -0.028146927333343195
    w22  w46  0.02215001678667312
    w22  w47  0.022466802529123336
    w22  w48  -0.003665212040999885
    w22  w49  -0.04316464446537662
    w22  w50  -0.10069277083811125
    w22  w51  -0.0017789135345081288
    w22  w52  -0.03769552871857496
    w22  w53  0.05263931932344179
    w22  w54  0.024286460826811802
    w22  w55  -0.16434720091391714
    w22  w56  -0.002713950629351092
    w22  w57  -0.008919052285244772
    w22  w58  -0.04725682316882725
    w22  w59  -0.04797393471684888
    w22  w60  -0.047031417647211284
    w22  w61  -0.009623743183891942
    w22  w62  -0.028114915299029812
    w22  w63  0.009192635255956821
    w22  w64  -0.029704882131637834
    w22  w65  -0.06706881847367469
    w22  w66  -0.028409140584215484
    w22  w67  -0.07026126009189454
    w22  w68  0.04734477794777049
    w22  w69  -0.06981504117691482
    w22  w70  -0.022029559254848487
    w22  w71  -0.021259792859418494
    w22  w72  -0.024099183572383703
    w22  w73  -0.05915906210100936
    w22  w74  -0.08365451603540734
    w22  w75  0.05398002387241099
    w22  w76  -0.02998082607457081
    w22  w77  0.06462861616792676
    w22  w78  -0.027437529028872313
    w22  w79  0.09806838913248479
    w22  w80  -0.10101234155599412
    w22  w81  -0.01578991793506016
    w22  w82  0.0142425897823738
    w22  w83  -0.012670431788064748
    w22  w84  0.004519982800886388
    w22  w85  -0.07254982123884422
    w22  w86  0.035431487881487686
    w22  w87  -0.029511786786609442
    w22  w88  0.09810186062712432
    w22  w89  -0.07155004891069493
    w22  w90  -0.02267666401257262
    w22  w91  -0.09392432485969342
    w22  w92  -0.014591355809560632
    w22  w93  -0.032916333861213724
    w22  w94  0.05714790213448615
    w22  w95  0.11103043455067185
    w22  w96  -0.03032240844378435
    w22  w97  -0.033557054893148926
    w22  w98  -0.11756145666481689
    w22  w99  -0.03755331398591933
    w22  w100  -0.025183332093889208
    w22  w101  0.03887989536538839
    w22  w102  0.10797733998603729
    w22  w103  0.04646818439611623
    w22  w104  -0.014646868576784634
    w22  w105  0.08835954733746232
    w22  w106  0.06453978619014823
    w22  w107  0.012835437949061947
    w22  w108  -0.12710517486089293
    w22  w109  0.031023978364796086
    w22  w110  -0.1007046537004809
    w22  w111  0.041235475842303734
    w22  w112  0.003326542884949398
    w22  w113  0.030863613654580527
    w22  w114  -0.13046135242445045
    w22  w115  0.07626464141797983
    w22  w116  0.012949878981571836
    w22  w117  -0.1087105664625224
    w22  w118  0.02853898442788661
    w22  w119  0.018381968869873557
    w22  w120  -0.024364047207122302
    w22  w121  0.023497130849649262
    w22  w122  -0.039066251348544606
    w22  w123  -0.07908102341502797
    w22  w124  0.04156815833180028
    w22  w125  0.06022872605574841
    w22  w126  -0.06589105131563369
    w22  w127  -0.06267668087419964
    w22  w128  -0.008642986269324016
    w22  w129  -0.017820175398267777
    w22  w130  0.09159577319284255
    w22  w131  -0.05073596278979754
    w22  w132  0.025144102262410824
    w22  w133  0.04860018494848411
    w22  w134  -0.049737754008572284
    w22  w135  -0.057079729585167764
    w22  w136  0.027787143666313498
    w22  w137  -0.09765948916056337
    w22  w138  0.02576229861538727
    w22  w139  0.039370351039637964
    w22  w140  -0.08254504903904913
    w22  w141  -0.014614310425729448
    w22  w142  -0.2001257231560934
    w22  w143  0.08142241562446385
    w22  w144  -0.03219854907877937
    w22  w145  0.01088644178165361
    w22  w146  0.013727087605766249
    w22  w147  0.023789863007040703
    w22  w148  0.024147081540440683
    w22  w149  0.0918381682451314
    w22  w150  -0.008152057716961118
    w22  w151  0.09302924239192793
    w22  w152  -0.015007616936087325
    w22  w153  0.053458532316340214
    w22  w154  -0.08496667324758841
    w22  w155  0.01135449518112982
    w22  w156  -0.02849230646915641
    w22  w157  -0.018948642186012325
    w22  w158  0.0010123379791923876
    w22  w159  -0.02474348134561556
    w22  w160  0.02881967859263122
    w22  w161  -0.00393780639985495
    w22  w162  -0.04578609617775637
    w22  w163  -0.0649347534233491
    w22  w164  -0.039143475207798796
    w22  w165  0.0249152216730963
    w22  w166  0.010911401928568825
    w22  w167  -0.039452134427454995
    w22  w168  0.10762507559801518
    w22  w169  -0.09664368079050087
    w22  w170  0.012662820047406842
    w22  w171  0.1355516672704473
    w22  w172  -0.11581192541862317
    w22  w173  -0.019577479101069502
    w22  w174  -0.03697462059295064
    w22  w175  -0.05703079445713639
    w22  w176  -0.009734900823971576
    w22  w177  0.049230426855312405
    w22  w178  0.06896859551746116
    w22  w179  -0.12173720679656436
    w22  w180  0.004085033751570027
    w22  w181  -0.009805885800774348
    w22  w182  0.048210716638832835
    w22  w183  0.008357638339451431
    w22  w184  -0.08501683024563568
    w22  w185  -0.011987450269695485
    w22  w186  -0.04276324216931571
    w22  w187  0.020465466792142423
    w22  w188  0.00933421558065134
    w22  w189  0.029542463335125894
    w22  w190  -0.08938335716683324
    w22  w191  0.018206312445224478
    w22  w192  -0.095245316185466
    w22  w193  -0.03382936743302205
    w22  w194  -0.009155759119431483
    w22  w195  -0.025860505662201237
    w22  w196  0.02258324580736744
    w22  w197  0.017808879872873468
    w22  w198  -0.02478866629470212
    w22  w199  -0.04915518243262452
    w23  w23  0.17846715713313138
    w23  w24  -0.09686676379267335
    w23  w25  -0.08715200874790899
    w23  w26  0.000842346110064382
    w23  w27  -0.014391049400351744
    w23  w28  -0.02441969698696994
    w23  w29  -0.049732662212362555
    w23  w30  -0.004317675845913347
    w23  w31  -0.09095536787355395
    w23  w32  -0.0751071561692373
    w23  w33  0.13571890272878734
    w23  w34  0.009394464276706314
    w23  w35  -0.02019425735705612
    w23  w36  -0.0626669956463998
    w23  w37  -0.050567057632919896
    w23  w38  -0.04715764175712001
    w23  w39  -0.03999336249702464
    w23  w40  0.07720005381926505
    w23  w41  -0.02455769162057568
    w23  w42  -0.006860306263829639
    w23  w43  0.0105913309125928
    w23  w44  0.005960562038505977
    w23  w45  0.11253335678329265
    w23  w46  0.005139405139225107
    w23  w47  -0.07345006095415767
    w23  w48  -0.06799016228145571
    w23  w49  -0.001281339930769342
    w23  w50  -0.025756043706641064
    w23  w51  0.05036561157908556
    w23  w52  -0.0158122570058437
    w23  w53  0.00797301751124058
    w23  w54  0.07717253843314498
    w23  w55  -0.07547038578738281
    w23  w56  0.014145956632261652
    w23  w57  0.009790754750845182
    w23  w58  0.013654376884464619
    w23  w59  0.10140626113111371
    w23  w60  0.010895022621590924
    w23  w61  -0.00642640556346847
    w23  w62  0.06013652268620817
    w23  w63  0.006078218915861033
    w23  w64  0.06908910593464582
    w23  w65  0.008123031967971853
    w23  w66  -0.07550562585565486
    w23  w67  0.02988314048341244
    w23  w68  -0.053120935053582674
    w23  w69  0.08254892435671125
    w23  w70  -0.044451144844357485
    w23  w71  0.03231850768082401
    w23  w72  -0.014573538736815246
    w23  w73  0.030625893585716508
    w23  w74  -0.03307717723523641
    w23  w75  0.010950398277445613
    w23  w76  -0.10389757852821972
    w23  w77  0.07600502897328429
    w23  w78  0.003394079466265162
    w23  w79  0.09183308558000922
    w23  w80  -0.041733332326685524
    w23  w81  -0.0769628783949505
    w23  w82  0.05819112580548593
    w23  w83  -0.02221606789132953
    w23  w84  0.05158648581588425
    w23  w85  -0.02970761610168188
    w23  w86  -0.010076959492927098
    w23  w87  -0.031092422589492467
    w23  w88  0.03210111450446145
    w23  w89  -0.005334752358894273
    w23  w90  -0.1639449759129448
    w23  w91  -0.023150291023435375
    w23  w92  0.012256730261082094
    w23  w93  -0.019666533863257556
    w23  w94  -0.023449980114806302
    w23  w95  0.002849812962547371
    w23  w96  0.0232500432087435
    w23  w97  0.006720340558439177
    w23  w98  -0.06045592659645844
    w23  w99  -0.02316533769760057
    w23  w100  -0.009332206422014953
    w23  w101  0.0015281576827148881
    w23  w102  -0.010546659998287407
    w23  w103  -0.06140418339442472
    w23  w104  0.06200363985760676
    w23  w105  -0.00036598741002766364
    w23  w106  0.02849691097986107
    w23  w107  -0.006198202184454442
    w23  w108  -0.007011482941802834
    w23  w109  -0.08232422666088318
    w23  w110  -0.06275864745154112
    w23  w111  0.08408168360966949
    w23  w112  0.029959800151065655
    w23  w113  -0.00601997320690285
    w23  w114  -0.08646036721756455
    w23  w115  0.03211672165184018
    w23  w116  -0.05849995227025403
    w23  w117  -0.03715234362640375
    w23  w118  0.026749838200137023
    w23  w119  0.06281459877711516
    w23  w120  -0.002112432077216218
    w23  w121  -0.06813221255986737
    w23  w122  0.07272627795036647
    w23  w123  0.050222968656798234
    w23  w124  -0.052273021782460634
    w23  w125  0.08892274036699244
    w23  w126  0.06914597024399861
    w23  w127  0.004950672487276707
    w23  w128  0.014029815855246233
    w23  w129  0.03572620136069139
    w23  w130  -0.07396876814440799
    w23  w131  -0.035314376845761344
    w23  w132  -0.03225937455392514
    w23  w133  0.07142722176211252
    w23  w134  -0.19572275080116117
    w23  w135  -0.056782561638892004
    w23  w136  0.041613763127598756
    w23  w137  0.047937503053991
    w23  w138  -0.0314816879293281
    w23  w139  0.011827502977741478
    w23  w140  -0.05957385320405956
    w23  w141  0.009212999793165715
    w23  w142  0.02371751642319801
    w23  w143  0.011341157268598212
    w23  w144  -0.05682663399862109
    w23  w145  -0.050846701769439256
    w23  w146  0.015874141715206153
    w23  w147  0.0711409142066395
    w23  w148  -0.01648032644327611
    w23  w149  0.08897054939792634
    w23  w150  0.012973811239190582
    w23  w151  0.02798476907190745
    w23  w152  0.06269730393178959
    w23  w153  -0.10827362605487276
    w23  w154  -0.030657081178625617
    w23  w155  0.09430911340587934
    w23  w156  -0.0052000206791292325
    w23  w157  0.029599472808411156
    w23  w158  0.08912877948889626
    w23  w159  0.049440635860014855
    w23  w160  -0.030699407283383225
    w23  w161  -0.07940182080839527
    w23  w162  -0.02938214958383561
    w23  w163  0.006944153678559713
    w23  w164  0.06298170424562059
    w23  w165  -0.009789036255148752
    w23  w166  -0.07668995783997874
    w23  w167  -0.01807909829821639
    w23  w168  -0.038660640892741995
    w23  w169  0.06722889749319787
    w23  w170  0.052119113442719786
    w23  w171  0.023605537936303135
    w23  w172  -0.05241111845667867
    w23  w173  -0.10462172687997401
    w23  w174  0.035292429883584685
    w23  w175  -0.045316354068156525
    w23  w176  -0.07688716823155012
    w23  w177  -0.0020379981319322196
    w23  w178  0.047504198993460346
    w23  w179  0.008460109843684876
    w23  w180  0.05416202354190981
    w23  w181  -0.07319366740616381
    w23  w182  0.011532914502375664
    w23  w183  -0.0013541297199882116
    w23  w184  -0.027165185733956945
    w23  w185  0.045307272157340234
    w23  w186  -0.1733459024844243
    w23  w187  0.012389751816516152
    w23  w188  -0.004919483852906319
    w23  w189  -0.05717808212116672
    w23  w190  -0.005152588372933735
    w23  w191  0.03895557700247718
    w23  w192  0.016331222916495514
    w23  w193  -0.08056380838561919
    w23  w194  -0.04990727466315244
    w23  w195  0.008330636133117814
    w23  w196  -0.0015712678675105336
    w23  w197  -0.06289272673420007
    w23  w198  0.06102489621708408
    w23  w199  0.021486067241963527
    w24  w24  0.2655256692140301
    w24  w25  -0.003758512067427653
    w24  w26  0.013335587470213425
    w24  w27  -0.03063825569277567
    w24  w28  0.07605740312049035
    w24  w29  0.03595950935393457
    w24  w30  -0.03825323449664725
    w24  w31  0.0645730325112928
    w24  w32  0.09517232864969029
    w24  w33  -0.12825865261742667
    w24  w34  -0.01136446234201102
    w24  w35  -0.067068556405935
    w24  w36  0.06862169725431543
    w24  w37  0.023971144823722708
    w24  w38  0.027492352420449125
    w24  w39  0.017220974977061272
    w24  w40  0.009394150907856379
    w24  w41  0.03981770038834615
    w24  w42  -0.04173299043083147
    w24  w43  -0.0600461582448388
    w24  w44  0.037002407587752556
    w24  w45  0.008564033809015699
    w24  w46  0.007003210501210397
    w24  w47  0.029026723044999963
    w24  w48  0.0369878917018004
    w24  w49  0.012880662195156519
    w24  w50  0.10410882611899558
    w24  w51  -0.023086612192250593
    w24  w52  0.05043590202330524
    w24  w53  -0.03360700438406981
    w24  w54  -0.05936986663988535
    w24  w55  0.1605101136190381
    w24  w56  -0.011940510169819849
    w24  w57  -0.036695237405297634
    w24  w58  -0.005641000944358799
    w24  w59  -0.058160490352205926
    w24  w60  -0.016426587235538456
    w24  w61  0.0965386060583597
    w24  w62  -0.05471461699660333
    w24  w63  -0.026916009025747964
    w24  w64  0.048457634485744513
    w24  w65  0.01236222162709817
    w24  w66  0.10137817450867428
    w24  w67  0.0335856636489688
    w24  w68  0.050797577318228676
    w24  w69  -0.06829013723746197
    w24  w70  0.05049077270278713
    w24  w71  0.03099760937370951
    w24  w72  -0.0022551115077670764
    w24  w73  -0.028112920070616252
    w24  w74  0.010344661433052828
    w24  w75  -0.045162264049732
    w24  w76  0.09114821587953263
    w24  w77  -0.028252689815653126
    w24  w78  -0.001108850920717101
    w24  w79  -0.09080991707715719
    w24  w80  0.008833836815121583
    w24  w81  0.032229055044230216
    w24  w82  -0.0797494970485995
    w24  w83  -0.01098144050078095
    w24  w84  -0.0032280662946723364
    w24  w85  0.019222673523991606
    w24  w86  0.06294282418538441
    w24  w87  0.02198521860788523
    w24  w88  -0.12010006347481678
    w24  w89  0.05215032325136911
    w24  w90  0.14632969260051026
    w24  w91  0.054686637481516254
    w24  w92  0.012162395067948997
    w24  w93  -0.01892140495324685
    w24  w94  -0.05651850988077931
    w24  w95  -0.02414944974718291
    w24  w96  0.03855505703400627
    w24  w97  0.005182206237778638
    w24  w98  0.13124602234386862
    w24  w99  0.019599793045235604
    w24  w100  -0.038039281485138174
    w24  w101  -0.040783392588193496
    w24  w102  -0.004053439177016507
    w24  w103  0.08394761532618067
    w24  w104  -0.13019991228559422
    w24  w105  0.005970769701140025
    w24  w106  -0.027755493988612937
    w24  w107  -0.09513369928303618
    w24  w108  -0.05111298622372293
    w24  w109  -0.03220848059124345
    w24  w110  0.07872052595133386
    w24  w111  -0.07027390712387042
    w24  w112  -0.06356778363179169
    w24  w113  0.0037606083592757918
    w24  w114  0.1169884804450311
    w24  w115  -0.06411588158279924
    w24  w116  -0.002191723597446712
    w24  w117  0.07266624442518967
    w24  w118  -0.12616085411858072
    w24  w119  -0.03833033300911499
    w24  w120  0.0303789098548039
    w24  w121  0.09073493751833274
    w24  w122  -0.02703332522866866
    w24  w123  -0.026959459313855145
    w24  w124  -0.010030669403662292
    w24  w125  -0.013481790816113347
    w24  w126  -0.009650104219873563
    w24  w127  -0.0358005862959192
    w24  w128  0.024258716299181554
    w24  w129  0.04363671470196529
    w24  w130  -0.03908329576741921
    w24  w131  0.00554663780949866
    w24  w132  -0.020728245742814073
    w24  w133  -0.1054416440104734
    w24  w134  0.08087752468230588
    w24  w135  0.01916252944077183
    w24  w136  -0.020899708837414786
    w24  w137  0.05517092117567287
    w24  w138  0.006075225955437187
    w24  w139  0.043323654719003006
    w24  w140  0.004921313693527258
    w24  w141  -0.0822795728070577
    w24  w142  0.12447407523279186
    w24  w143  -0.0014742199053975357
    w24  w144  0.086581671658842
    w24  w145  0.003985753680499328
    w24  w146  0.01055855149551069
    w24  w147  -0.09855372303117398
    w24  w148  0.00521338421978238
    w24  w149  -0.05911719430575143
    w24  w150  0.017266555258096623
    w24  w151  -0.0556986225991338
    w24  w152  -0.04579683182444001
    w24  w153  0.08159444599969166
    w24  w154  0.09600331420256047
    w24  w155  -0.10151104744248561
    w24  w156  -0.0619522109589234
    w24  w157  -0.019088120131460773
    w24  w158  -0.07476532277330135
    w24  w159  0.05690285752651253
    w24  w160  0.05334285346802818
    w24  w161  0.028365985772895952
    w24  w162  0.035107983246117976
    w24  w163  0.06952276983681062
    w24  w164  -0.023358639609578388
    w24  w165  -0.0222777804689144
    w24  w166  -0.01517768384287117
    w24  w167  0.04751340559218472
    w24  w168  -0.011793108601347333
    w24  w169  0.045691828813561194
    w24  w170  0.05319778027301524
    w24  w171  -0.15460632186506604
    w24  w172  0.025688497238447572
    w24  w173  0.0404793914409867
    w24  w174  0.012683601476054913
    w24  w175  0.12271888811334854
    w24  w176  0.01452088204868325
    w24  w177  0.02070729776817947
    w24  w178  0.012942426214526888
    w24  w179  0.07557619446369021
    w24  w180  -0.0992080117489139
    w24  w181  0.025058224112779616
    w24  w182  -0.013787216678514817
    w24  w183  -0.009886900223084787
    w24  w184  0.029120218878802243
    w24  w185  -0.020567984148670948
    w24  w186  0.0849647270299916
    w24  w187  -0.07875164305874438
    w24  w188  0.021957988352502626
    w24  w189  -0.017289576883385054
    w24  w190  0.014104037581259431
    w24  w191  0.0011013771114058563
    w24  w192  0.0577875054241907
    w24  w193  0.10224295763553809
    w24  w194  0.042918110721610156
    w24  w195  0.07844970514309468
    w24  w196  0.11117794286996176
    w24  w197  0.028730187972355582
    w24  w198  0.01711799959984612
    w24  w199  0.04641681343872281
    w25  w25  0.24442926817705102
    w25  w26  0.07605941987156681
    w25  w27  -0.0326060260092815
    w25  w28  0.019488130646690905
    w25  w29  0.06686489368667552
    w25  w30  0.06663244115600941
    w25  w31  0.018665787708469297
    w25  w32  0.03225883122813371
    w25  w33  -0.058093361239613575
    w25  w34  0.008621868102845038
    w25  w35  0.05461055887669985
    w25  w36  0.04452962470935628
    w25  w37  0.06409802486133818
    w25  w38  0.008699687234978937
    w25  w39  -0.011656590698246646
    w25  w40  -0.028550956370941093
    w25  w41  -0.04839220061688653
    w25  w42  -0.003978714093046327
    w25  w43  -0.04059067722811319
    w25  w44  0.05933579693438141
    w25  w45  -0.026995537561667202
    w25  w46  0.03736792766812132
    w25  w47  0.0033335818435900034
    w25  w48  0.0454152845513634
    w25  w49  -0.001692263649944322
    w25  w50  0.037883302265574514
    w25  w51  -0.04425471287344538
    w25  w52  0.006479789659664592
    w25  w53  0.023298395701971814
    w25  w54  -0.08431639023703469
    w25  w55  0.04355288651662467
    w25  w56  0.04361052002249423
    w25  w57  -0.010426399739584834
    w25  w58  -0.02861358285568587
    w25  w59  -0.0381650542073962
    w25  w60  0.04381347790062022
    w25  w61  -0.07360652990981434
    w25  w62  -0.07802228425932674
    w25  w63  0.02490679925173304
    w25  w64  -0.14112971800588872
    w25  w65  0.027840373252306035
    w25  w66  0.000458939517511196
    w25  w67  -0.0875864847821037
    w25  w68  0.01995974579214086
    w25  w69  -0.015931951300123978
    w25  w70  -0.07633640207954234
    w25  w71  -0.050574822668534546
    w25  w72  -0.025599130518628475
    w25  w73  0.031753423210616916
    w25  w74  0.028647364830916965
    w25  w75  0.027806998801447214
    w25  w76  0.08229890481814081
    w25  w77  -0.06621057094589804
    w25  w78  0.031271236431974686
    w25  w79  -0.05664464718877871
    w25  w80  0.069299702676317
    w25  w81  0.038291580417886995
    w25  w82  -0.09616094080356388
    w25  w83  0.05850648377725908
    w25  w84  -0.017879950378389808
    w25  w85  -0.009924277292948494
    w25  w86  -0.11575337380297213
    w25  w87  0.012438199166706052
    w25  w88  0.08734683015931088
    w25  w89  -0.03921651234860952
    w25  w90  0.09677060197907358
    w25  w91  0.028369858295941894
    w25  w92  0.00617271168319605
    w25  w93  0.022899859252118262
    w25  w94  0.03430688867151989
    w25  w95  0.0036054802518991165
    w25  w96  -0.030305280378654726
    w25  w97  -0.01889837721160336
    w25  w98  -0.016112199332841186
    w25  w99  0.044482772963231984
    w25  w100  0.025437309219860236
    w25  w101  0.028247529452738607
    w25  w102  -0.0024400650559633303
    w25  w103  0.14070596788613604
    w25  w104  0.03829422995738758
    w25  w105  0.01019449063488783
    w25  w106  -0.05257429458933497
    w25  w107  0.056796291412384625
    w25  w108  0.06485475671577227
    w25  w109  0.13355084963760097
    w25  w110  0.04195618051884088
    w25  w111  0.003168857362270172
    w25  w112  0.01831670558451072
    w25  w113  -0.0042376668695864525
    w25  w114  0.07618095600937554
    w25  w115  -0.03330685014275663
    w25  w116  0.05792033299462069
    w25  w117  0.06344165145468962
    w25  w118  0.029578723303335525
    w25  w119  -0.015200278047789928
    w25  w120  0.009033754668380486
    w25  w121  -0.029197451073860976
    w25  w122  -0.021037011226471836
    w25  w123  -0.055584756218148
    w25  w124  0.061746833433329346
    w25  w125  -0.10509873691597094
    w25  w126  -0.03659187144144545
    w25  w127  0.06730250249259694
    w25  w128  0.020350234400004902
    w25  w129  -0.025565736857568272
    w25  w130  0.04767503321654125
    w25  w131  0.09085403945329723
    w25  w132  0.020925108274634636
    w25  w133  -0.05098499714193353
    w25  w134  0.12646066452558846
    w25  w135  0.09840967345000107
    w25  w136  -0.0038141657191417748
    w25  w137  -0.03316783636854423
    w25  w138  -0.023496297248535494
    w25  w139  0.02188127428604965
    w25  w140  0.048463294631896144
    w25  w141  -0.029944458625289647
    w25  w142  -0.0036283359313532206
    w25  w143  -0.10792946648815221
    w25  w144  -0.061549322100378535
    w25  w145  -0.011806232371741764
    w25  w146  -0.04037597095355296
    w25  w147  0.016157492083438713
    w25  w148  0.06457672712232779
    w25  w149  -0.014798365261962827
    w25  w150  -0.008634908906516178
    w25  w151  -0.03421304395466405
    w25  w152  0.03691543992575789
    w25  w153  0.04961466143051893
    w25  w154  0.09849536091789114
    w25  w155  -0.05168683708753438
    w25  w156  0.05061794692020018
    w25  w157  -0.002173864812107628
    w25  w158  -0.0017500102564947193
    w25  w159  -0.040367404753140025
    w25  w160  0.03731668456897632
    w25  w161  0.0590446664017917
    w25  w162  0.11064763954702521
    w25  w163  -0.014672723063553031
    w25  w164  -0.03140433365655353
    w25  w165  -0.06025388095667985
    w25  w166  0.012362182675502138
    w25  w167  -0.06063514685942559
    w25  w168  0.041570201441228985
    w25  w169  -0.015125329997343562
    w25  w170  -0.14500471853782196
    w25  w171  0.05457611137352641
    w25  w172  0.018680197420678883
    w25  w173  0.01311747844959565
    w25  w174  -0.03429479095151409
    w25  w175  -0.011755846909598027
    w25  w176  0.05903938510793366
    w25  w177  -0.06043441593098265
    w25  w178  -0.05214097034827855
    w25  w179  -0.07072530788747054
    w25  w180  -0.024007487714593698
    w25  w181  0.07978361273922997
    w25  w182  -0.07956902168980473
    w25  w183  0.022043198076528395
    w25  w184  0.040868308140638375
    w25  w185  -0.03733625002246031
    w25  w186  0.13032487063773368
    w25  w187  0.06050279726841162
    w25  w188  0.04198326882099406
    w25  w189  -0.056765247316143505
    w25  w190  -0.03316782523767048
    w25  w191  -0.054970866796215184
    w25  w192  -0.014006803312287925
    w25  w193  -0.02590885860904826
    w25  w194  -0.015852267431917876
    w25  w195  0.012224221653225058
    w25  w196  -0.11274636358243785
    w25  w197  0.0003736086409491617
    w25  w198  -0.11216936468324226
    w25  w199  0.0026398334913084426
    w26  w26  0.18227314310747766
    w26  w27  -0.04639129008338923
    w26  w28  0.02914837218612891
    w26  w29  0.03421275361473379
    w26  w30  0.12455564683457339
    w26  w31  -0.039563703132185074
    w26  w32  0.037969924175553615
    w26  w33  -0.038627876559644454
    w26  w34  0.02983961686864444
    w26  w35  -0.018497774052279807
    w26  w36  -0.011377761123886573
    w26  w37  -0.03470064988694745
    w26  w38  0.014716673671237817
    w26  w39  -0.01535984830164245
    w26  w40  0.09661112563624139
    w26  w41  0.010809382009851938
    w26  w42  0.008301332944087312
    w26  w43  -0.043267826397738816
    w26  w44  0.12059116382662598
    w26  w45  0.013234275638163711
    w26  w46  0.06581880314100896
    w26  w47  -0.04649315716526353
    w26  w48  -0.0017595487299279337
    w26  w49  -0.021797611761306568
    w26  w50  0.006681492328284681
    w26  w51  -0.00018935149006097627
    w26  w52  0.014248084748087057
    w26  w53  0.06721951938069626
    w26  w54  -0.049572544477182665
    w26  w55  -0.015680006888164805
    w26  w56  0.012776280881106626
    w26  w57  -0.05569477893214668
    w26  w58  -0.07535185047658981
    w26  w59  -0.03494413798717775
    w26  w60  0.04108463084304516
    w26  w61  0.025372617491200195
    w26  w62  -0.10067337720852565
    w26  w63  0.012378373627374012
    w26  w64  -0.04170437322228743
    w26  w65  0.007553115011281381
    w26  w66  0.009720918644900317
    w26  w67  -0.07731490446981168
    w26  w68  0.05793520064267507
    w26  w69  -0.03983500408653302
    w26  w70  -0.0699531318452241
    w26  w71  0.03356312247127351
    w26  w72  -0.035652061198240007
    w26  w73  -0.02538172928786295
    w26  w74  -0.08835877874662629
    w26  w75  0.04761594542068613
    w26  w76  0.04334889151809769
    w26  w77  0.015012119992253733
    w26  w78  0.02124054016506539
    w26  w79  0.044335594857836974
    w26  w80  -0.08685905022938205
    w26  w81  -0.019429532273635378
    w26  w82  -0.07344575052090352
    w26  w83  0.000656143761023362
    w26  w84  0.07524907079724182
    w26  w85  -0.06805202914135994
    w26  w86  -0.021482334513546038
    w26  w87  -0.00045173242036144963
    w26  w88  0.10868202861425001
    w26  w89  -0.06822196933843086
    w26  w90  0.06757913887831164
    w26  w91  -0.017042391918988077
    w26  w92  0.03476655736947623
    w26  w93  -0.033972858617157216
    w26  w94  0.02060824584288895
    w26  w95  0.05602459197668173
    w26  w96  0.013957331456113947
    w26  w97  -0.03422264322904587
    w26  w98  -0.006659479139293942
    w26  w99  -0.001703618462356221
    w26  w100  -0.024085924892660666
    w26  w101  0.04601874096658588
    w26  w102  0.06384393558625681
    w26  w103  0.21608573255703611
    w26  w104  -0.01592040669926243
    w26  w105  0.053380238238428
    w26  w106  0.01663134580419808
    w26  w107  -0.055803435429147806
    w26  w108  -0.07346129780025354
    w26  w109  0.013819065425793448
    w26  w110  -0.052660735218658945
    w26  w111  0.04578790189424934
    w26  w112  0.03195597983620245
    w26  w113  0.0011352539776608053
    w26  w114  0.017362307984292513
    w26  w115  0.023104640547266683
    w26  w116  0.04406371867966889
    w26  w117  -0.002188584327796495
    w26  w118  -0.038269600126863354
    w26  w119  0.047182663322335124
    w26  w120  0.01195751487454695
    w26  w121  0.011459886518867844
    w26  w122  0.022949761048227126
    w26  w123  -0.1130943095920368
    w26  w124  0.04169664161941446
    w26  w125  0.019168714843241084
    w26  w126  -0.035875404741255286
    w26  w127  -0.030994881856873383
    w26  w128  0.04384595753374568
    w26  w129  0.011090544812479687
    w26  w130  -3.538462038548919e-05
    w26  w131  0.015040924446852
    w26  w132  -0.019679787828192255
    w26  w133  -0.06494674268428509
    w26  w134  -0.03385228643611666
    w26  w135  0.020472605888885904
    w26  w136  0.06349402397576048
    w26  w137  -0.008782301633910005
    w26  w138  -0.02934681953614243
    w26  w139  0.08410687915406886
    w26  w140  -0.09614444737867803
    w26  w141  -0.11440571284201993
    w26  w142  0.009685376782038716
    w26  w143  -0.06230338759435175
    w26  w144  -0.04614591490127085
    w26  w145  -0.03352226111354624
    w26  w146  0.017202963301246366
    w26  w147  0.011830944257009379
    w26  w148  0.05038389976524038
    w26  w149  0.06040255270116886
    w26  w150  0.05010992515576934
    w26  w151  0.002018000258398829
    w26  w152  0.05023931482506076
    w26  w153  0.03389091220702275
    w26  w154  0.11025329553487966
    w26  w155  -0.034370514818600505
    w26  w156  -0.041453432458782837
    w26  w157  0.01176284308562849
    w26  w158  -0.004483271921935124
    w26  w159  0.019521607872693025
    w26  w160  0.1015110831098756
    w26  w161  -0.023162064167312594
    w26  w162  0.07437413758605765
    w26  w163  -0.02675014021551186
    w26  w164  -0.052543698424402076
    w26  w165  -0.0640686794605731
    w26  w166  -0.08548329763659981
    w26  w167  -0.07902763093230615
    w26  w168  0.09952770722485367
    w26  w169  0.03808096104056117
    w26  w170  -0.05499582030528093
    w26  w171  0.031590446105732896
    w26  w172  -0.07690827910976206
    w26  w173  -0.0629757776374169
    w26  w174  -0.03278933191529683
    w26  w175  0.02901545489163345
    w26  w176  -0.033828340989110424
    w26  w177  -0.017833265316411752
    w26  w178  0.05939597433150194
    w26  w179  -0.14428419405835963
    w26  w180  -0.05544729966235372
    w26  w181  0.008583652200091134
    w26  w182  -0.04359066423746271
    w26  w183  0.006057007950101595
    w26  w184  -0.057304067058117754
    w26  w185  -0.019618654700254805
    w26  w186  0.011537231892478591
    w26  w187  0.030666057543805754
    w26  w188  0.06111101421040434
    w26  w189  -0.08994983018552818
    w26  w190  -0.09267635670227398
    w26  w191  -0.0034190136953721993
    w26  w192  0.009138880363848276
    w26  w193  -0.04743356997466981
    w26  w194  -0.03176588454330807
    w26  w195  0.07788711886232542
    w26  w196  0.01276803092992259
    w26  w197  0.004110870340959445
    w26  w198  -0.08793929488898503
    w26  w199  0.032139726808638275
    w27  w27  0.29087467460616506
    w27  w28  -0.07444204903228639
    w27  w29  0.010628395074150013
    w27  w30  -0.014876044995444678
    w27  w31  0.06095974561601438
    w27  w32  0.03467513335745443
    w27  w33  0.016862303794443676
    w27  w34  0.030959520853020412
    w27  w35  0.04016207302794035
    w27  w36  -0.11168680316974162
    w27  w37  0.04723498121752104
    w27  w38  -0.08521578679304313
    w27  w39  0.06390855725751064
    w27  w40  -0.08343733810539147
    w27  w41  0.07119015621403958
    w27  w42  -0.001107908692551691
    w27  w43  0.06092216984166852
    w27  w44  -0.05233291663172881
    w27  w45  -0.12995118227893795
    w27  w46  0.008248656284787234
    w27  w47  0.011889642148048891
    w27  w48  0.05537609662286185
    w27  w49  -0.09120801997447722
    w27  w50  -0.07804008466286153
    w27  w51  0.03267050193128209
    w27  w52  0.054423856779593896
    w27  w53  -0.015088084160558452
    w27  w54  -0.05240968664472831
    w27  w55  -0.03784922471713931
    w27  w56  -0.10248952121086521
    w27  w57  0.058885526412012626
    w27  w58  0.013000155334793411
    w27  w59  0.0007713593758231379
    w27  w60  -0.04611298202266225
    w27  w61  0.00997443548941862
    w27  w62  -0.03243442609800987
    w27  w63  0.03158412897053174
    w27  w64  -0.017090438116386563
    w27  w65  -0.0617619149761241
    w27  w66  0.08016464827264298
    w27  w67  0.010280280026385565
    w27  w68  -0.04393323984821862
    w27  w69  -0.042766089332320595
    w27  w70  0.10009250853660417
    w27  w71  -0.005553416709960188
    w27  w72  0.1169049358304312
    w27  w73  0.07923288809783961
    w27  w74  -0.04282602495503213
    w27  w75  -0.06654471562776519
    w27  w76  -0.0008140395679887262
    w27  w77  0.0037148294881466527
    w27  w78  -0.05143427192966565
    w27  w79  0.002278306543066528
    w27  w80  -0.06036242436120102
    w27  w81  -0.018851908999364453
    w27  w82  0.16914856153399294
    w27  w83  -0.14884971909643074
    w27  w84  -0.05041470191278784
    w27  w85  -0.0140632237622142
    w27  w86  0.06759010220101856
    w27  w87  -0.04667988561483077
    w27  w88  0.03805718137029207
    w27  w89  0.07584906850388948
    w27  w90  -0.06987263685441437
    w27  w91  0.07528880859456971
    w27  w92  -0.036045722123795365
    w27  w93  0.04758255481501684
    w27  w94  0.09246477456602599
    w27  w95  0.0949345410698373
    w27  w96  -0.060872610187515455
    w27  w97  0.09363484409437435
    w27  w98  0.012945485101939155
    w27  w99  -0.08782294586901648
    w27  w100  0.028587412679937897
    w27  w101  0.03485322804281313
    w27  w102  0.03735480944646839
    w27  w103  -0.11838208369851765
    w27  w104  -0.027323476445226143
    w27  w105  0.044552152335868817
    w27  w106  0.1018439108375724
    w27  w107  0.004920005615513664
    w27  w108  0.09564290036727907
    w27  w109  -0.12157365219732434
    w27  w110  0.029862027094091855
    w27  w111  -0.012885727705425641
    w27  w112  -0.1050067585897119
    w27  w113  -0.07911490186667867
    w27  w114  0.03394874043394031
    w27  w115  -0.04910875008431038
    w27  w116  0.031207091879587538
    w27  w117  -0.01106822145446433
    w27  w118  0.07352667657299708
    w27  w119  -0.006301548086998975
    w27  w120  0.06029125787462215
    w27  w121  0.026841930625036203
    w27  w122  0.05493948385570079
    w27  w123  -0.054009065425434516
    w27  w124  0.09680278267543524
    w27  w125  0.028690242534480558
    w27  w126  0.004187754558430231
    w27  w127  -0.013813466572923991
    w27  w128  -0.11345953202345294
    w27  w129  -0.10938579490653447
    w27  w130  0.1287343184875241
    w27  w131  0.009547756899031963
    w27  w132  -0.0321816679075135
    w27  w133  -0.0027797375918441726
    w27  w134  0.030346193699067436
    w27  w135  -0.07155119535471441
    w27  w136  -0.1041850171799938
    w27  w137  0.033598179300842884
    w27  w138  0.15878986065430428
    w27  w139  -0.03790208711095044
    w27  w140  0.05594361068952822
    w27  w141  0.020905414565006945
    w27  w142  -0.04051322489426669
    w27  w143  -0.09831994637963946
    w27  w144  -0.0019259828512259247
    w27  w145  0.029928049368273556
    w27  w146  -0.03093511796088006
    w27  w147  -0.013809652994382806
    w27  w148  -0.04507200635187736
    w27  w149  0.06821214357195642
    w27  w150  0.06722948989267764
    w27  w151  0.07637449761827947
    w27  w152  -0.058610445986338466
    w27  w153  -0.07215624298221779
    w27  w154  0.005821193920186804
    w27  w155  -0.05044757938684991
    w27  w156  -0.026749753586250577
    w27  w157  -0.04188360575797714
    w27  w158  0.002760894553590273
    w27  w159  -0.04555886828562817
    w27  w160  -0.13993702579221523
    w27  w161  0.1270812185324148
    w27  w162  0.05986809374776603
    w27  w163  -0.15745762147548487
    w27  w164  -0.042171687160331615
    w27  w165  0.0532057379117846
    w27  w166  -0.011724029406290007
    w27  w167  -0.027002865787970076
    w27  w168  0.14561176980199167
    w27  w169  -0.0805501709472575
    w27  w170  0.05931896371523772
    w27  w171  -0.08426105036992321
    w27  w172  0.022458784150073064
    w27  w173  0.0476755172808943
    w27  w174  -0.09478783761176217
    w27  w175  -0.009327679728341127
    w27  w176  0.08239378288000236
    w27  w177  0.09785217453075218
    w27  w178  0.021159422214638807
    w27  w179  -0.02803835491345776
    w27  w180  0.06621088100610664
    w27  w181  -0.08759370437183164
    w27  w182  0.08366346233842524
    w27  w183  -0.044833378951236215
    w27  w184  -0.04073827958047291
    w27  w185  -0.050028640851328576
    w27  w186  -0.1147260453043512
    w27  w187  0.10147061147651477
    w27  w188  0.026624103130383516
    w27  w189  0.12182718703816461
    w27  w190  0.18505527798690924
    w27  w191  0.09673011269855145
    w27  w192  -0.06827878086311437
    w27  w193  -0.060065474747728054
    w27  w194  -0.06594920013409578
    w27  w195  -0.027359590313690996
    w27  w196  0.01914659962083085
    w27  w197  0.08610036659780164
    w27  w198  -0.051620941554254555
    w27  w199  -0.007015193100469944
    w28  w28  0.16267864234056442
    w28  w29  0.013711152025671509
    w28  w30  -0.04886571811488438
    w28  w31  0.042091903740856064
    w28  w32  0.03590165423449822
    w28  w33  -0.07633738455612969
    w28  w34  -0.023412243238806738
    w28  w35  -0.01588796935915654
    w28  w36  -0.013129657245355739
    w28  w37  0.04042579889058686
    w28  w38  0.043013304890848786
    w28  w39  -0.031454021939507505
    w28  w40  0.11126857843947882
    w28  w41  -0.10405296409599628
    w28  w42  -0.08075551141585503
    w28  w43  -0.04469016706498471
    w28  w44  0.05799783637780918
    w28  w45  0.025439411586764913
    w28  w46  -0.040907098661860986
    w28  w47  -0.035832503976679336
    w28  w48  0.015166823498168704
    w28  w49  0.07527655429095001
    w28  w50  0.048690795294440155
    w28  w51  -0.008739954566149347
    w28  w52  0.022888863916793352
    w28  w53  -0.029574788198526093
    w28  w54  -0.04253784010651436
    w28  w55  0.08204973346260394
    w28  w56  -0.07483061397481171
    w28  w57  -0.021875099946044866
    w28  w58  0.004685318956377938
    w28  w59  0.04012873883898136
    w28  w60  0.10242866388577684
    w28  w61  0.05021200525626555
    w28  w62  -0.01587521128152924
    w28  w63  -0.003604934170303253
    w28  w64  -0.014776024871263428
    w28  w65  -0.012452610336823579
    w28  w66  -0.021786989640416483
    w28  w67  0.07519078998733048
    w28  w68  -0.019337707857160765
    w28  w69  0.003119594932548169
    w28  w70  -0.029636024721404218
    w28  w71  -0.007056708745662609
    w28  w72  -0.08265735342130114
    w28  w73  -0.010055923019230474
    w28  w74  0.06894276189338483
    w28  w75  0.02393634763683953
    w28  w76  0.012673366525521142
    w28  w77  -0.042972969360871464
    w28  w78  0.03246769858354079
    w28  w79  -0.031554068782307675
    w28  w80  0.061148425499147605
    w28  w81  -0.03994735200041354
    w28  w82  -0.0690308046005625
    w28  w83  0.019829172237696795
    w28  w84  0.007180396752490911
    w28  w85  0.003196956874352873
    w28  w86  -0.015934916973189973
    w28  w87  0.03853238169440112
    w28  w88  -0.027888703090563335
    w28  w89  -0.010573582711109177
    w28  w90  0.028271510963306858
    w28  w91  0.016157726617475512
    w28  w92  0.03486092743162789
    w28  w93  -0.01436640757956322
    w28  w94  -0.02528882785109651
    w28  w95  -0.005522920178276365
    w28  w96  0.018749833171206726
    w28  w97  0.08688124397193857
    w28  w98  0.08691061934033338
    w28  w99  0.07209239601909621
    w28  w100  0.005085696646132055
    w28  w101  0.01941643042346782
    w28  w102  -0.04733903311199393
    w28  w103  0.04649586800420656
    w28  w104  -0.010088530771566162
    w28  w105  -0.12954969265705016
    w28  w106  -0.032663895387300836
    w28  w107  -0.12654555107177026
    w28  w108  0.010778969389227866
    w28  w109  -0.027743499535849585
    w28  w110  -0.019262160654505863
    w28  w111  0.015148701208002439
    w28  w112  0.010610821173348151
    w28  w113  -0.0575025280474929
    w28  w114  0.040778090424696906
    w28  w115  0.01700519520824196
    w28  w116  0.012037290827947173
    w28  w117  0.03475014773961245
    w28  w118  -0.059710377180510504
    w28  w119  -0.023246444093315045
    w28  w120  -0.023849885408190143
    w28  w121  0.08072125666678899
    w28  w122  0.042139057465784675
    w28  w123  0.007733224635479973
    w28  w124  0.022210044752222907
    w28  w125  -0.03781256282291745
    w28  w126  -0.019977057634165622
    w28  w127  0.04616550186590509
    w28  w128  0.0028230429762407133
    w28  w129  -0.029745528342165636
    w28  w130  -0.07105543094984958
    w28  w131  0.01900019175176676
    w28  w132  -0.04112657270358029
    w28  w133  -0.1017249288953096
    w28  w134  0.007987408024438222
    w28  w135  0.05410504072367876
    w28  w136  0.06708200211261484
    w28  w137  0.07434173057134955
    w28  w138  0.0022440238824699495
    w28  w139  -0.013930634918533713
    w28  w140  -0.06304918378776904
    w28  w141  -0.07600162842292381
    w28  w142  0.15115155003847372
    w28  w143  -0.022644175840012288
    w28  w144  -0.04321426196363004
    w28  w145  0.014761721731588075
    w28  w146  -0.015883396733009186
    w28  w147  0.026379642856345933
    w28  w148  0.0154391736546836
    w28  w149  -0.05043649766705691
    w28  w150  0.044393029616283525
    w28  w151  -0.11894568739746043
    w28  w152  0.042212244582845004
    w28  w153  -0.021044664736907883
    w28  w154  0.025391617958744724
    w28  w155  -0.01096450371266886
    w28  w156  -0.012939765434542115
    w28  w157  -0.04092856364266878
    w28  w158  -0.0213684638642685
    w28  w159  -0.005340922736961807
    w28  w160  0.04934899278940593
    w28  w161  -0.05052541953508208
    w28  w162  -0.008713501297406698
    w28  w163  0.04698008736139765
    w28  w164  0.01505918977580236
    w28  w165  0.021398661500137608
    w28  w166  -0.056857060110747176
    w28  w167  0.0012141716688836611
    w28  w168  -0.03933796621640049
    w28  w169  0.08973364587687017
    w28  w170  -0.06391480113718617
    w28  w171  -0.025936595746372096
    w28  w172  0.05789271737942888
    w28  w173  0.023008279100409975
    w28  w174  0.08743287241559505
    w28  w175  0.07379466982957829
    w28  w176  -0.04164550275915747
    w28  w177  -0.09319546646973491
    w28  w178  -0.05355249471662964
    w28  w179  -0.0010036596419544166
    w28  w180  -0.016503857829083528
    w28  w181  0.01783375499606776
    w28  w182  0.010316326773710261
    w28  w183  -0.024162889663697742
    w28  w184  -0.03276341525523616
    w28  w185  0.019525983201619194
    w28  w186  -0.0006099400756432909
    w28  w187  -0.047155912014060615
    w28  w188  0.006408266903278869
    w28  w189  0.04411199591775183
    w28  w190  -0.011375214868827315
    w28  w191  0.04539603859555232
    w28  w192  0.03147431185674758
    w28  w193  0.06091251899441491
    w28  w194  -0.013777651896000932
    w28  w195  0.04015322091850703
    w28  w196  0.013804331403294465
    w28  w197  0.003237539572589774
    w28  w198  -0.011000641462270375
    w28  w199  0.07978173867374871
    w29  w29  0.1606726201597167
    w29  w30  0.10967695182943452
    w29  w31  -0.015973743813716974
    w29  w32  0.049581037240184776
    w29  w33  0.06181563935630384
    w29  w34  0.013574682116503287
    w29  w35  0.04452399712977152
    w29  w36  -0.0024011630685329124
    w29  w37  0.000713052575568861
    w29  w38  -0.015173524272576674
    w29  w39  -0.03862653700919586
    w29  w40  0.0016904988243443978
    w29  w41  0.061143280327372845
    w29  w42  -0.025607449416510285
    w29  w43  -0.014538684420822798
    w29  w44  0.029801545480991197
    w29  w45  0.017882075754848844
    w29  w46  0.06870600639286062
    w29  w47  -0.005050968852594495
    w29  w48  0.0438184803854619
    w29  w49  -0.05014574292735517
    w29  w50  0.018874000567924206
    w29  w51  -0.028497156228892435
    w29  w52  0.013194991689087105
    w29  w53  -0.0011853277966615775
    w29  w54  -0.030230098298085838
    w29  w55  0.06656585326775001
    w29  w56  0.06466469886783467
    w29  w57  -0.036481378232417754
    w29  w58  -0.05764179056428402
    w29  w59  0.008129479082138293
    w29  w60  -0.026898442563295513
    w29  w61  -0.02647924842430671
    w29  w62  -0.051081984884164565
    w29  w63  0.033872049753129456
    w29  w64  -0.04434515009277883
    w29  w65  -0.023657085347167824
    w29  w66  0.07104017387010479
    w29  w67  -0.05311016819629737
    w29  w68  -0.0225616671258125
    w29  w69  -0.07528589847848828
    w29  w70  -0.06348344500740247
    w29  w71  -0.04493206858293964
    w29  w72  -0.06772139991628554
    w29  w73  0.040964496860576176
    w29  w74  -0.003566404664830647
    w29  w75  0.06687331309343426
    w29  w76  -0.012534866114817054
    w29  w77  -0.025761964385599724
    w29  w78  -0.027566095400195396
    w29  w79  -0.024533614038106694
    w29  w80  0.028165401580445285
    w29  w81  -0.0009405205787918665
    w29  w82  -0.05107150970380672
    w29  w83  -0.03360920628604123
    w29  w84  0.002502262566300447
    w29  w85  -0.02409674805529646
    w29  w86  -0.07597483378489271
    w29  w87  0.008466448354817805
    w29  w88  -0.02107151663313923
    w29  w89  -0.036047521805743124
    w29  w90  0.027364168857836782
    w29  w91  -0.012226931179654737
    w29  w92  -0.01039792668571914
    w29  w93  0.003567048361026081
    w29  w94  0.004391674383161228
    w29  w95  0.009400104275434047
    w29  w96  -0.049664093477813906
    w29  w97  0.03235207300195752
    w29  w98  -0.007110008513334102
    w29  w99  -0.004229669395417115
    w29  w100  -0.05660315691046703
    w29  w101  -0.024463521218989863
    w29  w102  0.01735028470338837
    w29  w103  0.03595155311512647
    w29  w104  0.0037808052742037464
    w29  w105  0.07557088148353083
    w29  w106  -0.024745338370224957
    w29  w107  0.006729803480391289
    w29  w108  -0.010253028491419512
    w29  w109  0.03976417656010998
    w29  w110  0.06205713591622704
    w29  w111  -0.030821836746055143
    w29  w112  -0.07779402031646489
    w29  w113  -0.03218105816593624
    w29  w114  0.02209399630583521
    w29  w115  -0.06633262602083498
    w29  w116  -0.020768240665629115
    w29  w117  -0.0021135713112116913
    w29  w118  -0.0936153271822258
    w29  w119  -0.07594034358737187
    w29  w120  -0.04633597208069797
    w29  w121  0.03086997478334687
    w29  w122  0.006306993254274457
    w29  w123  -0.07343163293947692
    w29  w124  0.020996407996369235
    w29  w125  -0.028409909887778865
    w29  w126  -0.045635299723653065
    w29  w127  0.0023894594240050507
    w29  w128  0.020151621203720653
    w29  w129  0.024073577173075986
    w29  w130  0.053176802514538046
    w29  w131  0.05241638794771403
    w29  w132  -0.0036078433456369686
    w29  w133  -0.02544258433144619
    w29  w134  0.028771536113926143
    w29  w135  -0.000608886470979738
    w29  w136  -0.014897572259727753
    w29  w137  0.02192489362949427
    w29  w138  0.05649220160295657
    w29  w139  -0.0013707871116068982
    w29  w140  0.0039997215288432725
    w29  w141  -0.050726988449407984
    w29  w142  -0.03968916082542898
    w29  w143  -0.06894130173747133
    w29  w144  -0.052312477032677926
    w29  w145  -0.012955600206561538
    w29  w146  -0.005743111341807455
    w29  w147  -0.013836761254391792
    w29  w148  0.1307894623242544
    w29  w149  0.06963612193040569
    w29  w150  0.021897048312679617
    w29  w151  -0.018522259015107557
    w29  w152  -0.0006765205113944212
    w29  w153  0.13883898422942687
    w29  w154  0.05836458949151563
    w29  w155  -0.05866803051273547
    w29  w156  -0.036261152847455735
    w29  w157  -0.02615095782269909
    w29  w158  -0.011636265721767442
    w29  w159  0.019151743163908243
    w29  w160  0.03769998543492098
    w29  w161  0.05064173242774584
    w29  w162  0.0824872390455801
    w29  w163  0.017384934518100463
    w29  w164  -0.04466582807434149
    w29  w165  -0.050779262521693284
    w29  w166  -0.02641830196304275
    w29  w167  -0.06972122183546
    w29  w168  0.04016810845776827
    w29  w169  -0.05188474075934325
    w29  w170  -0.014150173148484615
    w29  w171  0.02533302348509481
    w29  w172  0.006196423864501396
    w29  w173  0.01959656356573678
    w29  w174  -0.007515504510257084
    w29  w175  0.014912778965426908
    w29  w176  0.05574450573415463
    w29  w177  -0.0030876860528067196
    w29  w178  0.013391980209644359
    w29  w179  0.018434893429316614
    w29  w180  -0.0696580660332197
    w29  w181  0.09725353851527865
    w29  w182  0.02518190688591243
    w29  w183  0.01927788708318757
    w29  w184  0.020953972484171246
    w29  w185  -0.04683044292974222
    w29  w186  0.024376549344167116
    w29  w187  0.02814400409424529
    w29  w188  0.02373386205612335
    w29  w189  -0.01657861126304454
    w29  w190  -0.02839689762957351
    w29  w191  -0.030658824298488804
    w29  w192  -0.026470633891058488
    w29  w193  -0.008157323286686141
    w29  w194  0.005044635565188173
    w29  w195  0.01257560793013206
    w29  w196  0.045203579712173446
    w29  w197  -0.00920376040330488
    w29  w198  -0.06479542776678959
    w29  w199  0.07810416747671249
    w30  w30  0.40711570837851585
    w30  w31  -0.1451796306151899
    w30  w32  0.10312621899545561
    w30  w33  0.17772198306841228
    w30  w34  0.05861492622619256
    w30  w35  0.07888662855127172
    w30  w36  -0.0003354376077382756
    w30  w37  -0.1148234552713332
    w30  w38  0.004775377392015153
    w30  w39  -0.04642851997840083
    w30  w40  0.06447239199740605
    w30  w41  0.11852263565244528
    w30  w42  0.027428499721640305
    w30  w43  0.08168385260745169
    w30  w44  -0.012448078415104931
    w30  w45  0.061033425174007394
    w30  w46  0.18478357439691198
    w30  w47  -0.01677397526031765
    w30  w48  -0.042592475474173795
    w30  w49  -0.12821950557304104
    w30  w50  -0.06500767581093336
    w30  w51  0.0017884013647602136
    w30  w52  -0.08980883219310302
    w30  w53  0.0603538472615978
    w30  w54  0.03320521520327044
    w30  w55  0.025210208934282562
    w30  w56  0.17598868194343517
    w30  w57  -0.10328254395921455
    w30  w58  -0.17498354977803945
    w30  w59  -0.06462331626886826
    w30  w60  -0.031210575726927266
    w30  w61  -0.09571834227581993
    w30  w62  -0.11609704049843889
    w30  w63  0.04261362098389903
    w30  w64  -0.034392441521743845
    w30  w65  -0.0887719801010403
    w30  w66  0.055520195392928136
    w30  w67  -0.237118978267199
    w30  w68  0.0315574973648506
    w30  w69  -0.11904279619745822
    w30  w70  -0.09115969631116955
    w30  w71  -0.00927064261855514
    w30  w72  -0.14636421023053584
    w30  w73  -0.029142512056175768
    w30  w74  -0.08868507763150939
    w30  w75  0.16464139925489607
    w30  w76  -0.042134478007563855
    w30  w77  0.05006786687420544
    w30  w78  -0.06483509045610417
    w30  w79  0.017364367660513757
    w30  w80  -0.11924866789963218
    w30  w81  0.02574968746991741
    w30  w82  -0.00018103939582829527
    w30  w83  -0.02382700174579495
    w30  w84  0.02619840717898662
    w30  w85  -0.062057261386321776
    w30  w86  -0.053395865161302215
    w30  w87  -0.0751509079088501
    w30  w88  0.086608749270213
    w30  w89  -0.12662942052801524
    w30  w90  0.03901225608990441
    w30  w91  -0.11644028620301669
    w30  w92  0.02655694817465831
    w30  w93  0.02252662793255619
    w30  w94  0.0823441063763586
    w30  w95  0.08525306531429432
    w30  w96  0.0015686345885708517
    w30  w97  -0.03850299753684866
    w30  w98  -0.12987566573941178
    w30  w99  -0.06275083969598952
    w30  w100  -0.026372434591095947
    w30  w101  -0.007680805995196496
    w30  w102  0.09683254813851232
    w30  w103  0.1606566353826667
    w30  w104  -0.013611578537318966
    w30  w105  0.17069000548454147
    w30  w106  0.013530414166478159
    w30  w107  -0.0063579685380817305
    w30  w108  -0.10981904598530516
    w30  w109  0.14224600808481072
    w30  w110  -0.015397469220492843
    w30  w111  -0.09817539552595192
    w30  w112  -0.05613225439763008
    w30  w113  0.0266875285853914
    w30  w114  -0.08602049280366368
    w30  w115  -0.031105255912229606
    w30  w116  -0.09162197526124746
    w30  w117  -0.1826189940261002
    w30  w118  -0.09339866547803727
    w30  w119  -0.0755919832849903
    w30  w120  -0.12567939698698838
    w30  w121  0.020984409485430646
    w30  w122  -0.026963581443015826
    w30  w123  -0.17124908167510447
    w30  w124  -0.025285504184116424
    w30  w125  0.08064823601207259
    w30  w126  -0.09786906222919858
    w30  w127  -0.0783737133542587
    w30  w128  0.020020744810475874
    w30  w129  0.042992593665809625
    w30  w130  0.14094966524691802
    w30  w131  0.09757082651048318
    w30  w132  0.060482852115969855
    w30  w133  0.01380375466519199
    w30  w134  -0.04518779231877187
    w30  w135  -0.05901539231014557
    w30  w136  0.07019708531677017
    w30  w137  -0.1087371574407704
    w30  w138  0.0486298641847751
    w30  w139  0.09491055421142008
    w30  w140  -0.05471905733086908
    w30  w141  -0.06591937066995263
    w30  w142  -0.24490359483987964
    w30  w143  -0.09545848514517379
    w30  w144  -0.12635636518303248
    w30  w145  -0.010637536214182567
    w30  w146  0.008241319703666476
    w30  w147  -0.00922573297218306
    w30  w148  0.20459139780279392
    w30  w149  0.18039294582358406
    w30  w150  0.060610832078972936
    w30  w151  0.061217964010805904
    w30  w152  -0.014737085468908078
    w30  w153  0.2085997697298809
    w30  w154  0.002086369001769418
    w30  w155  -0.11452242097725626
    w30  w156  -0.08177089376089912
    w30  w157  0.046230753083282894
    w30  w158  -0.008958085379952156
    w30  w159  0.08591836862855473
    w30  w160  0.10749904840155379
    w30  w161  0.03664434164265551
    w30  w162  0.07805768228907295
    w30  w163  -0.05135922244528547
    w30  w164  -0.045778375915519844
    w30  w165  -0.16421895240090179
    w30  w166  0.018845775135700658
    w30  w167  -0.14423236442938472
    w30  w168  0.06998559381147555
    w30  w169  -0.06855620398211944
    w30  w170  0.014045790017676987
    w30  w171  0.17562185967382404
    w30  w172  -0.10297654698658325
    w30  w173  0.015376864359052006
    w30  w174  -0.0891447941310586
    w30  w175  -0.05747624975652876
    w30  w176  -0.008701371405332926
    w30  w177  0.03531778763443326
    w30  w178  0.15649938337546404
    w30  w179  -0.143043634521702
    w30  w180  -0.1596804784987753
    w30  w181  0.11596562223286432
    w30  w182  0.07437291632273792
    w30  w183  0.05179587177841083
    w30  w184  -0.11732694183823432
    w30  w185  -0.09131634096925341
    w30  w186  -0.013771515810441318
    w30  w187  0.04664432686397305
    w30  w188  0.07474037903630436
    w30  w189  -0.0960070497714284
    w30  w190  -0.20452333742841852
    w30  w191  -0.06123736976152372
    w30  w192  -0.007772047106342854
    w30  w193  -0.06785000179766532
    w30  w194  0.03053345352835463
    w30  w195  0.05182461129763364
    w30  w196  0.10012067382530511
    w30  w197  -0.050619219714909694
    w30  w198  -0.09590143345044848
    w30  w199  0.00855729773977264
    w31  w31  0.21657983306625134
    w31  w32  -0.007965681935807389
    w31  w33  -0.1306666225677656
    w31  w34  -0.02900308083481271
    w31  w35  0.04991649922995135
    w31  w36  -0.0338303535621734
    w31  w37  0.09325328787406907
    w31  w38  0.03844193561086462
    w31  w39  0.06518251152306573
    w31  w40  -0.049297313450875485
    w31  w41  -0.027116065024122664
    w31  w42  0.01645823352772968
    w31  w43  -0.03626191713387811
    w31  w44  0.04959189438862354
    w31  w45  -0.2094632043290389
    w31  w46  -0.06018109618640709
    w31  w47  -0.001033914119984612
    w31  w48  0.05804454730900817
    w31  w49  0.028970135758474198
    w31  w50  -0.01567396822034986
    w31  w51  0.003414086339944108
    w31  w52  0.0638161117196424
    w31  w53  0.007476054523382069
    w31  w54  -0.06617228001760823
    w31  w55  0.0075745488459525445
    w31  w56  -0.12868862538411846
    w31  w57  0.017808978504304122
    w31  w58  0.02692716384010128
    w31  w59  -0.016093301625867303
    w31  w60  0.06010171147206982
    w31  w61  0.07538160290018243
    w31  w62  0.007241122520326971
    w31  w63  -0.0015181405232077608
    w31  w64  -0.01752840479124106
    w31  w65  0.0414040560800886
    w31  w66  0.06227133594979918
    w31  w67  0.09733153177221131
    w31  w68  -0.006263274166065277
    w31  w69  0.009367717492594753
    w31  w70  0.0962108073683027
    w31  w71  0.0351662911532275
    w31  w72  0.11615638947138907
    w31  w73  0.0049474258331091295
    w31  w74  -0.002937027496321187
    w31  w75  -0.041450962836281365
    w31  w76  0.0579738223896183
    w31  w77  -0.1044574955597533
    w31  w78  0.028604071976228627
    w31  w79  -0.024523238099646003
    w31  w80  0.015124391596550863
    w31  w81  0.024137937769462624
    w31  w82  0.04504951545147495
    w31  w83  -0.03948078338519857
    w31  w84  0.04124275247937356
    w31  w85  0.07375408027167649
    w31  w86  0.04247679978241594
    w31  w87  0.08383520288200248
    w31  w88  -0.028630381714729855
    w31  w89  0.03275639052427709
    w31  w90  0.05864423179646298
    w31  w91  0.062385889161442075
    w31  w92  -0.0019614402724217037
    w31  w93  0.025800975856034226
    w31  w94  0.020618122038439456
    w31  w95  -0.06293618883731017
    w31  w96  -0.030833465707969354
    w31  w97  0.043452436936762845
    w31  w98  0.14778493465362924
    w31  w99  -0.0020628144680811668
    w31  w100  0.02105196350560202
    w31  w101  0.03538332274403126
    w31  w102  -0.047959965550777375
    w31  w103  -0.048974651465873535
    w31  w104  0.026453542374918298
    w31  w105  -0.10274677675723878
    w31  w106  0.01604317203974292
    w31  w107  -0.025649954463078918
    w31  w108  0.11091998825341177
    w31  w109  -0.08489116679578418
    w31  w110  0.015715620087342234
    w31  w111  -0.033249780123660325
    w31  w112  0.05000812742866586
    w31  w113  -0.07112937801023661
    w31  w114  0.1215514333948638
    w31  w115  0.02166604881945847
    w31  w116  0.1312103397970744
    w31  w117  0.06426689077370437
    w31  w118  0.01864243513606584
    w31  w119  0.007642232327922549
    w31  w120  0.039416045179937395
    w31  w121  0.028647513632197644
    w31  w122  0.04164599443526361
    w31  w123  -0.00023398496174306893
    w31  w124  0.07502418871369373
    w31  w125  -0.09122519441355079
    w31  w126  -0.017252101966418777
    w31  w127  -0.002012038831044367
    w31  w128  -0.03688824386295325
    w31  w129  -0.08663677772237673
    w31  w130  -0.004536820437221012
    w31  w131  -0.01762368374563844
    w31  w132  -0.019164963444850948
    w31  w133  -0.06682680692035883
    w31  w134  0.13682497777079317
    w31  w135  0.048825441048009136
    w31  w136  -0.04568518575835329
    w31  w137  0.03205540018227045
    w31  w138  0.03945535661023809
    w31  w139  -0.1218608063079956
    w31  w140  0.030182659976749522
    w31  w141  0.028056468256773468
    w31  w142  0.11616098104757923
    w31  w143  -0.03687936520500703
    w31  w144  0.10752437286303765
    w31  w145  0.06754611116192866
    w31  w146  0.031977137409037584
    w31  w147  -0.032888933921285356
    w31  w148  -0.08703407853644064
    w31  w149  -0.1607244967727057
    w31  w150  0.03696550625787762
    w31  w151  -0.05447535877882091
    w31  w152  -0.02253009429221144
    w31  w153  -0.05189829775898684
    w31  w154  0.05229637072492955
    w31  w155  0.024052502811753702
    w31  w156  0.024431423439991416
    w31  w157  -0.015458461606884221
    w31  w158  -0.08212464614019736
    w31  w159  -0.13058295755184215
    w31  w160  -0.018819646156776292
    w31  w161  0.018245712399402002
    w31  w162  0.006277060737393849
    w31  w163  -0.05484812971505366
    w31  w164  -0.09433501294614978
    w31  w165  0.09211089799895303
    w31  w166  0.0038987775735363924
    w31  w167  0.027309601538312134
    w31  w168  0.05319818926001824
    w31  w169  -0.031103536218578188
    w31  w170  -0.07766776318140584
    w31  w171  -0.09612152507175611
    w31  w172  0.1331518632331467
    w31  w173  0.08428913705349565
    w31  w174  -0.016343541513039336
    w31  w175  0.06809410515141846
    w31  w176  0.03836597095871686
    w31  w177  -0.02448302164675359
    w31  w178  -0.10813743222492694
    w31  w179  -0.02140069907468608
    w31  w180  0.056056057972263214
    w31  w181  0.0017584342126304828
    w31  w182  -0.020467177802582226
    w31  w183  -0.05067725616625384
    w31  w184  0.026429112101596666
    w31  w185  0.00421262587206999
    w31  w186  0.09670722872692977
    w31  w187  0.03037575842967812
    w31  w188  -0.04206136033158198
    w31  w189  0.13261016737000567
    w31  w190  0.11643860139762556
    w31  w191  -0.016200843294191303
    w31  w192  0.018639073216635965
    w31  w193  0.026576949841214646
    w31  w194  0.01707366901529689
    w31  w195  -0.0393847547803982
    w31  w196  -0.03336124159660631
    w31  w197  0.10447074397482606
    w31  w198  -0.06980298284182707
    w31  w199  0.008005538961182656
    w32  w32  0.2185015102458853
    w32  w33  -0.08593625453910557
    w32  w34  0.014136445051553582
    w32  w35  -0.06551298232662724
    w32  w36  0.06600127214957054
    w32  w37  0.023421937456781828
    w32  w38  0.0013073571415633026
    w32  w39  0.029909210994524368
    w32  w40  0.002046473656992329
    w32  w41  -0.017733953474437004
    w32  w42  -0.04251759690882712
    w32  w43  0.0627209146196298
    w32  w44  -0.08011718510235884
    w32  w45  0.07174388182325389
    w32  w46  0.09175212519475917
    w32  w47  -0.003282337658203573
    w32  w48  0.024588009172117644
    w32  w49  -0.05139689492634375
    w32  w50  0.0694328316174108
    w32  w51  0.014311689703156901
    w32  w52  -0.018775997471215986
    w32  w53  -0.07770953674186235
    w32  w54  -0.07093392270432035
    w32  w55  0.09699327154472528
    w32  w56  -0.002326512556790417
    w32  w57  -0.024456035159454947
    w32  w58  -0.03275820403485445
    w32  w59  -0.08543763593303268
    w32  w60  0.0256460552312376
    w32  w61  0.039624605649107976
    w32  w62  -0.11150492020552033
    w32  w63  0.005090178232516496
    w32  w64  -0.007109319730892427
    w32  w65  -0.10946186482081068
    w32  w66  0.024030298293811016
    w32  w67  -0.043991356459204524
    w32  w68  0.043356043812769966
    w32  w69  -0.10550039311739891
    w32  w70  0.05593881459617301
    w32  w71  -0.01799024330277795
    w32  w72  -0.07442903653796722
    w32  w73  -0.004060687399270565
    w32  w74  0.008677030502608837
    w32  w75  -0.028617707192039567
    w32  w76  0.13300047837763698
    w32  w77  0.046361485674677225
    w32  w78  -0.006762337490975648
    w32  w79  -0.13023462556427184
    w32  w80  0.01669804375801449
    w32  w81  0.01056449726668155
    w32  w82  0.005427794045797818
    w32  w83  -0.011084106921772332
    w32  w84  -0.05894102472489578
    w32  w85  0.03534735823366658
    w32  w86  0.11311787731372958
    w32  w87  -0.13359487968046244
    w32  w88  -0.03773076020718081
    w32  w89  0.09374294108272854
    w32  w90  0.052827662656627535
    w32  w91  0.05747777512178163
    w32  w92  0.042494872350019836
    w32  w93  0.03939219053952337
    w32  w94  0.04509171594638292
    w32  w95  0.13788730437530936
    w32  w96  0.0795448109309426
    w32  w97  0.08151520049431302
    w32  w98  0.0072799528835642896
    w32  w99  -0.005206279617126078
    w32  w100  0.03155471084800839
    w32  w101  -0.005388986073650617
    w32  w102  0.015075084113280438
    w32  w103  0.11761173511929969
    w32  w104  -0.17707999749505146
    w32  w105  0.017183874955304438
    w32  w106  0.03237641980252324
    w32  w107  -0.16012746652649795
    w32  w108  -0.0016417588296599415
    w32  w109  0.03506435279074974
    w32  w110  0.032484995674006256
    w32  w111  -0.12550782061310814
    w32  w112  -0.10566780147756918
    w32  w113  -0.03777177554000607
    w32  w114  0.07198154643839962
    w32  w115  -0.04579344741791103
    w32  w116  -0.0754606080989285
    w32  w117  -0.05254872185001335
    w32  w118  -0.011904465328707876
    w32  w119  -0.052611107819997074
    w32  w120  0.06046626462263226
    w32  w121  0.07103443930075283
    w32  w122  -0.013175094854162262
    w32  w123  -0.0552879285497325
    w32  w124  0.05531076631585312
    w32  w125  0.04647445748534193
    w32  w126  -0.027295981150708443
    w32  w127  0.002933137908818465
    w32  w128  -0.04992301686178999
    w32  w129  -0.008490926732040797
    w32  w130  0.07162769176473233
    w32  w131  0.12384169875491656
    w32  w132  0.04826966870206249
    w32  w133  -0.07265947701183101
    w32  w134  0.11828047643567309
    w32  w135  -0.01112972647598896
    w32  w136  -0.03752455394667572
    w32  w137  -0.02732372614770105
    w32  w138  0.07032214976201848
    w32  w139  0.11714426248124131
    w32  w140  0.025963322903576707
    w32  w141  -0.08754584598212127
    w32  w142  0.005486593880811305
    w32  w143  -0.06250729418317494
    w32  w144  -0.020252560044817028
    w32  w145  0.022420712105303393
    w32  w146  -0.04076134211066132
    w32  w147  -0.03782945138553967
    w32  w148  0.008339170625154916
    w32  w149  0.013396988237262205
    w32  w150  0.04321422694548471
    w32  w151  0.002530739229889672
    w32  w152  -0.03993981088119812
    w32  w153  0.0031432423584772215
    w32  w154  0.04282143159296203
    w32  w155  -0.14721469825286543
    w32  w156  -0.0477892134988077
    w32  w157  -0.011381036274766557
    w32  w158  -0.027189188277045532
    w32  w159  0.03865774965563811
    w32  w160  -0.05087169339063517
    w32  w161  0.15584130995880083
    w32  w162  0.11168932798757704
    w32  w163  -0.03043256470908644
    w32  w164  0.03125618813904675
    w32  w165  -0.08727162511780553
    w32  w166  0.0391257226398433
    w32  w167  0.027171004449025028
    w32  w168  0.01687109149527145
    w32  w169  -0.019516881425092145
    w32  w170  0.010402225596550348
    w32  w171  -0.08395561925612208
    w32  w172  -0.0374236931206961
    w32  w173  0.11625882035688812
    w32  w174  -0.02361946728434167
    w32  w175  0.05773733430813384
    w32  w176  0.0020344627318276045
    w32  w177  0.05687188585233458
    w32  w178  0.056142506446572954
    w32  w179  -0.005606254044387683
    w32  w180  -0.0855524821366068
    w32  w181  0.03970164075960106
    w32  w182  0.016241623462956684
    w32  w183  -0.053975369598075
    w32  w184  -0.07250814327609519
    w32  w185  -0.05487739790034595
    w32  w186  -0.03386239325000737
    w32  w187  -0.03849599991405988
    w32  w188  0.1038864952353598
    w32  w189  0.006551106467547324
    w32  w190  -0.03686947542176615
    w32  w191  0.03284764414556181
    w32  w192  0.017107975361567697
    w32  w193  0.011004500003253728
    w32  w194  0.014253543628030944
    w32  w195  0.12603333004656633
    w32  w196  0.038857261738203745
    w32  w197  -0.00740898238643041
    w32  w198  0.015695025675006344
    w32  w199  -0.052320491746360324
    w33  w33  0.4572716529687843
    w33  w34  0.03083962970054692
    w33  w35  0.1875839504965038
    w33  w36  -0.10752786250979414
    w33  w37  -0.07271776742905917
    w33  w38  -0.08164724593952005
    w33  w39  -0.09990379787604957
    w33  w40  0.05056877618862807
    w33  w41  0.09573914092193073
    w33  w42  -0.005903472038289592
    w33  w43  0.0479397388923807
    w33  w44  -0.014630470602939274
    w33  w45  0.08871753936692493
    w33  w46  0.1194446392613379
    w33  w47  -0.08754020839376565
    w33  w48  -0.0961620707920364
    w33  w49  -0.10539048324120011
    w33  w50  -0.08969425735085194
    w33  w51  0.04823853024261493
    w33  w52  -0.06049223920280359
    w33  w53  0.04060466123859514
    w33  w54  0.15179566753681895
    w33  w55  0.050243544706197026
    w33  w56  0.1980448601280429
    w33  w57  -0.04965444758886811
    w33  w58  -0.09704369745219303
    w33  w59  0.15833267201312415
    w33  w60  -0.03826942904625083
    w33  w61  -0.1493302000728941
    w33  w62  0.07359836575837304
    w33  w63  0.059641657382731174
    w33  w64  0.07151501682641721
    w33  w65  0.013994125181939026
    w33  w66  0.04778174967544433
    w33  w67  -0.10441647256303825
    w33  w68  -0.15388155672700551
    w33  w69  0.0687988151869124
    w33  w70  -0.10767821672203574
    w33  w71  0.021733310117054344
    w33  w72  -0.07016977177792376
    w33  w73  0.10511160690111865
    w33  w74  -0.030468689552709708
    w33  w75  0.15712636536483676
    w33  w76  -0.25572571723318765
    w33  w77  0.01205624278625744
    w33  w78  -0.07806603261592521
    w33  w79  0.08210536504946889
    w33  w80  -0.05361170782160054
    w33  w81  -0.032302380508578844
    w33  w82  0.13287208659328867
    w33  w83  -0.09370788123264166
    w33  w84  0.0762165136482232
    w33  w85  -0.012489987327344165
    w33  w86  -0.17179793212129615
    w33  w87  0.0047037813462985235
    w33  w88  -0.004948283428304209
    w33  w89  -0.1042840550391089
    w33  w90  -0.1926264159549534
    w33  w91  -0.08940659961679444
    w33  w92  -0.007565590880687683
    w33  w93  0.05084928195687148
    w33  w94  0.0078107970925718325
    w33  w95  -0.11515218095672992
    w33  w96  -0.05177041400751591
    w33  w97  0.003296574344027149
    w33  w98  -0.0881563066028581
    w33  w99  -0.08949120035020848
    w33  w100  -0.03819906740223367
    w33  w101  -0.06459832474021537
    w33  w102  -0.04007922423467452
    w33  w103  -0.17476624727046927
    w33  w104  0.20139592003405235
    w33  w105  0.09738002082794586
    w33  w106  -0.023362354239170064
    w33  w107  0.1203124842124186
    w33  w108  0.06666236027434269
    w33  w109  -0.011735792369956378
    w33  w110  0.04803612699437974
    w33  w111  -0.036371735987739094
    w33  w112  -0.029293436436601115
    w33  w113  -0.025793415400485437
    w33  w114  -0.10486246593756944
    w33  w115  -0.08327718594029082
    w33  w116  -0.137134279768919
    w33  w117  -0.12545933221062852
    w33  w118  -0.09134406076969365
    w33  w119  -0.06737276603552572
    w33  w120  -0.18185005313784156
    w33  w121  -0.10299375731920693
    w33  w122  0.1008246653444506
    w33  w123  -0.008194655855132816
    w33  w124  -0.1440687222468409
    w33  w125  0.07308389947899625
    w33  w126  0.03549095064496369
    w33  w127  -0.021219245041805345
    w33  w128  0.024192564263175047
    w33  w129  0.07034802831304467
    w33  w130  0.011760474269701292
    w33  w131  0.04710536516104081
    w33  w132  -0.01350412479316042
    w33  w133  0.12614165254853293
    w33  w134  -0.23342567158617555
    w33  w135  -0.09916630866441507
    w33  w136  0.04676577357468998
    w33  w137  0.05176695565431587
    w33  w138  0.044356638606590545
    w33  w139  -0.0883866618752422
    w33  w140  0.01012950068638194
    w33  w141  0.07769190822980634
    w33  w142  -0.11044619662241968
    w33  w143  -0.14405959607472793
    w33  w144  -0.1347075172821962
    w33  w145  -0.04995956252821195
    w33  w146  0.03390892125393256
    w33  w147  0.04770872048844403
    w33  w148  0.19036915987467967
    w33  w149  0.18871973183302926
    w33  w150  0.0635378064339956
    w33  w151  0.019454938456995027
    w33  w152  0.03639477262247207
    w33  w153  0.09053694498171197
    w33  w154  -0.030490735892259715
    w33  w155  0.05489849844284533
    w33  w156  -0.03360561193254317
    w33  w157  0.08314951568783738
    w33  w158  0.08283959974868893
    w33  w159  0.10256223967635668
    w33  w160  0.013461891916804757
    w33  w161  -0.07643483726971897
    w33  w162  0.020334415568726547
    w33  w163  -0.0015394563969718473
    w33  w164  0.010219898891770027
    w33  w165  -0.11283064239276747
    w33  w166  -0.04794882675917938
    w33  w167  -0.15157476675212347
    w33  w168  -0.07139913639897326
    w33  w169  0.008507176618816562
    w33  w170  0.08397878854040326
    w33  w171  0.12798096117329652
    w33  w172  0.03851767959650315
    w33  w173  -0.07219281650859886
    w33  w174  -0.02647777270431366
    w33  w175  -0.11124788799615312
    w33  w176  -0.015332821725372618
    w33  w177  -0.01213198696099535
    w33  w178  0.08643189835473562
    w33  w179  0.04275257642977357
    w33  w180  -0.0393573257708484
    w33  w181  0.05974051193410589
    w33  w182  0.10685633427962418
    w33  w183  0.07081819589081573
    w33  w184  -0.0040688603608005905
    w33  w185  -0.027979542800385202
    w33  w186  -0.14965591524923816
    w33  w187  0.09935597504275037
    w33  w188  -0.03386007560855638
    w33  w189  -0.09002611929513728
    w33  w190  -0.030732595338196066
    w33  w191  -0.06639239246087283
    w33  w192  0.05178669516792653
    w33  w193  -0.129078721191338
    w33  w194  -0.002446310548686472
    w33  w195  -0.05929926128757469
    w33  w196  0.08047673086137848
    w33  w197  -0.1034961893255685
    w33  w198  -0.03079009752616921
    w33  w199  0.12019871303407995
    w34  w34  0.0984676037103416
    w34  w35  0.013535402999166028
    w34  w36  -0.02239196174217153
    w34  w37  -0.013677104929525513
    w34  w38  -0.030047702305089113
    w34  w39  -0.0009296955187979353
    w34  w40  0.010667720047628655
    w34  w41  0.03244957964255169
    w34  w42  -0.007556561152885984
    w34  w43  0.008494918093102872
    w34  w44  0.005320276767542039
    w34  w45  0.007136629822701705
    w34  w46  0.023975553503149283
    w34  w47  0.008655279108257143
    w34  w48  -0.011645404949555354
    w34  w49  -0.03215246273891941
    w34  w50  -0.017695015108400245
    w34  w51  0.002943232004885188
    w34  w52  0.0010298467375440012
    w34  w53  0.020495170439107473
    w34  w54  -0.00683441515656049
    w34  w55  0.024039188440686355
    w34  w56  0.018784557052118303
    w34  w57  -0.002754668464190249
    w34  w58  -0.023599944663499725
    w34  w59  -0.011879287486691197
    w34  w60  -0.021623358946312073
    w34  w61  -0.03189091979731959
    w34  w62  -0.03635475137958932
    w34  w63  0.005379740224520502
    w34  w64  -0.009872628050898372
    w34  w65  -0.007504539531591259
    w34  w66  0.024469211975660737
    w34  w67  -0.061794808571809655
    w34  w68  0.00608979161060977
    w34  w69  -0.008932385727285
    w34  w70  -0.008891155892075495
    w34  w71  0.009340041562993444
    w34  w72  0.007448685116759857
    w34  w73  0.010571021476051736
    w34  w74  -0.01681349147143734
    w34  w75  -0.0014593828715724518
    w34  w76  -0.010304736605208913
    w34  w77  0.01342844979418714
    w34  w78  -0.023543443024041377
    w34  w79  0.006684087977142943
    w34  w80  -0.05229857978937573
    w34  w81  0.005241098129344668
    w34  w82  0.020105828517758034
    w34  w83  -0.026129322539199522
    w34  w84  -0.021259964295992122
    w34  w85  -0.04440216204966086
    w34  w86  -0.015221340890956538
    w34  w87  -0.01898789349266389
    w34  w88  0.050570492330430095
    w34  w89  -0.014864759186999015
    w34  w90  0.014917676696452681
    w34  w91  0.005006503255883224
    w34  w92  -0.003131141332220533
    w34  w93  0.006314917791233356
    w34  w94  0.0260348329201137
    w34  w95  0.02796332599937636
    w34  w96  -0.004959997133230135
    w34  w97  -0.014707896924187823
    w34  w98  -0.02077346936976661
    w34  w99  -0.02228720476776218
    w34  w100  0.01566667550645003
    w34  w101  0.008869896290262812
    w34  w102  0.033558412746830184
    w34  w103  0.03239126822441609
    w34  w104  -0.009200666066533365
    w34  w105  0.045672267369518155
    w34  w106  0.01266137702115749
    w34  w107  0.019655923448980952
    w34  w108  -0.010578713725613413
    w34  w109  0.005800414380931229
    w34  w110  0.008749986221805046
    w34  w111  0.007683452478347501
    w34  w112  -0.02952141493537989
    w34  w113  0.015980725172013394
    w34  w114  -0.0072582785443676
    w34  w115  -0.03194740967979446
    w34  w116  -0.012127833513811448
    w34  w117  -0.006362040662272189
    w34  w118  0.0026030073909217404
    w34  w119  0.0045813896936857616
    w34  w120  -0.008528959198720558
    w34  w121  0.004886822224536654
    w34  w122  -0.0023454798976169514
    w34  w123  -0.04170484761446321
    w34  w124  -0.006321109120099407
    w34  w125  0.02767878261835716
    w34  w126  0.0008819903318061674
    w34  w127  -0.012636483013088331
    w34  w128  -0.01313863064610451
    w34  w129  -0.011363824180471055
    w34  w130  0.03629756250604991
    w34  w131  0.011119251313242554
    w34  w132  -0.015365628584778657
    w34  w133  -0.010825625546376805
    w34  w134  -0.03566032752730311
    w34  w135  -0.01779284323515849
    w34  w136  0.010199717162436901
    w34  w137  0.00035280307958804124
    w34  w138  0.01698777571468109
    w34  w139  0.03985277725965978
    w34  w140  0.0016520915290852028
    w34  w141  -0.01721611653280106
    w34  w142  -0.03226257438321119
    w34  w143  -0.054070708967269954
    w34  w144  -0.04016786371532315
    w34  w145  -0.017409001587684245
    w34  w146  -0.021947831860690364
    w34  w147  -0.00721918798977136
    w34  w148  0.025566233317116573
    w34  w149  0.07028762890699027
    w34  w150  0.02511560736375102
    w34  w151  0.02768134916676325
    w34  w152  -0.008577140040843216
    w34  w153  0.011118046773434389
    w34  w154  0.016890743665469415
    w34  w155  -0.04891898850431818
    w34  w156  -0.021411802283866636
    w34  w157  0.005954898526139835
    w34  w158  0.014666466530072923
    w34  w159  0.046695969195563986
    w34  w160  0.006587253151110588
    w34  w161  0.007339658147644354
    w34  w162  0.02012695183530967
    w34  w163  -0.036725048476877534
    w34  w164  0.0046673917260774515
    w34  w165  -0.032762524175748126
    w34  w166  -0.01368347612889633
    w34  w167  -0.038936012367544084
    w34  w168  0.03712897868723083
    w34  w169  0.02596721472233039
    w34  w170  0.03445969969355588
    w34  w171  0.006208302532951565
    w34  w172  -0.029223369723216933
    w34  w173  -0.03128332045144507
    w34  w174  -0.045683001728251585
    w34  w175  -0.01664876294450799
    w34  w176  0.008816501322824686
    w34  w177  0.021075828384325635
    w34  w178  0.05232805182443411
    w34  w179  -0.04171678206052916
    w34  w180  -0.02275540289521172
    w34  w181  -0.03818895266204509
    w34  w182  0.02217752096892861
    w34  w183  0.021042960434007208
    w34  w184  -0.030045435918523246
    w34  w185  -0.027088219188379916
    w34  w186  -0.02652247315171357
    w34  w187  0.030094260346210183
    w34  w188  0.028281799067618237
    w34  w189  -0.03757157722745652
    w34  w190  0.011270382855681669
    w34  w191  0.03175209194961504
    w34  w192  -0.0013929668708035088
    w34  w193  -0.01689877826460388
    w34  w194  -0.028571325674293033
    w34  w195  0.013209084803079715
    w34  w196  0.025993887641174027
    w34  w197  0.0023035620695166714
    w34  w198  -0.02619091079514547
    w34  w199  0.008477388498578955
    w35  w35  0.32322032671245216
    w35  w36  -0.10592420589500358
    w35  w37  0.03326997269722402
    w35  w38  -0.002150003316219595
    w35  w39  -0.015511459580187936
    w35  w40  0.0045655323895584556
    w35  w41  0.021339472326039038
    w35  w42  0.013891423725373884
    w35  w43  0.014875494217590027
    w35  w44  0.04272044476918419
    w35  w45  -0.17323634452761408
    w35  w46  0.031178750121913918
    w35  w47  -0.027549281602209486
    w35  w48  -0.03886184524918843
    w35  w49  -0.04240811467510584
    w35  w50  -0.12083321007240261
    w35  w51  0.014756622386792805
    w35  w52  -0.02221822121274628
    w35  w53  0.08359650647767047
    w35  w54  0.03738780717845319
    w35  w55  0.07823227056481616
    w35  w56  0.056826247387831104
    w35  w57  -0.03214691346432696
    w35  w58  -0.08508095791567571
    w35  w59  0.05177065991342104
    w35  w60  0.05314221561618981
    w35  w61  -0.1327906033920837
    w35  w62  0.015603646785225325
    w35  w63  0.04201912361758998
    w35  w64  -0.0423655879598283
    w35  w65  0.0529698522586792
    w35  w66  0.08441907100027199
    w35  w67  -0.09971496219417064
    w35  w68  -0.09021691454852565
    w35  w69  0.06571317494960638
    w35  w70  -0.022572457982720902
    w35  w71  0.03929514231643931
    w35  w72  0.03557475706660024
    w35  w73  0.050940257646929034
    w35  w74  0.006959591070860287
    w35  w75  0.11430442649894262
    w35  w76  -0.12809038067091288
    w35  w77  -0.12620662169984964
    w35  w78  -0.03851759574996961
    w35  w79  0.025084362520166995
    w35  w80  -0.0528016305625695
    w35  w81  0.04955258171321173
    w35  w82  0.12054804235774429
    w35  w83  -0.059127902327093675
    w35  w84  0.04703366878983775
    w35  w85  0.022211850578838906
    w35  w86  -0.15599876911071525
    w35  w87  0.09510728034540349
    w35  w88  0.07578460727342047
    w35  w89  -0.12354781287988816
    w35  w90  0.0029665779492793936
    w35  w91  -0.036513398913137096
    w35  w92  -0.0016012850691401747
    w35  w93  0.08472137564053427
    w35  w94  0.079454148893352
    w35  w95  -0.14316087610030942
    w35  w96  -0.07551703844150343
    w35  w97  -0.006643496577230121
    w35  w98  0.03928067792294674
    w35  w99  -0.047860617297026016
    w35  w100  0.0583580523963841
    w35  w101  0.01922071133869384
    w35  w102  -0.05151480230531041
    w35  w103  -0.09266776235922096
    w35  w104  0.2075571848959421
    w35  w105  -0.03567402356843502
    w35  w106  -0.03136424934672789
    w35  w107  0.12293858052413704
    w35  w108  0.1566705204630087
    w35  w109  0.030192598587886824
    w35  w110  0.03841788762292321
    w35  w111  -0.06605746225800022
    w35  w112  0.05997030585509477
    w35  w113  -0.03919695440859834
    w35  w114  0.01886873908024411
    w35  w115  -0.042538629863096145
    w35  w116  0.044544003628795556
    w35  w117  -0.04966387913722897
    w35  w118  -0.015330468771669636
    w35  w119  -0.052028324528500675
    w35  w120  -0.15832505215794704
    w35  w121  -0.03988558891497506
    w35  w122  0.06443670480343831
    w35  w123  -0.05252117849160053
    w35  w124  -0.04466803352052389
    w35  w125  -0.06440831567769567
    w35  w126  -0.03169610775294319
    w35  w127  -0.005387675861379369
    w35  w128  -0.02879157757997573
    w35  w129  -0.07897371954014511
    w35  w130  0.06187577830625434
    w35  w131  0.05292015054937192
    w35  w132  -0.012751939341444826
    w35  w133  0.0003458957401559668
    w35  w134  -0.014274668445007143
    w35  w135  0.01808979132717547
    w35  w136  0.05354984324798985
    w35  w137  0.002602193578817376
    w35  w138  0.04800986811325501
    w35  w139  -0.15501723138724913
    w35  w140  0.048580139308188754
    w35  w141  0.09326202843885628
    w35  w142  -0.047481344761919474
    w35  w143  -0.1999990980330376
    w35  w144  -0.06704980702093533
    w35  w145  0.03796189712175591
    w35  w146  0.013174465127268543
    w35  w147  0.009611162349943091
    w35  w148  0.10025047639570649
    w35  w149  0.002486696106409637
    w35  w150  0.09082324802393156
    w35  w151  -0.04407684147454379
    w35  w152  0.0011192805769694079
    w35  w153  0.05845409245671284
    w35  w154  0.00644125948765276
    w35  w155  0.0035064552941164043
    w35  w156  0.0211826097737338
    w35  w157  0.0639241092297262
    w35  w158  -0.025919494912629935
    w35  w159  -0.03416620959355217
    w35  w160  0.05304549311802535
    w35  w161  -0.06381935299785116
    w35  w162  0.004657084745603569
    w35  w163  -0.09486189921917207
    w35  w164  -0.0800484286647129
    w35  w165  -0.03178387787779142
    w35  w166  0.015913572288486312
    w35  w167  -0.13885226450157132
    w35  w168  0.008922929955562126
    w35  w169  0.011601652457962703
    w35  w170  -0.06359386499282442
    w35  w171  0.1073203586152392
    w35  w172  0.15568612395598252
    w35  w173  0.024025850368648217
    w35  w174  -0.08536755641603339
    w35  w175  -0.06474760479064327
    w35  w176  0.03171493614094163
    w35  w177  -0.07554577134572
    w35  w178  -0.02705768689265635
    w35  w179  -0.10172670556124086
    w35  w180  -0.009718421007868135
    w35  w181  0.04250999233566008
    w35  w182  0.06731286350181723
    w35  w183  0.05248791764715604
    w35  w184  -0.024333507204246783
    w35  w185  -0.0490854669221472
    w35  w186  0.062058525002775096
    w35  w187  0.13334615303817393
    w35  w188  -0.04909268781948373
    w35  w189  0.028817459525199728
    w35  w190  0.039253614300239034
    w35  w191  -0.06643270856119916
    w35  w192  0.059271367532326105
    w35  w193  -0.05405864542957826
    w35  w194  0.007077957178820968
    w35  w195  -0.10147331081198531
    w35  w196  -0.0055706813710642315
    w35  w197  0.029240170545111858
    w35  w198  -0.1599101332417134
    w35  w199  0.07391358651965882
    w36  w36  0.2504150634190433
    w36  w37  -0.0021156114159009386
    w36  w38  0.04164482050063948
    w36  w39  0.010989146188935218
    w36  w40  -0.08370032720873816
    w36  w41  -0.022633416355548826
    w36  w42  0.0261288710525094
    w36  w43  -0.0020408691936560095
    w36  w44  -0.07637023876447835
    w36  w45  0.12781931026634458
    w36  w46  0.029670381583227486
    w36  w47  0.05305800117212389
    w36  w48  -0.0022331108869033957
    w36  w49  0.02476237007438389
    w36  w50  0.12809076958822133
    w36  w51  -0.03545493686611425
    w36  w52  -0.048195558664744814
    w36  w53  -0.0583117392067962
    w36  w54  -0.0014315827732412792
    w36  w55  0.04875053058240436
    w36  w56  0.10686043124949406
    w36  w57  -0.009228537998817773
    w36  w58  0.031299124796672476
    w36  w59  -0.09906220440546065
    w36  w60  -0.037937921800624545
    w36  w61  0.0005538671409278908
    w36  w62  -0.008768047601947097
    w36  w63  -0.03718991908223094
    w36  w64  0.008109644198343318
    w36  w65  0.01140322663135365
    w36  w66  -0.043819046870268864
    w36  w67  -0.02967677436454168
    w36  w68  0.08731766851801462
    w36  w69  -0.02659250337831829
    w36  w70  0.008799784759593601
    w36  w71  -0.031262997291541375
    w36  w72  -0.04505854147687915
    w36  w73  -0.05170651662252025
    w36  w74  0.04280801279817593
    w36  w75  -0.050543191890359954
    w36  w76  0.13560294216793323
    w36  w77  0.0373578133777428
    w36  w78  0.034622439435091294
    w36  w79  -0.11563678900338706
    w36  w80  0.09991539138660013
    w36  w81  0.07084533935473859
    w36  w82  -0.12333682565129792
    w36  w83  0.13537403516898372
    w36  w84  -0.048300173438774185
    w36  w85  0.06558357788859269
    w36  w86  0.04604838349266878
    w36  w87  -0.06629324067417373
    w36  w88  -0.09261661025097466
    w36  w89  0.06950490556355186
    w36  w90  0.09930719759546922
    w36  w91  0.012812946424224916
    w36  w92  0.012507874633489962
    w36  w93  -0.006115199125242569
    w36  w94  -0.06232955707770115
    w36  w95  -0.0043250764031510704
    w36  w96  0.08604579384468114
    w36  w97  -0.08643048173465395
    w36  w98  -0.038964669774399836
    w36  w99  0.05052970003535113
    w36  w100  -0.0031723695515981525
    w36  w101  -0.06322147109540813
    w36  w102  -0.01544328675926831
    w36  w103  0.10255846980840906
    w36  w104  -0.11673152219882735
    w36  w105  0.038838106304625336
    w36  w106  -0.06339441419359881
    w36  w107  0.007238089175071795
    w36  w108  -0.056955307041514136
    w36  w109  0.15093973886062007
    w36  w110  0.053910650123364476
    w36  w111  -0.07794680420920906
    w36  w112  -0.0002965143656834128
    w36  w113  0.09173570413371135
    w36  w114  0.03710241979529944
    w36  w115  -0.015842077318701853
    w36  w116  -0.06294099420010811
    w36  w117  0.028059366127869304
    w36  w118  0.00570794688599979
    w36  w119  -0.013651894949257268
    w36  w120  0.06431344894532218
    w36  w121  -0.039114973007672915
    w36  w122  -0.11938265284838127
    w36  w123  0.06301673495868935
    w36  w124  -0.04389399311164014
    w36  w125  -0.01816385000892841
    w36  w126  0.015714777332882485
    w36  w127  0.017703441222447148
    w36  w128  0.05731739522208423
    w36  w129  0.1083257349484664
    w36  w130  -0.02924181636214484
    w36  w131  0.048717060869660954
    w36  w132  0.09434109233884223
    w36  w133  0.02646340091595915
    w36  w134  0.13153090793885372
    w36  w135  0.047989060982380115
    w36  w136  -0.045671290097615
    w36  w137  -0.08943064461641854
    w36  w138  -0.1046261782177318
    w36  w139  0.10551629028500834
    w36  w140  0.07755662716336935
    w36  w141  0.00721963437513711
    w36  w142  -0.019793276226776967
    w36  w143  0.10622906378574214
    w36  w144  0.07797639543425741
    w36  w145  -0.015453834500461734
    w36  w146  -0.007046852000458331
    w36  w147  -0.05191763204765078
    w36  w148  -0.025519174625869126
    w36  w149  -0.08637734824550428
    w36  w150  -0.11481804406012189
    w36  w151  0.011194672752320096
    w36  w152  -0.024776510997127854
    w36  w153  0.051031314813865185
    w36  w154  0.007607276227780093
    w36  w155  -0.040520793875749736
    w36  w156  0.03918871156375733
    w36  w157  0.03163301733882423
    w36  w158  -0.011826489908088132
    w36  w159  0.03752526802684941
    w36  w160  0.00017792006839912998
    w36  w161  0.07210643122185437
    w36  w162  0.02515346306204423
    w36  w163  0.11533151395874744
    w36  w164  0.06411718450642295
    w36  w165  -0.07488979921842717
    w36  w166  0.1119767436568297
    w36  w167  0.10928282819566594
    w36  w168  -0.11364671972876204
    w36  w169  -0.026263141515759716
    w36  w170  -0.005875630749848639
    w36  w171  -0.031284773473845104
    w36  w172  -0.05681084012782729
    w36  w173  0.04483548524564557
    w36  w174  0.025064541289165895
    w36  w175  0.012189684265459513
    w36  w176  0.0016453503070348457
    w36  w177  0.027406544123062905
    w36  w178  -0.005513514690848703
    w36  w179  0.10553042733127956
    w36  w180  -0.06557866573032888
    w36  w181  0.08399467994528548
    w36  w182  -0.10983681386576379
    w36  w183  0.00770562600726651
    w36  w184  0.08503015928956582
    w36  w185  0.008448061629456822
    w36  w186  0.13136053511241383
    w36  w187  -0.10607621290558884
    w36  w188  0.02442390054352695
    w36  w189  -0.10433319722755667
    w36  w190  -0.10995465791795432
    w36  w191  -0.09483886383185458
    w36  w192  0.030988594132608537
    w36  w193  0.05818380392614421
    w36  w194  0.08460645873085929
    w36  w195  0.06093488718784351
    w36  w196  -0.04818286266622879
    w36  w197  -0.06598555642736698
    w36  w198  0.1025748096235499
    w36  w199  -0.11384161748675903
    w37  w37  0.19302889392180833
    w37  w38  -0.028693153513987914
    w37  w39  0.026790081046001023
    w37  w40  -0.04424817344379692
    w37  w41  -0.10528292794343959
    w37  w42  -0.047084375633896024
    w37  w43  -0.023417901932618855
    w37  w44  -0.00020391225535188286
    w37  w45  -0.042385635185856606
    w37  w46  -0.02596867786714445
    w37  w47  -0.02207418367385506
    w37  w48  0.0353865654380292
    w37  w49  0.02282411785221994
    w37  w50  0.051284080179932086
    w37  w51  0.008235966995171639
    w37  w52  0.04291775652255251
    w37  w53  -0.04659624748011571
    w37  w54  -0.07480836832924531
    w37  w55  0.08191660311073615
    w37  w56  -0.06560793103425586
    w37  w57  0.044792780990884906
    w37  w58  0.05432252095854402
    w37  w59  0.026571033090432385
    w37  w60  0.07377423607788618
    w37  w61  -0.011295046441279216
    w37  w62  -0.009842461878545624
    w37  w63  0.010686815562706566
    w37  w64  -0.050926631183294886
    w37  w65  0.026367622720411942
    w37  w66  -0.0016970290871885542
    w37  w67  0.051283797332846465
    w37  w68  -0.04492539456627602
    w37  w69  0.055689174024358766
    w37  w70  0.03750675321384219
    w37  w71  -0.009328546484252305
    w37  w72  0.05625756123826281
    w37  w73  0.07966672942220872
    w37  w74  0.0724833180566429
    w37  w75  -0.07248765902780097
    w37  w76  0.06900544164120652
    w37  w77  -0.06392972676219742
    w37  w78  0.03439610015327538
    w37  w79  -0.09033361292868644
    w37  w80  0.09431974665389153
    w37  w81  0.004667594109762978
    w37  w82  0.033090908176517116
    w37  w83  -0.004439782101412142
    w37  w84  -0.03759819229568961
    w37  w85  0.057322955415304494
    w37  w86  -0.021750199507457605
    w37  w87  -0.007063692437301607
    w37  w88  0.0019372889408552575
    w37  w89  0.08346865154074175
    w37  w90  -0.0023458134192413647
    w37  w91  0.11832949569918794
    w37  w92  0.010208526894870128
    w37  w93  0.055993713940444334
    w37  w94  0.019554973682239924
    w37  w95  -0.020775390547257917
    w37  w96  0.004386999765180993
    w37  w97  0.07351469948859887
    w37  w98  0.07729939599600541
    w37  w99  0.02705621455171338
    w37  w100  0.07189453052653137
    w37  w101  0.020705364490372444
    w37  w102  -0.0805771529309274
    w37  w103  -0.031360585914121594
    w37  w104  0.018936994786164184
    w37  w105  -0.09996666306155756
    w37  w106  -0.01599792433796698
    w37  w107  -0.010302018268887833
    w37  w108  0.18085843840287166
    w37  w109  -0.023743059092579916
    w37  w110  0.06319609214296788
    w37  w111  -0.014780930245397098
    w37  w112  -0.0035007183115422055
    w37  w113  -0.06648143085553665
    w37  w114  0.12958086669151275
    w37  w115  -0.048862182813696704
    w37  w116  0.037151204274943644
    w37  w117  0.09533060919886381
    w37  w118  0.07672713533911099
    w37  w119  0.004064594793235138
    w37  w120  0.06894345445305966
    w37  w121  -0.02678272991867233
    w37  w122  0.051908070532705915
    w37  w123  0.04461377512246982
    w37  w124  0.051998502042425426
    w37  w125  -0.07519545033569942
    w37  w126  0.04500882387940359
    w37  w127  0.09227099537252845
    w37  w128  -0.04870971792052227
    w37  w129  -0.0696516260377411
    w37  w130  -0.012137085369364514
    w37  w131  0.07738708211956592
    w37  w132  -0.01703918336228509
    w37  w133  -0.05478858018422507
    w37  w134  0.10423677600065091
    w37  w135  0.06624223727621249
    w37  w136  -0.05339647828664838
    w37  w137  0.062030008377665195
    w37  w138  0.021985371203291013
    w37  w139  -0.03681033413211696
    w37  w140  0.09416807862157542
    w37  w141  0.017586313578535025
    w37  w142  0.1515248232424677
    w37  w143  -0.12408928521027036
    w37  w144  -0.00887986727618376
    w37  w145  0.01053501020822472
    w37  w146  -0.0480686027165915
    w37  w147  0.014397023055882387
    w37  w148  -0.06008668627763385
    w37  w149  -0.0775157472381175
    w37  w150  0.025131357067154005
    w37  w151  -0.05811312504685011
    w37  w152  0.0194652602708427
    w37  w153  -0.124860609194256
    w37  w154  0.07621259197746127
    w37  w155  -0.02001487121362126
    w37  w156  0.05667796386804547
    w37  w157  -0.005904711199724578
    w37  w158  0.012104483304422887
    w37  w159  -0.047196401151679494
    w37  w160  -0.09024948892913362
    w37  w161  0.07104651720007797
    w37  w162  0.0823324374693796
    w37  w163  -0.03611383490528483
    w37  w164  0.023959954133371816
    w37  w165  0.0033305851546758846
    w37  w166  -0.0001361537100439344
    w37  w167  0.017161256984225774
    w37  w168  -0.01721709356381669
    w37  w169  0.04607633086151019
    w37  w170  -0.07673179141787786
    w37  w171  -0.10352932628821752
    w37  w172  0.10290806904836618
    w37  w173  0.04693197080611935
    w37  w174  -0.005471533550464191
    w37  w175  0.024928207139943842
    w37  w176  0.038897490300455674
    w37  w177  -0.03919681305660333
    w37  w178  -0.08846452205394707
    w37  w179  0.028417521441989755
    w37  w180  0.056132249125019566
    w37  w181  -0.021610465938329975
    w37  w182  -0.0457582442913707
    w37  w183  -0.03670240431435767
    w37  w184  0.042277414172697876
    w37  w185  -0.004947849416349762
    w37  w186  0.0143176191180028
    w37  w187  0.04406975354739634
    w37  w188  0.020625126780504575
    w37  w189  0.03136625039571092
    w37  w190  0.13049811999001149
    w37  w191  0.023978481884715068
    w37  w192  0.033757131736709446
    w37  w193  -0.016534634095508392
    w37  w194  -0.039198155319175636
    w37  w195  0.012341690454560308
    w37  w196  -0.10316681878288031
    w37  w197  0.021625059924019276
    w37  w198  -0.030308529705495926
    w37  w199  0.0015984869192542427
    w38  w38  0.18353717339566922
    w38  w39  0.013223804525193327
    w38  w40  0.020883721272778454
    w38  w41  -0.019766276151888605
    w38  w42  0.04865506964524667
    w38  w43  0.003003500676925442
    w38  w44  0.016343961349368056
    w38  w45  -0.07488921667403985
    w38  w46  -0.019655204772038925
    w38  w47  0.008551490373274368
    w38  w48  0.0009892453212066092
    w38  w49  0.045981257083912846
    w38  w50  -0.020929071984864635
    w38  w51  -0.014635600043533576
    w38  w52  -0.03406532312457101
    w38  w53  0.02335202273481804
    w38  w54  0.013190119262679429
    w38  w55  -0.05766404636918302
    w38  w56  -0.019167171920923712
    w38  w57  -0.04082095480825906
    w38  w58  -0.02648552590955745
    w38  w59  -0.05503123870241902
    w38  w60  0.04638750148891553
    w38  w61  0.050254003507394944
    w38  w62  0.011878199588190107
    w38  w63  -0.016837754333108027
    w38  w64  -0.002069397977230814
    w38  w65  -0.003175388251021365
    w38  w66  -0.02183178057821501
    w38  w67  0.023579677508429722
    w38  w68  0.05273397604297884
    w38  w69  -0.031735787347132595
    w38  w70  0.01343855207855828
    w38  w71  0.009472405606265675
    w38  w72  -0.03531998871852908
    w38  w73  -0.09745666729564359
    w38  w74  -0.01578710559946233
    w38  w75  0.05825190209370894
    w38  w76  0.0300466792311943
    w38  w77  -0.03022616141283836
    w38  w78  0.029558081815809156
    w38  w79  0.014709241708170775
    w38  w80  0.0006550631546325462
    w38  w81  0.027311487134603272
    w38  w82  -0.05311274395976771
    w38  w83  0.06173550583101818
    w38  w84  0.0568329807374962
    w38  w85  0.04803569655010182
    w38  w86  0.04175040087873566
    w38  w87  0.050203139560821355
    w38  w88  -0.025998816965515835
    w38  w89  -0.05487045822416452
    w38  w90  0.06982180094348306
    w38  w91  -0.07297802001394814
    w38  w92  0.02040482371873275
    w38  w93  -0.01953454674869666
    w38  w94  -0.005330423376495436
    w38  w95  -0.02859965401940071
    w38  w96  0.015775917252201968
    w38  w97  -0.029266463751166576
    w38  w98  0.025068693287708776
    w38  w99  0.028760131507192532
    w38  w100  -0.01807887684380088
    w38  w101  0.012277468775209518
    w38  w102  -0.001658802924662157
    w38  w103  0.051540646910824744
    w38  w104  -0.00018784944485264444
    w38  w105  -0.05653297288673773
    w38  w106  -0.011937312475700554
    w38  w107  -0.04772104987140074
    w38  w108  -0.06492779385831422
    w38  w109  0.04898333785944915
    w38  w110  -0.06672406357007901
    w38  w111  -0.042782270051823015
    w38  w112  0.08974080516183697
    w38  w113  0.010791330800133194
    w38  w114  -0.02044110723283635
    w38  w115  0.09676124439088722
    w38  w116  0.05171772275109386
    w38  w117  -0.05453730895229614
    w38  w118  -0.031419630038884074
    w38  w119  -0.009711489238607096
    w38  w120  -0.03880085780623293
    w38  w121  0.03619058375116518
    w38  w122  -0.03867594627555938
    w38  w123  -0.008146085304929275
    w38  w124  0.010917238102139524
    w38  w125  -0.03543320016237869
    w38  w126  -0.06956132076371994
    w38  w127  -0.040106365793264945
    w38  w128  0.03059955422493712
    w38  w129  0.0031772958564296396
    w38  w130  -0.016184939654492022
    w38  w131  -0.030409414820657114
    w38  w132  0.048297283059377805
    w38  w133  -0.011054375098083416
    w38  w134  0.07553966693118418
    w38  w135  0.03346838837411419
    w38  w136  0.04570748241174257
    w38  w137  -0.07792041583701347
    w38  w138  -0.039600758238619416
    w38  w139  -0.04214627106970217
    w38  w140  -0.05839703536417395
    w38  w141  0.004292573430413179
    w38  w142  -0.03568995798314551
    w38  w143  0.1046072202319721
    w38  w144  0.06951850247074853
    w38  w145  0.05724820477949923
    w38  w146  0.056634744675882046
    w38  w147  -0.011024303255924822
    w38  w148  -0.013105049349076817
    w38  w149  -0.1204635092570918
    w38  w150  -0.02111811213624114
    w38  w151  -0.03508725622191099
    w38  w152  -0.007565390603312675
    w38  w153  0.06107710328914071
    w38  w154  -0.04858312003192401
    w38  w155  0.043728548069044026
    w38  w156  0.008539971466369959
    w38  w157  0.006373678084365707
    w38  w158  -0.07761875899310489
    w38  w159  -0.08188721717334306
    w38  w160  0.08412495567761037
    w38  w161  -0.048705454183837635
    w38  w162  -0.06869139340504997
    w38  w163  0.029178626143268754
    w38  w164  -0.05921424740905223
    w38  w165  0.04008366350331167
    w38  w166  0.04991485360772722
    w38  w167  0.03158516879583828
    w38  w168  -0.014461803377193055
    w38  w169  -0.05659912736408359
    w38  w170  -0.07716969700457184
    w38  w171  0.06952034102537019
    w38  w172  0.018422843756691454
    w38  w173  0.06759199886406478
    w38  w174  0.036302788663393926
    w38  w175  0.0261323488061903
    w38  w176  -0.03764189756285689
    w38  w177  -0.03979272490224787
    w38  w178  -0.045762365522317876
    w38  w179  -0.051360873955052615
    w38  w180  -0.019565932190346576
    w38  w181  0.08378388423429114
    w38  w182  -0.01742824887085739
    w38  w183  -0.01502966965444146
    w38  w184  -0.022170819290989848
    w38  w185  0.02252756670641377
    w38  w186  0.11515258200092608
    w38  w187  -0.05575498743569906
    w38  w188  -0.041624762579650476
    w38  w189  0.06300825216013248
    w38  w190  -0.11502503192236059
    w38  w191  -0.07551167724769328
    w38  w192  0.005064589811349993
    w38  w193  0.05223366994553318
    w38  w194  0.07876081099730968
    w38  w195  -0.01957839307305682
    w38  w196  -0.001462843031791419
    w38  w197  0.02379864634463661
    w38  w198  -0.010889607665141793
    w38  w199  -0.03742733048016017
    w39  w39  0.16044015892369407
    w39  w40  -0.060001387142920276
    w39  w41  0.002877089536110026
    w39  w42  0.04208575731840729
    w39  w43  0.027630769776061263
    w39  w44  -0.030328051515163254
    w39  w45  -0.1014543156705805
    w39  w46  -0.009215781631896092
    w39  w47  0.01927062212108879
    w39  w48  0.01018408730771767
    w39  w49  -0.0136256675066017
    w39  w50  -0.01866992465720739
    w39  w51  0.020180645072204427
    w39  w52  0.008448620622453242
    w39  w53  0.0010175583816364126
    w39  w54  -0.030286959876780373
    w39  w55  -0.03342019253080247
    w39  w56  -0.06334345961537179
    w39  w57  0.019950285084556055
    w39  w58  0.01617290908225294
    w39  w59  -0.06986740475387174
    w39  w60  0.00718862394849601
    w39  w61  0.04307853941143109
    w39  w62  -0.018669557726903152
    w39  w63  -0.013925010956990324
    w39  w64  0.008399457125224411
    w39  w65  -0.004401637993186197
    w39  w66  0.017414951225609647
    w39  w67  0.010894656759868492
    w39  w68  0.043366459301280386
    w39  w69  -0.008800287649472351
    w39  w70  0.10218234724095393
    w39  w71  0.03702633361351709
    w39  w72  0.09271043592887974
    w39  w73  -0.02506738231854109
    w39  w74  -0.0358146032027497
    w39  w75  -0.06463647709575421
    w39  w76  0.07918217211090124
    w39  w77  -0.002773460194599059
    w39  w78  0.009584406127268954
    w39  w79  -0.024396428202416835
    w39  w80  -0.04262402139521463
    w39  w81  0.03406833988994006
    w39  w82  0.06640675215815743
    w39  w83  -0.01456290564880205
    w39  w84  -0.002358230633597533
    w39  w85  0.04377562623078164
    w39  w86  0.10226832726729884
    w39  w87  -0.02340721698698651
    w39  w88  0.011617686686359421
    w39  w89  0.05575725379216524
    w39  w90  0.039137308095237196
    w39  w91  0.04106276870016524
    w39  w92  0.005488691278977128
    w39  w93  0.02423147056280396
    w39  w94  0.03993719756254328
    w39  w95  0.026216021499795124
    w39  w96  0.026742582627440434
    w39  w97  -0.010747699423179222
    w39  w98  0.03732977095672971
    w39  w99  -0.03116178047220676
    w39  w100  0.04374468636004275
    w39  w101  0.026032768623193987
    w39  w102  0.009003456804212908
    w39  w103  0.00826564184922361
    w39  w104  -0.052347462720256435
    w39  w105  -0.015980670412762556
    w39  w106  0.04761107811175055
    w39  w107  -0.02169741148759944
    w39  w108  0.03383909645065143
    w39  w109  -0.029188498288044384
    w39  w110  -0.012063755866374338
    w39  w111  -0.045639377343229995
    w39  w112  0.021995738692763556
    w39  w113  -0.0020655760305643184
    w39  w114  0.05106497851900649
    w39  w115  0.024196438617365285
    w39  w116  0.05001515057666772
    w39  w117  -0.004840564921110052
    w39  w118  0.06886638659440543
    w39  w119  0.03441179815664514
    w39  w120  0.06812378955041001
    w39  w121  -6.437722919501568e-05
    w39  w122  -0.01118873677548143
    w39  w123  -0.006522949644628333
    w39  w124  0.041784532565636204
    w39  w125  0.004053533391008368
    w39  w126  0.0009145064427575904
    w39  w127  -0.029249268480284897
    w39  w128  -0.042925952168385496
    w39  w129  -0.04661099559462848
    w39  w130  0.03506403585454784
    w39  w131  -0.002430487579169908
    w39  w132  0.024558515786941595
    w39  w133  -0.012155233595604093
    w39  w134  0.08798745435060008
    w39  w135  -0.0016882313065559253
    w39  w136  -0.04545069374006932
    w39  w137  -0.04360014068861541
    w39  w138  0.01460074315411566
    w39  w139  -0.00013254065983500708
    w39  w140  0.03379053818904992
    w39  w141  0.025657008309905766
    w39  w142  0.001388374803288566
    w39  w143  0.002723561941357905
    w39  w144  0.08271367474439664
    w39  w145  0.0398607948013289
    w39  w146  0.010911320423475016
    w39  w147  -0.03558838658952584
    w39  w148  -0.10019239749301397
    w39  w149  -0.07557631443930866
    w39  w150  0.008365659266525305
    w39  w151  0.0367394665262848
    w39  w152  -0.042449945409670314
    w39  w153  -0.06763180246115981
    w39  w154  0.005887967703842001
    w39  w155  -0.016673091756561707
    w39  w156  0.01042172071016754
    w39  w157  0.01586072031720515
    w39  w158  -0.03993564685417135
    w39  w159  -0.05378210194532219
    w39  w160  -0.04763529657312016
    w39  w161  0.05497862505068073
    w39  w162  0.005769792457804285
    w39  w163  -0.07103981057177192
    w39  w164  -0.028796794697734794
    w39  w165  0.026771808589936875
    w39  w166  0.047029431386017694
    w39  w167  0.045506726273896445
    w39  w168  0.04632188051261401
    w39  w169  -0.033784835053004045
    w39  w170  -0.003155525289958248
    w39  w171  -0.0653347371185181
    w39  w172  0.01128152814473734
    w39  w173  0.056034583331348364
    w39  w174  -0.056230763229373905
    w39  w175  0.016649024615654817
    w39  w176  0.008383953216611383
    w39  w177  0.048579147809094995
    w39  w178  -0.0063745060470282635
    w39  w179  -0.04453818111594071
    w39  w180  0.027765933950680687
    w39  w181  -0.040702569050830875
    w39  w182  -0.01906541871929993
    w39  w183  -0.03806838429419508
    w39  w184  -0.02095374730283327
    w39  w185  -0.007628815672789889
    w39  w186  0.031000491315026173
    w39  w187  0.009227377329740516
    w39  w188  0.007549569373959172
    w39  w189  0.050697428708661764
    w39  w190  0.04781530706671452
    w39  w191  0.002500836458804852
    w39  w192  0.009396597200324826
    w39  w193  -0.0027708538048681675
    w39  w194  0.014179418401531916
    w39  w195  0.00647572262692808
    w39  w196  -0.02229525044298266
    w39  w197  0.05651171687816346
    w39  w198  -0.005329335689240614
    w39  w199  -0.08345616399185221
    w40  w40  0.2877113204165553
    w40  w41  -0.05897071145691517
    w40  w42  -0.06528535125670457
    w40  w43  -0.028844535139586215
    w40  w44  0.10157977134270506
    w40  w45  0.06672467791907596
    w40  w46  0.00720982192064946
    w40  w47  -0.08428855021231663
    w40  w48  -0.05448718174228389
    w40  w49  0.03580564605456537
    w40  w50  -0.01708453878854584
    w40  w51  0.028838534098042566
    w40  w52  -0.001513226328666661
    w40  w53  0.03563531819191705
    w40  w54  0.01547220253913996
    w40  w55  0.037143316195606645
    w40  w56  -0.0340139707309285
    w40  w57  -0.05761483095778249
    w40  w58  -0.05771367796632958
    w40  w59  0.0711785535150262
    w40  w60  0.10088128135049348
    w40  w61  0.030686579257031926
    w40  w62  -0.027069131676729554
    w40  w63  0.00568212447900274
    w40  w64  0.029628483258397897
    w40  w65  -0.013893083454165836
    w40  w66  -0.028321847328886703
    w40  w67  0.005968433953349926
    w40  w68  -0.023418776786126486
    w40  w69  0.02491415032889117
    w40  w70  -0.07550341200033621
    w40  w71  0.05028595319380782
    w40  w72  -0.10173627781764798
    w40  w73  -0.023222261532342605
    w40  w74  -0.013759564551007034
    w40  w75  0.0820302223498494
    w40  w76  -0.07781833886350353
    w40  w77  0.01212073493107232
    w40  w78  0.009192535309194052
    w40  w79  0.06853107067709552
    w40  w80  -0.07257712603937179
    w40  w81  -0.0756217796616844
    w40  w82  -0.020357311026817065
    w40  w83  -0.02112033443524913
    w40  w84  0.07185502163569257
    w40  w85  -0.06387519169145923
    w40  w86  -0.031361774377969165
    w40  w87  0.026316253431311762
    w40  w88  0.057685811228231146
    w40  w89  -0.08475217194730073
    w40  w90  -0.028729597801458222
    w40  w91  -0.043240724438771395
    w40  w92  0.05255975212879981
    w40  w93  -0.032007305357435414
    w40  w94  -0.005611469229722356
    w40  w95  0.011437741409101311
    w40  w96  0.030321675140354068
    w40  w97  0.049266609603859576
    w40  w98  0.0344797664035731
    w40  w99  0.022898449131878936
    w40  w100  -0.0042523313956271385
    w40  w101  0.03838634279755575
    w40  w102  0.0007982920459701723
    w40  w103  0.08745169877256191
    w40  w104  0.032925407919660525
    w40  w105  -0.07324275618833206
    w40  w106  0.004275619026197431
    w40  w107  -0.12979754953439873
    w40  w108  -0.05396894417288177
    w40  w109  -0.06630214133313174
    w40  w110  -0.08715095099730844
    w40  w111  0.059012926893406405
    w40  w112  0.03761101476473747
    w40  w113  -0.03848467690070634
    w40  w114  -0.04182744371973838
    w40  w115  0.04060496484893724
    w40  w116  -0.017483985272333052
    w40  w117  -0.04172462594156431
    w40  w118  -0.08192764427560799
    w40  w119  0.021381392103608066
    w40  w120  -0.0745889499082223
    w40  w121  0.059194687621482396
    w40  w122  0.08474514923181291
    w40  w123  -0.045268008239668624
    w40  w124  -0.024736065489146124
    w40  w125  0.05636391149874795
    w40  w126  -0.012788674997668675
    w40  w127  -0.01028543553564095
    w40  w128  0.019527713075803022
    w40  w129  -0.010163494788658559
    w40  w130  -0.07869529218992087
    w40  w131  -0.009152451531089158
    w40  w132  -0.06796821182537277
    w40  w133  -0.07498985656818352
    w40  w134  -0.16509003564139318
    w40  w135  -0.005655377783306609
    w40  w136  0.1451406234609171
    w40  w137  0.07498761450988153
    w40  w138  -0.009996489378461764
    w40  w139  0.02375869149453692
    w40  w140  -0.15108061441824705
    w40  w141  -0.10278516405948965
    w40  w142  0.09744167924144717
    w40  w143  -0.056051258800427155
    w40  w144  -0.10578177923575961
    w40  w145  -0.020126338832836026
    w40  w146  0.010000950314712397
    w40  w147  0.05517406293812313
    w40  w148  0.056675179940746896
    w40  w149  0.06839520068900061
    w40  w150  0.09735585048275208
    w40  w151  -0.07576355191354944
    w40  w152  0.07287492685222305
    w40  w153  -0.025279470836799458
    w40  w154  0.020698861915527767
    w40  w155  0.008261689117684295
    w40  w156  -0.06106637868556734
    w40  w157  0.0009394839622260242
    w40  w158  0.01603129261064355
    w40  w159  0.06164885849038727
    w40  w160  0.10402304148903334
    w40  w161  -0.13458781965466665
    w40  w162  -0.027237187963758614
    w40  w163  0.008833281447223567
    w40  w164  0.01284702235755808
    w40  w165  -0.024055975723639805
    w40  w166  -0.124482202100288
    w40  w167  -0.07524083249540718
    w40  w168  -0.004001385173579
    w40  w169  0.14435629618014162
    w40  w170  -0.010263997435332111
    w40  w171  0.04065789745773745
    w40  w172  -0.012490807559873848
    w40  w173  -0.07101312348164364
    w40  w174  0.054774406290917836
    w40  w175  0.03627747206912721
    w40  w176  -0.10726417930079389
    w40  w177  -0.08251375228278984
    w40  w178  0.04912821130888398
    w40  w179  -0.09786001240638786
    w40  w180  -0.03739221476257691
    w40  w181  -0.03611415061221171
    w40  w182  0.04960453820925403
    w40  w183  0.002109369792015367
    w40  w184  -0.11506907841845707
    w40  w185  0.01756620490009589
    w40  w186  -0.10575174335366444
    w40  w187  -0.012341059455013579
    w40  w188  0.021603536135982183
    w40  w189  -0.028574433712352274
    w40  w190  -0.07016949486627985
    w40  w191  0.06837337372082698
    w40  w192  0.0527165934054273
    w40  w193  -0.00612100615164054
    w40  w194  -0.046403305401178326
    w40  w195  0.05860171354880972
    w40  w196  0.07574330192705198
    w40  w197  -0.023417163316890716
    w40  w198  -0.030991607749150357
    w40  w199  0.1092112703182853
    w41  w41  0.35565186530277826
    w41  w42  0.06978846172252083
    w41  w43  -0.010815671638902635
    w41  w44  0.03507370792426891
    w41  w45  -0.07530367963252763
    w41  w46  0.058063109059083136
    w41  w47  0.06428964480513237
    w41  w48  0.027438730890550395
    w41  w49  -0.10343318300645607
    w41  w50  -0.05923881040601648
    w41  w51  -0.028972858689692883
    w41  w52  0.026508383017928672
    w41  w53  0.07244810255428887
    w41  w54  0.03523879145320229
    w41  w55  -0.022500444802224098
    w41  w56  0.08882956645949236
    w41  w57  -0.043606984386471793
    w41  w58  -0.0770783649381965
    w41  w59  -0.05160523560103674
    w41  w60  -0.1783036699576989
    w41  w61  0.019273828773843128
    w41  w62  -0.019933582482261104
    w41  w63  0.006620286660999936
    w41  w64  0.05161987540301713
    w41  w65  0.009679345680893023
    w41  w66  0.1643726899922614
    w41  w67  -0.07938987579218247
    w41  w68  0.03805812989782615
    w41  w69  -0.11620277401204286
    w41  w70  0.0036376307941748884
    w41  w71  0.020140246581281353
    w41  w72  0.050235296615305146
    w41  w73  -0.02637288429053439
    w41  w74  -0.12807737285499576
    w41  w75  0.04822950668672464
    w41  w76  -0.06714788956489325
    w41  w77  0.012355327381864881
    w41  w78  -0.08438296995806101
    w41  w79  0.07825508802608204
    w41  w80  -0.13608810571807153
    w41  w81  0.037737203278723555
    w41  w82  -0.00364812126363478
    w41  w83  -0.09660459762565125
    w41  w84  0.04345868245247231
    w41  w85  -0.0694828890230768
    w41  w86  0.0009298060891838033
    w41  w87  0.056443019398348705
    w41  w88  -0.044855014240272696
    w41  w89  -0.07041908517797406
    w41  w90  0.06784965935809663
    w41  w91  -0.07640646578004755
    w41  w92  -0.06048292801531447
    w41  w93  -0.04512034043699164
    w41  w94  -0.014670855086171507
    w41  w95  -0.023467236914192894
    w41  w96  -0.0836956902645446
    w41  w97  -0.09536651701020014
    w41  w98  -0.015971643738587546
    w41  w99  -0.09334582334537195
    w41  w100  -0.12730060444755187
    w41  w101  -0.05203182070276575
    w41  w102  0.11417648916197616
    w41  w103  -0.014862300434425556
    w41  w104  -0.023235745104412824
    w41  w105  0.22305890173665976
    w41  w106  0.026313102637111774
    w41  w107  0.09962274630513865
    w41  w108  -0.15780528071442593
    w41  w109  -0.026866552312979127
    w41  w110  0.04920786009402814
    w41  w111  -0.02186749422442365
    w41  w112  -0.08179793279953836
    w41  w113  0.05642733340135808
    w41  w114  -0.047596878898275796
    w41  w115  -0.05181178993938425
    w41  w116  0.008970475099782594
    w41  w117  -0.03396139892040524
    w41  w118  -0.14447980832143503
    w41  w119  -0.04238079215628805
    w41  w120  -0.059326873896863135
    w41  w121  0.03794894827136224
    w41  w122  -0.05481638732721749
    w41  w123  -0.1151792416846178
    w41  w124  -0.033253403779334646
    w41  w125  0.042282713069315546
    w41  w126  -0.055149383653634594
    w41  w127  -0.14520257503247586
    w41  w128  0.04547304894884031
    w41  w129  0.07506757602316506
    w41  w130  0.08420049049182803
    w41  w131  -0.09355446337077052
    w41  w132  -0.011798266411709698
    w41  w133  0.04272839728412801
    w41  w134  -0.04758492894775676
    w41  w135  -0.0956365824983608
    w41  w136  -0.04280124098239268
    w41  w137  -0.023867612538906038
    w41  w138  0.05424159563062834
    w41  w139  -0.01004561339371053
    w41  w140  -0.02539938447471471
    w41  w141  -0.008326167912370463
    w41  w142  -0.1770318967798657
    w41  w143  0.05415095051167002
    w41  w144  0.0800042169625416
    w41  w145  -0.013839642114801551
    w41  w146  0.06732733041678256
    w41  w147  -0.10118314908032476
    w41  w148  0.10488325952939018
    w41  w149  0.10767018763728106
    w41  w150  -0.007315069385305704
    w41  w151  0.09790063981149566
    w41  w152  -0.08412255065775223
    w41  w153  0.23987130596791859
    w41  w154  0.014660679606337034
    w41  w155  -0.0398027619206279
    w41  w156  -0.09659274025612612
    w41  w157  -0.0074483473430440785
    w41  w158  -0.05633308450879955
    w41  w159  0.0483969268084932
    w41  w160  0.08437032713424644
    w41  w161  0.0002908682086582189
    w41  w162  -0.013322321652908342
    w41  w163  0.0020763985006752375
    w41  w164  -0.12249168692116198
    w41  w165  -5.133529075704081e-05
    w41  w166  -0.01317833140828768
    w41  w167  -0.054962441064806335
    w41  w168  0.11769651435747039
    w41  w169  -0.12241571353259947
    w41  w170  0.14273072439349715
    w41  w171  0.015230106258195847
    w41  w172  -0.06348002443918958
    w41  w173  -0.039423676161866594
    w41  w174  -0.08206799263596876
    w41  w175  0.003908486204752643
    w41  w176  0.07266262913507315
    w41  w177  0.11392673671493343
    w41  w178  0.10452229620755144
    w41  w179  0.016597259901135464
    w41  w180  -0.08839138218353301
    w41  w181  0.03737885066908852
    w41  w182  0.06431240509234695
    w41  w183  0.057111180648906947
    w41  w184  0.03128493588425274
    w41  w185  -0.050865652473637585
    w41  w186  0.05033797587106739
    w41  w187  0.01933018978615797
    w41  w188  -0.030989128394837064
    w41  w189  -0.022725597398150294
    w41  w190  -0.019282774560203355
    w41  w191  -0.05099024577212664
    w41  w192  -0.054168970867032505
    w41  w193  0.014736904183053979
    w41  w194  0.0471903675349119
    w41  w195  -0.04433900045416783
    w41  w196  0.17774200279788233
    w41  w197  0.043915245048131976
    w41  w198  -0.04095481937348813
    w41  w199  0.053515393040995556
    w42  w42  0.16106231445717828
    w42  w43  0.015458044694197074
    w42  w44  0.013731627009340653
    w42  w45  -0.10644979013254731
    w42  w46  0.034805874588531086
    w42  w47  -0.006730025575036992
    w42  w48  -0.003490651417660921
    w42  w49  -0.03421450287365277
    w42  w50  -0.054229982245077385
    w42  w51  0.012011013080736599
    w42  w52  -0.02305123808010247
    w42  w53  0.058842054091459976
    w42  w54  0.03485283646660328
    w42  w55  -0.1473449806687633
    w42  w56  0.029937172288690084
    w42  w57  -0.022944656447563935
    w42  w58  -0.031681536315637526
    w42  w59  -0.05891475233034038
    w42  w60  -0.023976613802984503
    w42  w61  0.03711072212828034
    w42  w62  0.022160731293638932
    w42  w63  -0.0007157086356552914
    w42  w64  0.01973047965263112
    w42  w65  0.031333424585335806
    w42  w66  0.007918547119028516
    w42  w67  -0.014361782625138883
    w42  w68  0.05219250591855934
    w42  w69  -0.017737176428611046
    w42  w70  0.03394171821421829
    w42  w71  0.03919575721330303
    w42  w72  0.0681246159847685
    w42  w73  -0.053771891072081114
    w42  w74  -0.11695501181249576
    w42  w75  0.030023182022077297
    w42  w76  0.021584696262132098
    w42  w77  0.005925821963713974
    w42  w78  0.017082287941749895
    w42  w79  0.06388943494112288
    w42  w80  -0.06355870358268952
    w42  w81  0.03485227611201197
    w42  w82  0.02214911703589085
    w42  w83  0.011994529811851635
    w42  w84  0.10610945608530696
    w42  w85  0.051766529160700084
    w42  w86  0.05308248650516491
    w42  w87  0.022372954533880822
    w42  w88  0.0070232180828439655
    w42  w89  -0.030844146275709198
    w42  w90  0.008809155747125543
    w42  w91  -0.05889654300519767
    w42  w92  -0.0027414444066470953
    w42  w93  -0.009604850833996634
    w42  w94  0.011456190391561203
    w42  w95  -0.03172778081594689
    w42  w96  -0.004752099123496074
    w42  w97  -0.08936724919473835
    w42  w98  -0.025346736874231744
    w42  w99  -0.051325828997893126
    w42  w100  -0.0413473658686897
    w42  w101  0.004834188225187748
    w42  w102  0.029132089051668614
    w42  w103  0.01842541500024904
    w42  w104  0.03224143467860383
    w42  w105  0.06231274791443238
    w42  w106  0.034113632806326455
    w42  w107  0.04766447578688209
    w42  w108  -0.03881177097956626
    w42  w109  0.012105203326403219
    w42  w110  -0.05041741027331371
    w42  w111  -0.031672198821738384
    w42  w112  0.0929343483021175
    w42  w113  0.023904579874625822
    w42  w114  -0.018721527302954174
    w42  w115  0.08081772936444287
    w42  w116  0.06591891349752467
    w42  w117  -0.05960889561645015
    w42  w118  0.02070735113160634
    w42  w119  0.04117354872755938
    w42  w120  0.018028849029189116
    w42  w121  -0.06492013327058005
    w42  w122  -0.020122415548174094
    w42  w123  -0.023027295280523906
    w42  w124  0.014487616308113169
    w42  w125  -0.0011956886308513723
    w42  w126  -0.029125535776932873
    w42  w127  -0.07862055934806521
    w42  w128  0.038083808555986066
    w42  w129  0.03410530728224947
    w42  w130  0.019454064713741427
    w42  w131  -0.045694078190055186
    w42  w132  0.062977631284951
    w42  w133  0.07382499372071129
    w42  w134  0.048345409811113495
    w42  w135  -0.015893173531496798
    w42  w136  -0.029663939903255398
    w42  w137  -0.10202066158974446
    w42  w138  -0.03872247987115675
    w42  w139  -0.04417055804499398
    w42  w140  -0.015648838489312835
    w42  w141  0.05275770992561079
    w42  w142  -0.10713692833927974
    w42  w143  0.08342003024937523
    w42  w144  0.11743781845978055
    w42  w145  0.027864237285598413
    w42  w146  0.0926112468971321
    w42  w147  -0.021391637766178955
    w42  w148  -0.039398422232293825
    w42  w149  -0.07376900505595893
    w42  w150  -0.03594486320790329
    w42  w151  0.06764345904238962
    w42  w152  -0.014466147967334742
    w42  w153  0.03737798188390415
    w42  w154  -0.005663156414060952
    w42  w155  0.08474001773743566
    w42  w156  0.016450624442753154
    w42  w157  0.0504864414849498
    w42  w158  -0.04610955739499994
    w42  w159  -0.09625741483078504
    w42  w160  0.027175600531331286
    w42  w161  0.00030740889202409533
    w42  w162  -0.011254607911677893
    w42  w163  -0.02624201748260484
    w42  w164  -0.09688264011562464
    w42  w165  0.017305099560311964
    w42  w166  0.0440440209331305
    w42  w167  0.012975014506015901
    w42  w168  0.051663415470936315
    w42  w169  -0.1299435792200974
    w42  w170  -0.03866027995684803
    w42  w171  0.04912590782525798
    w42  w172  -0.02486445250676975
    w42  w173  0.023141455562918967
    w42  w174  -0.04432707513840082
    w42  w175  -0.019979467109092798
    w42  w176  -0.004641787362654819
    w42  w177  0.04262072408128256
    w42  w178  -0.005808950118398032
    w42  w179  -0.05620407440781024
    w42  w180  0.018417548394476867
    w42  w181  0.062253562389710124
    w42  w182  -0.055161901893411684
    w42  w183  -0.014494900804371488
    w42  w184  0.022113666441801128
    w42  w185  0.012829671664368655
    w42  w186  0.08320841211713823
    w42  w187  0.01782611884471317
    w42  w188  -0.04007776573762863
    w42  w189  0.009907404590244437
    w42  w190  -0.0745016854194877
    w42  w191  -0.12143836560216552
    w42  w192  -0.01016513179230983
    w42  w193  -0.0512789313399073
    w42  w194  0.06938836955856255
    w42  w195  -0.03617977296326471
    w42  w196  -0.028651103174705844
    w42  w197  0.025831543682592776
    w42  w198  -0.02287333173051982
    w42  w199  -0.08134533496910518
    w43  w43  0.20321352745891808
    w43  w44  -0.14372733713741073
    w43  w45  0.004449323241119925
    w43  w46  0.034442067653795275
    w43  w47  0.013225440614332812
    w43  w48  -0.028295954213929633
    w43  w49  -0.04242910770771614
    w43  w50  -0.062461508558086624
    w43  w51  0.03175200827985367
    w43  w52  -0.0747407905695789
    w43  w53  -0.039052514825238645
    w43  w54  0.03590344384475362
    w43  w55  -0.04344732133448674
    w43  w56  0.0013896731372641702
    w43  w57  0.010677799028999034
    w43  w58  -0.015109682400577883
    w43  w59  -0.03736448091852581
    w43  w60  0.003898900864179127
    w43  w61  -0.037793867865512996
    w43  w62  -0.0014659382271053805
    w43  w63  0.006682379759114127
    w43  w64  0.00682990717095572
    w43  w65  -0.10374028506078285
    w43  w66  -0.038741634330784265
    w43  w67  -0.043436753270548724
    w43  w68  -0.004718785228093894
    w43  w69  -0.030966331224537135
    w43  w70  0.060645757732623574
    w43  w71  -0.022476405639109274
    w43  w72  -0.037734714053850066
    w43  w73  -0.02022235464722204
    w43  w74  0.012263206239812762
    w43  w75  0.01273912268693337
    w43  w76  -0.002033311113247951
    w43  w77  0.051361926019307405
    w43  w78  -0.029779300980393667
    w43  w79  -0.029909601397890753
    w43  w80  -0.01612409845535571
    w43  w81  0.010782937042895882
    w43  w82  0.11192302911197641
    w43  w83  -0.0077716696166926615
    w43  w84  -0.06047049100838342
    w43  w85  0.0382323207073704
    w43  w86  0.08245399806900786
    w43  w87  -0.10136018960675108
    w43  w88  0.009336637740036544
    w43  w89  0.03030744906192454
    w43  w90  -0.06265918116712049
    w43  w91  -0.028735614037244967
    w43  w92  0.01170177900467635
    w43  w93  0.052373289930049596
    w43  w94  0.07540888129096075
    w43  w95  0.08967520907263739
    w43  w96  0.034058611881170354
    w43  w97  0.045842153012712106
    w43  w98  -0.07810806733514768
    w43  w99  -0.03468534310116492
    w43  w100  0.06054144817622006
    w43  w101  0.0070062856600339165
    w43  w102  0.009457075507283367
    w43  w103  -0.05920221933007884
    w43  w104  -0.044581191930974755
    w43  w105  -0.0084770773898344
    w43  w106  0.049592611108205585
    w43  w107  -0.039853846238047885
    w43  w108  0.016213781591151454
    w43  w109  0.04237085579182549
    w43  w110  -0.03628181193473003
    w43  w111  -0.09070189196204284
    w43  w112  -0.03141018455660463
    w43  w113  -0.009519784614375644
    w43  w114  -0.06738938630052359
    w43  w115  0.02562888422982567
    w43  w116  -0.07131862544644126
    w43  w117  -0.138076368686461
    w43  w118  0.0713846648264063
    w43  w119  -0.036844649641824025
    w43  w120  -0.018874849872076927
    w43  w121  0.013432321377283177
    w43  w122  -0.020024848631695652
    w43  w123  0.003437482472835046
    w43  w124  0.008253169217513494
    w43  w125  0.06151624632563215
    w43  w126  -0.02444745098959614
    w43  w127  -0.009480356814191574
    w43  w128  -0.07523722577297334
    w43  w129  -0.0444204219188396
    w43  w130  0.09437859857746325
    w43  w131  0.05379127348289842
    w43  w132  0.06729292817919648
    w43  w133  0.04759736594919449
    w43  w134  0.029785528240595768
    w43  w135  -0.05242362223782978
    w43  w136  -0.010664558633580616
    w43  w137  -0.0875855770387822
    w43  w138  0.06304464483864365
    w43  w139  0.01606302379289113
    w43  w140  0.027107299398895453
    w43  w141  0.04776319468396903
    w43  w142  -0.13495958533618232
    w43  w143  0.012037916630356077
    w43  w144  -0.03269230075887506
    w43  w145  0.05022740666097309
    w43  w146  -0.023266909900219148
    w43  w147  0.013521133293708397
    w43  w148  -0.01800612772275052
    w43  w149  0.019508224566413185
    w43  w150  0.010809432608899857
    w43  w151  0.05185692397750855
    w43  w152  -0.046369388094594746
    w43  w153  -0.03297801559818816
    w43  w154  -0.12115012152503658
    w43  w155  -0.03160699238099913
    w43  w156  0.0012036033004045928
    w43  w157  0.012184411013332645
    w43  w158  0.0016666432636969826
    w43  w159  -0.012816136709365952
    w43  w160  -0.07920819831390578
    w43  w161  0.07203350748729893
    w43  w162  -0.02318302602014461
    w43  w163  -0.07234450778951697
    w43  w164  0.04011718817704513
    w43  w165  -0.013207720466778114
    w43  w166  0.09622112892005012
    w43  w167  0.019541318603282353
    w43  w168  -0.014275689388016958
    w43  w169  -0.06895643925314635
    w43  w170  0.022828104326770186
    w43  w171  0.05863114379712739
    w43  w172  -0.020017519418548596
    w43  w173  0.09688351955835822
    w43  w174  -0.02819007830586252
    w43  w175  -0.05487429644638357
    w43  w176  -0.015020231826014146
    w43  w177  0.04777912083298193
    w43  w178  0.03716694407658587
    w43  w179  -0.03263215847174146
    w43  w180  0.004061512940428544
    w43  w181  0.003174867932845992
    w43  w182  0.07413816370091725
    w43  w183  -0.027611235461749296
    w43  w184  -0.09118131521029929
    w43  w185  -0.022750505130049007
    w43  w186  -0.07437949894664315
    w43  w187  -0.0031290704585687796
    w43  w188  0.021215090787633603
    w43  w189  0.074677986331091
    w43  w190  -0.032383963246522075
    w43  w191  0.02006686778857669
    w43  w192  -0.02207908066743477
    w43  w193  -0.019313901973669174
    w43  w194  0.020933920563127147
    w43  w195  -0.00510083267816986
    w43  w196  -0.0018556681273323378
    w43  w197  -0.010617381944177069
    w43  w198  0.035379002029099785
    w43  w199  -0.09707990333439796
    w44  w44  0.2889461776987709
    w44  w45  -0.0930763359534713
    w44  w46  0.0035694736367277015
    w44  w47  -0.07567200671553012
    w44  w48  0.023737395854026278
    w44  w49  0.015051741753210961
    w44  w50  -0.001741305175139832
    w44  w51  -0.008332794209522083
    w44  w52  0.08992613005646898
    w44  w53  0.11148918631736648
    w44  w54  -0.04394468118379126
    w44  w55  -0.01327827427024238
    w44  w56  -0.02686999606385115
    w44  w57  -0.053971455802143214
    w44  w58  -0.05422028516526727
    w44  w59  0.05179230220753695
    w44  w60  0.047478045393294144
    w44  w61  0.06773965535984008
    w44  w62  -0.03116210645751218
    w44  w63  0.017634651347360853
    w44  w64  -0.01679878522270424
    w44  w65  0.11512812454708458
    w44  w66  0.06918448788961923
    w44  w67  0.023817641213882444
    w44  w68  0.0022984544436162845
    w44  w69  0.021256502219435397
    w44  w70  -0.08649704002156515
    w44  w71  0.07151337649986149
    w44  w72  0.0479842772454183
    w44  w73  0.012397183390914049
    w44  w74  -0.1054922251162752
    w44  w75  0.05912921140883216
    w44  w76  -0.030931994271074726
    w44  w77  -0.07318037897192675
    w44  w78  0.036336425875548514
    w44  w79  0.11111663382724594
    w44  w80  -0.07709663309573894
    w44  w81  -0.03783350375944805
    w44  w82  -0.08566409901615511
    w44  w83  -0.043831795651916465
    w44  w84  0.170882719335483
    w44  w85  -0.05888960638538022
    w44  w86  -0.09897919617115006
    w44  w87  0.14567061159193131
    w44  w88  0.06520958189293682
    w44  w89  -0.10694801866586721
    w44  w90  0.05589313265097557
    w44  w91  -0.0072575650857514265
    w44  w92  0.009190411362796908
    w44  w93  -0.06079941424930022
    w44  w94  -0.03835218532181758
    w44  w95  -0.0930029252263119
    w44  w96  -0.058928833376326234
    w44  w97  -0.042001144706936014
    w44  w98  0.10390260454376388
    w44  w99  -0.0005527770917753389
    w44  w100  -0.08494611452909161
    w44  w101  0.039277523105271835
    w44  w102  0.01612223411446591
    w44  w103  0.12134458895425622
    w44  w104  0.1094224725193991
    w44  w105  0.014864973604394016
    w44  w106  -0.012410014712465401
    w44  w107  0.006483882694454035
    w44  w108  -0.02248639384267876
    w44  w109  -0.09694216864764153
    w44  w110  -0.02533392416964102
    w44  w111  0.11207580847310851
    w44  w112  0.08895157194144604
    w44  w113  -0.03693429143484346
    w44  w114  0.06781781004724827
    w44  w115  0.021040217778362402
    w44  w116  0.1387452528887684
    w44  w117  0.09643523298674671
    w44  w118  -0.10353027910934402
    w44  w119  0.0664158482292264
    w44  w120  -0.01189265733582463
    w44  w121  -0.010840222727843858
    w44  w122  0.08923588853465857
    w44  w123  -0.0884381089788478
    w44  w124  0.029506175106041074
    w44  w125  -0.0542545526591372
    w44  w126  -0.013686130814053366
    w44  w127  -0.037124838195078606
    w44  w128  0.08831860671585133
    w44  w129  0.017167459180225594
    w44  w130  -0.08814278056104549
    w44  w131  -0.06806362753707479
    w44  w132  -0.09129657319520612
    w44  w133  -0.07376424685505342
    w44  w134  -0.07526477603756047
    w44  w135  0.04440762193305202
    w44  w136  0.059379393967650754
    w44  w137  0.09390204191200707
    w44  w138  -0.04475716550540986
    w44  w139  -0.05530433855067585
    w44  w140  -0.11344407012851059
    w44  w141  -0.08752569124025517
    w44  w142  0.1342950773698429
    w44  w143  -0.07242582111571984
    w44  w144  0.019688564435868798
    w44  w145  -0.04098227200738763
    w44  w146  0.0759472480501299
    w44  w147  0.007454378774987089
    w44  w148  0.04902892092024147
    w44  w149  -0.0020409195271350994
    w44  w150  0.061570016142086216
    w44  w151  -0.0572508569365584
    w44  w152  0.08156946089356795
    w44  w153  0.04542279239107341
    w44  w154  0.1751353144659986
    w44  w155  0.06641246241177974
    w44  w156  -0.03236069292183914
    w44  w157  0.004870328274957375
    w44  w158  -0.025484383931563492
    w44  w159  -0.03462601118131946
    w44  w160  0.14671195520535474
    w44  w161  -0.12053170242121826
    w44  w162  0.048840823026108586
    w44  w163  0.010437739894732134
    w44  w164  -0.13190905307499418
    w44  w165  0.013331640775507652
    w44  w166  -0.16970843755021187
    w44  w167  -0.10179744458026246
    w44  w168  0.10855705825393121
    w44  w169  0.05850157450757142
    w44  w170  -0.07694652960243133
    w44  w171  -0.015429055223438954
    w44  w172  0.02600935170149732
    w44  w173  -0.11843374836163559
    w44  w174  -0.0015481497095912325
    w44  w175  0.06818158216540944
    w44  w176  -0.012458729956147677
    w44  w177  -0.07137157326726086
    w44  w178  -0.021606038567368563
    w44  w179  -0.09521735447654983
    w44  w180  -0.005531627044345838
    w44  w181  0.011774073063898455
    w44  w182  -0.0660894169951191
    w44  w183  0.016212897089483487
    w44  w184  0.03393389150061058
    w44  w185  0.015428526405540285
    w44  w186  0.06189529696420396
    w44  w187  0.06433425050077202
    w44  w188  -0.021412471125199072
    w44  w189  -0.06131276018158706
    w44  w190  -0.0014219466551067565
    w44  w191  -0.040133969074359496
    w44  w192  0.030242820296940184
    w44  w193  -0.04318846061562935
    w44  w194  -0.034644106983360685
    w44  w195  0.007893609884580727
    w44  w196  0.021973801171418453
    w44  w197  0.0456301827437631
    w44  w198  -0.13477556364460822
    w44  w199  0.14522377960806362
    w45  w45  0.5338695176366159
    w45  w46  0.06749542676008884
    w45  w47  -0.03360033335934316
    w45  w48  -0.054346054723270434
    w45  w49  0.01375884631713694
    w45  w50  0.18277662016026858
    w45  w51  -0.0005843078757904562
    w45  w52  -0.0511687500577935
    w45  w53  -0.12580043604448493
    w45  w54  0.04468241414595156
    w45  w55  0.10372090033058669
    w45  w56  0.15234513881227213
    w45  w57  0.0024849229840175086
    w45  w58  0.04794720705544189
    w45  w59  0.06734031850783197
    w45  w60  -0.03869978576722067
    w45  w61  -0.041273388924996574
    w45  w62  0.003243961502369112
    w45  w63  -0.011918279157176512
    w45  w64  0.05739806296567787
    w45  w65  -0.05024743554128294
    w45  w66  -0.1270207886625713
    w45  w67  -0.014657220864752163
    w45  w68  -0.017981321441358226
    w45  w69  0.019277804997375914
    w45  w70  -0.1193400738131953
    w45  w71  -0.07095628329406123
    w45  w72  -0.19451945814375352
    w45  w73  0.051029527117766975
    w45  w74  0.09539100879777462
    w45  w75  -0.036683865387423215
    w45  w76  0.008791403076534426
    w45  w77  0.15799310280419804
    w45  w78  0.009866083851139783
    w45  w79  -0.08440697982048141
    w45  w80  0.1333388454385272
    w45  w81  -0.06757893216792463
    w45  w82  -0.12419656626278737
    w45  w83  0.09239228252219951
    w45  w84  -0.09156819241687131
    w45  w85  -0.03603614242395291
    w45  w86  -0.023927331154653824
    w45  w87  -0.16876378428788041
    w45  w88  -0.08557857147236379
    w45  w89  0.09732457651743145
    w45  w90  -0.1104909770419015
    w45  w91  0.028129643154643016
    w45  w92  0.027587700585251045
    w45  w93  -0.03257512444635118
    w45  w94  -0.1085398712098501
    w45  w95  0.08532386723867652
    w45  w96  0.11331663338935255
    w45  w97  0.022615970525462638
    w45  w98  -0.13522052109410604
    w45  w99  0.06763477500488389
    w45  w100  -0.026919500541681473
    w45  w101  -0.09099057032779256
    w45  w102  -0.02530932538407105
    w45  w103  0.06232694776506946
    w45  w104  -0.12127436796119477
    w45  w105  0.061095000750308506
    w45  w106  -0.06267762432462427
    w45  w107  -0.06752730142682167
    w45  w108  -0.07921282960914905
    w45  w109  0.07699771294337716
    w45  w110  0.050429601580616545
    w45  w111  0.03557480837754596
    w45  w112  -0.11941407107354148
    w45  w113  0.05494496356424626
    w45  w114  -0.05843527743422744
    w45  w115  -0.08342950136030589
    w45  w116  -0.24246165394125466
    w45  w117  0.01867636746234864
    w45  w118  -0.030494259855927672
    w45  w119  -0.015310883888067627
    w45  w120  0.05021092731824477
    w45  w121  -0.04792375917723413
    w45  w122  -0.026131282598312936
    w45  w123  0.10576728280513095
    w45  w124  -0.101808952289425
    w45  w125  0.10636808597104873
    w45  w126  0.10408523959377922
    w45  w127  0.09544729511398782
    w45  w128  0.05968521804395458
    w45  w129  0.16694641687294892
    w45  w130  -0.10259849806448917
    w45  w131  0.08591139963721096
    w45  w132  0.015560549006801004
    w45  w133  0.049782776341205495
    w45  w134  -0.1363372361042889
    w45  w135  -0.024017159685194536
    w45  w136  0.007715848229942874
    w45  w137  0.055966863378486
    w45  w138  -0.08108979639636156
    w45  w139  0.2125343372880282
    w45  w140  0.013262939075528175
    w45  w141  -0.0815514027563326
    w45  w142  0.05688013061763145
    w45  w143  0.044699531079081735
    w45  w144  -0.13023773925066245
    w45  w145  -0.12433015539382246
    w45  w146  -0.07887522630628077
    w45  w147  0.04923425831403479
    w45  w148  0.06372385518488283
    w45  w149  0.15549803005819984
    w45  w150  -0.07635733416135038
    w45  w151  -3.7459297237442255e-05
    w45  w152  0.06492308018864584
    w45  w153  -0.03394287271365926
    w45  w154  0.002426718840680326
    w45  w155  -0.04430790061352309
    w45  w156  -0.011873520752393316
    w45  w157  0.0005297837344878495
    w45  w158  0.14845523426473967
    w45  w159  0.2147581929480608
    w45  w160  -0.0590379862620153
    w45  w161  0.03861849540967668
    w45  w162  0.06425156159738679
    w45  w163  0.17651386540013683
    w45  w164  0.2281936091770913
    w45  w165  -0.15128228719282846
    w45  w166  -0.03171894844904472
    w45  w167  0.05730211103194682
    w45  w168  -0.1877026106763072
    w45  w169  0.12181169871489222
    w45  w170  0.10304198873642124
    w45  w171  -0.03637093566849698
    w45  w172  -0.1513680592892266
    w45  w173  -0.0929997286684269
    w45  w174  0.11644084435307255
    w45  w175  -0.016648766630706927
    w45  w176  -0.06411704471045816
    w45  w177  0.014169126184364694
    w45  w178  0.0914767643968164
    w45  w179  0.19893512175656838
    w45  w180  -0.06714820479245233
    w45  w181  0.003745234311285794
    w45  w182  -0.043024340392590274
    w45  w183  0.019636945980647882
    w45  w184  0.0418192862522748
    w45  w185  0.02775088300441263
    w45  w186  -0.17279021175643983
    w45  w187  -0.1170738224840944
    w45  w188  0.09278407957652691
    w45  w189  -0.21618273368341606
    w45  w190  -0.10150517129046237
    w45  w191  0.04863999721042812
    w45  w192  0.026582185566301573
    w45  w193  -0.005939241230577724
    w45  w194  -0.033685843793147055
    w45  w195  0.14445237242014775
    w45  w196  0.00350756525176811
    w45  w197  -0.19663086136833066
    w45  w198  0.20035667220293857
    w45  w199  0.0030206260523527053
    w46  w46  0.2107045508025402
    w46  w47  -0.09416808062670076
    w46  w48  -0.021047721804301284
    w46  w49  -0.11689408916170435
    w46  w50  0.02734137924601938
    w46  w51  0.047088981269192046
    w46  w52  -0.0311843644216582
    w46  w53  0.0028969374403480545
    w46  w54  0.008356635108353485
    w46  w55  0.025963449518016306
    w46  w56  0.1276445569143478
    w46  w57  -0.07180794711865639
    w46  w58  -0.09954446182713224
    w46  w59  -0.012620909197671027
    w46  w60  0.013235535597859227
    w46  w61  0.0045825488325121596
    w46  w62  -0.06539965631927755
    w46  w63  0.04103623088904581
    w46  w64  0.03367650572197663
    w46  w65  -0.02461388519230578
    w46  w66  0.04954098074581761
    w46  w67  -0.09048077043806908
    w46  w68  -0.004138018655807068
    w46  w69  -0.04848801626766568
    w46  w70  -0.020709282688203136
    w46  w71  0.03790150962783054
    w46  w72  -0.04704992284091443
    w46  w73  0.042940994867686565
    w46  w74  -0.10964220680539354
    w46  w75  0.06605268740241996
    w46  w76  0.029793901766586955
    w46  w77  0.04454459907588251
    w46  w78  -0.003486801239846162
    w46  w79  -0.026837095983062935
    w46  w80  -0.04234380505138341
    w46  w81  -0.0024137986040621818
    w46  w82  0.040929750693195016
    w46  w83  -0.04336152098861787
    w46  w84  0.10723599619412987
    w46  w85  0.05459329917710824
    w46  w86  0.015444475722914823
    w46  w87  -0.08951365465584651
    w46  w88  -0.015819891381173744
    w46  w89  0.014974899106690262
    w46  w90  -0.041212971024902116
    w46  w91  -0.0005219093773504767
    w46  w92  0.045368216934030085
    w46  w93  0.04019536362121759
    w46  w94  0.02571108197521602
    w46  w95  0.024144414650120776
    w46  w96  0.04828440343238628
    w46  w97  0.005112493810957653
    w46  w98  -0.030877544787759205
    w46  w99  -0.07298906208399729
    w46  w100  -0.03935556778560283
    w46  w101  -0.02943898917670237
    w46  w102  -0.00031515318014388086
    w46  w103  0.09554794136160068
    w46  w104  -0.016327114904353682
    w46  w105  0.11347031393116222
    w46  w106  0.026578018598300137
    w46  w107  -0.05704956350418517
    w46  w108  0.02670664518587025
    w46  w109  0.012737825784611542
    w46  w110  0.03042965308992291
    w46  w111  -0.11197204045047351
    w46  w112  -0.02458333102008712
    w46  w113  -0.04519842346255904
    w46  w114  0.05101596849286716
    w46  w115  -0.03994703245497297
    w46  w116  -0.06838612959535395
    w46  w117  -0.09067789632962059
    w46  w118  -0.05425839740051339
    w46  w119  -0.017894309377987572
    w46  w120  0.014046094509772608
    w46  w121  -0.06948281553328282
    w46  w122  0.06252360487374586
    w46  w123  -0.07469034993965197
    w46  w124  -0.0017552327915563858
    w46  w125  0.06001931430315349
    w46  w126  0.0006819971421326681
    w46  w127  -0.041158802318449816
    w46  w128  0.030634441709384563
    w46  w129  0.0784138837380089
    w46  w130  0.03238883924667169
    w46  w131  0.11561307767546164
    w46  w132  0.05647504027793981
    w46  w133  0.027127147594315837
    w46  w134  0.007718212627593322
    w46  w135  -0.04146053909566476
    w46  w136  -0.030835087608648566
    w46  w137  -0.02450192913561654
    w46  w138  0.02264080607966831
    w46  w139  0.04749041824426873
    w46  w140  0.006083631798108058
    w46  w141  -0.0428551207663068
    w46  w142  -0.03701376919126332
    w46  w143  -0.1158149695988831
    w46  w144  -0.009048638654223139
    w46  w145  -0.02286240539561701
    w46  w146  0.05429106017786795
    w46  w147  -0.011628928907339693
    w46  w148  0.08004276714758751
    w46  w149  0.0568796975652141
    w46  w150  0.053480086651528584
    w46  w151  0.03750232788444358
    w46  w152  0.020348763370129114
    w46  w153  0.04838781014767294
    w46  w154  0.11378088283255879
    w46  w155  -0.02832651846800307
    w46  w156  -0.042906112729160555
    w46  w157  0.07684709507989365
    w46  w158  0.005951021314971148
    w46  w159  0.02497960323719383
    w46  w160  -0.003171140800951934
    w46  w161  0.09375402108754854
    w46  w162  0.1656259405843699
    w46  w163  -0.024555859873408647
    w46  w164  -0.041817883894514185
    w46  w165  -0.15253234411298827
    w46  w166  -0.021087952504064107
    w46  w167  -0.06154239979367394
    w46  w168  0.02504148922273357
    w46  w169  -0.0625249921123184
    w46  w170  -0.011701844004179522
    w46  w171  -0.01663320509132108
    w46  w172  -0.03559816103483331
    w46  w173  0.03516418894568872
    w46  w174  -0.05652297013850383
    w46  w175  0.0071792819755956885
    w46  w176  -0.015466886828920919
    w46  w177  0.05117471767338053
    w46  w178  0.07897828022968288
    w46  w179  -0.022454869186202712
    w46  w180  -0.08138657719031066
    w46  w181  0.11374267771799058
    w46  w182  -0.032603484335483005
    w46  w183  -0.026501149193373662
    w46  w184  -0.015030932575790015
    w46  w185  -0.044536696829822704
    w46  w186  -0.04389672984610128
    w46  w187  0.04559777767110466
    w46  w188  0.06686136531891285
    w46  w189  -0.09887202698381614
    w46  w190  -0.09627687594042653
    w46  w191  -0.10409069911678988
    w46  w192  0.059114234730239364
    w46  w193  -0.12610069989404415
    w46  w194  0.03599484926986058
    w46  w195  0.09616146783993446
    w46  w196  0.024274444784447582
    w46  w197  -0.05524431844517767
    w46  w198  -0.03898265591530546
    w46  w199  -0.007735391351274451
    w47  w47  0.20186538492805384
    w47  w48  0.02119477132276824
    w47  w49  0.03352393896222378
    w47  w50  -0.016388554193205354
    w47  w51  -0.0780176754289296
    w47  w52  -0.01277664878698799
    w47  w53  0.0006922660934304748
    w47  w54  -0.007103429040602708
    w47  w55  0.047296129944747446
    w47  w56  0.005819263450184053
    w47  w57  0.040703259856688934
    w47  w58  0.03822833956618802
    w47  w59  -0.09823204402056723
    w47  w60  -0.12028977357689798
    w47  w61  -0.07076512593589439
    w47  w62  -0.007029771817492701
    w47  w63  -0.042344527621152615
    w47  w64  -0.04795117495352997
    w47  w65  -0.013858444760633517
    w47  w66  0.02670232771920319
    w47  w67  -0.06737247745589989
    w47  w68  0.06693328320475553
    w47  w69  -0.049303756458327075
    w47  w70  0.026785177067229365
    w47  w71  -0.06192122818809
    w47  w72  0.017758858567557587
    w47  w73  -0.06856851277778345
    w47  w74  0.09066417961064928
    w47  w75  -0.052076439446027335
    w47  w76  0.01468365143122484
    w47  w77  -0.015891843745917192
    w47  w78  -0.053025045698492285
    w47  w79  -0.03921856508051269
    w47  w80  0.0029443997480341644
    w47  w81  0.08436069924795417
    w47  w82  -0.06374054354826683
    w47  w83  0.05250146532299728
    w47  w84  -0.17733043992525732
    w47  w85  -0.07637196243909025
    w47  w86  -0.01071722181073096
    w47  w87  0.027371884909788174
    w47  w88  0.004886233995947758
    w47  w89  -0.0241474565461064
    w47  w90  0.15110608122422836
    w47  w91  -0.025284043791896152
    w47  w92  -0.06234870470954882
    w47  w93  -0.020114657346055886
    w47  w94  0.0012879168904142216
    w47  w95  0.016837116978897646
    w47  w96  -0.0409778456397275
    w47  w97  -0.08171550859151716
    w47  w98  -0.039008634599117666
    w47  w99  0.03604829892283283
    w47  w100  0.03233495838327678
    w47  w101  -0.017124077743385514
    w47  w102  0.0699597249380212
    w47  w103  -0.017077936994261012
    w47  w104  -0.0753282032960307
    w47  w105  0.042365138848536155
    w47  w106  -0.04000999476318778
    w47  w107  0.1186648739285462
    w47  w108  -0.10499939595997461
    w47  w109  0.11981437925645855
    w47  w110  0.0437484523403904
    w47  w111  0.008778451194646007
    w47  w112  -0.06589714786242155
    w47  w113  0.12514502757449575
    w47  w114  -0.059501989861361244
    w47  w115  -0.039932865162510774
    w47  w116  0.000378429445884933
    w47  w117  0.040673043860451216
    w47  w118  0.011624855112729118
    w47  w119  -0.04748946784359109
    w47  w120  -0.04197105480330382
    w47  w121  0.08586263367400122
    w47  w122  -0.16818672412006982
    w47  w123  0.00040518659936711
    w47  w124  -0.033702648455176704
    w47  w125  -0.03144128289897582
    w47  w126  -0.042125281752426254
    w47  w127  -0.011363288509862967
    w47  w128  -0.02519900477147125
    w47  w129  -0.027674362565167785
    w47  w130  0.08327107797257093
    w47  w131  -0.0620321269260868
    w47  w132  0.004554075341206476
    w47  w133  -0.010881100203014187
    w47  w134  0.05966011791891244
    w47  w135  0.011681269780811543
    w47  w136  -0.004099083716471138
    w47  w137  -0.06942377034821122
    w47  w138  -0.0028166250140791113
    w47  w139  0.046610019166634466
    w47  w140  0.05964900789914451
    w47  w141  0.03889971620912628
    w47  w142  -0.13648044176879767
    w47  w143  0.10264302157696957
    w47  w144  0.00936337838539216
    w47  w145  0.01605570661268374
    w47  w146  -0.07666502690561246
    w47  w147  -0.06837352533983974
    w47  w148  0.006800394237452517
    w47  w149  0.018149655749850866
    w47  w150  -0.08096793008739946
    w47  w151  0.03576761313207881
    w47  w152  -0.09961176165142036
    w47  w153  0.11772163294483903
    w47  w154  -0.11489080875198104
    w47  w155  -0.1068393049783255
    w47  w156  0.006118285175980293
    w47  w157  -0.055547592302915436
    w47  w158  -0.03220740631670814
    w47  w159  0.05882279377951392
    w47  w160  0.029748927615777028
    w47  w161  -0.001280413843320532
    w47  w162  -0.12084636321239861
    w47  w163  0.021946699683378184
    w47  w164  0.036272375104999595
    w47  w165  0.053068043585016544
    w47  w166  0.11220871852658833
    w47  w167  0.04447619578248741
    w47  w168  -0.005402338683766617
    w47  w169  -0.0053211341505456505
    w47  w170  0.08590283606424613
    w47  w171  0.047404009318745666
    w47  w172  -0.03343361976256618
    w47  w173  0.0005886138883828572
    w47  w174  -0.031097663317478947
    w47  w175  -0.034999942810849574
    w47  w176  0.07316913780716883
    w47  w177  0.03272470675992132
    w47  w178  0.017358913489479568
    w47  w179  0.026100518065488784
    w47  w180  -0.03767821250906644
    w47  w181  -0.057438756030391495
    w47  w182  0.05404636374994475
    w47  w183  0.07652103236766784
    w47  w184  0.014696530602980129
    w47  w185  -0.029065496180424113
    w47  w186  0.12120236698726561
    w47  w187  -0.05372066896466302
    w47  w188  -0.021731353085131175
    w47  w189  0.02164196495621697
    w47  w190  0.023969285257288094
    w47  w191  0.058184716607859725
    w47  w192  -0.07136561374139255
    w47  w193  0.1497398993230778
    w47  w194  0.0135182133971389
    w47  w195  -0.07151250703397723
    w47  w196  0.04479057593759305
    w47  w197  0.03835593097656329
    w47  w198  0.030871481195873757
    w47  w199  -0.04443997809210499
    w48  w48  0.17675311178316033
    w48  w49  -0.00239708173250206
    w48  w50  0.02250202589871174
    w48  w51  -0.03866963412923245
    w48  w52  0.05909273137580356
    w48  w53  -0.027371558992594563
    w48  w54  -0.07567400741049399
    w48  w55  -0.05640207593216991
    w48  w56  -0.06964728958846574
    w48  w57  0.022236225844159546
    w48  w58  0.025197041767150853
    w48  w59  -0.009277497254350309
    w48  w60  -0.029784668585911583
    w48  w61  0.06162135628954832
    w48  w62  -0.022197979676253633
    w48  w63  0.01706612595568216
    w48  w64  -0.06284491130651684
    w48  w65  -0.03002834181981568
    w48  w66  0.02838329378917761
    w48  w67  0.0700482546405814
    w48  w68  0.004370465568733175
    w48  w69  -0.08586245576935073
    w48  w70  -0.0032510161249051494
    w48  w71  -0.07111458068535559
    w48  w72  0.005207234609207322
    w48  w73  0.022591314347147073
    w48  w74  -0.004978438976907324
    w48  w75  -0.014808170352697391
    w48  w76  0.05371623273151284
    w48  w77  -0.02210526358962627
    w48  w78  0.008066823446187315
    w48  w79  -0.006679985386011885
    w48  w80  0.0705288185603651
    w48  w81  -0.02477259808986811
    w48  w82  -0.06478523910072408
    w48  w83  -0.025157009153857615
    w48  w84  -0.012496936898746936
    w48  w85  -0.008563421985695086
    w48  w86  0.011202607076929773
    w48  w87  0.02258406688419506
    w48  w88  -0.036006313439452396
    w48  w89  0.029150966641613714
    w48  w90  0.012339565480392067
    w48  w91  0.023117038786188544
    w48  w92  -0.03315600666225274
    w48  w93  -0.029935082186417265
    w48  w94  -0.006501505735045705
    w48  w95  0.05802523427934488
    w48  w96  -0.06800356154069215
    w48  w97  0.06190576193167062
    w48  w98  0.016563177936714288
    w48  w99  0.01873491864977294
    w48  w100  -0.06826014076880932
    w48  w101  0.007374721967307361
    w48  w102  0.026537523743376396
    w48  w103  -0.004442569185008863
    w48  w104  -0.039945183382961456
    w48  w105  0.025368375922109623
    w48  w106  0.015207387642445568
    w48  w107  -0.019383633198237826
    w48  w108  -0.01645715514126583
    w48  w109  -0.025514629655177822
    w48  w110  0.018792485866655023
    w48  w111  0.03325685246069163
    w48  w112  -0.05928159275883841
    w48  w113  -0.05384045126032123
    w48  w114  0.032843594020069034
    w48  w115  0.0026365192812101957
    w48  w116  0.06169869811408836
    w48  w117  0.05443400441689666
    w48  w118  -0.018450287607037787
    w48  w119  -0.029685611241323843
    w48  w120  0.05482017572997574
    w48  w121  0.05091939594934456
    w48  w122  -0.006256464928860425
    w48  w123  -0.030258902265919076
    w48  w124  0.1110043290598024
    w48  w125  -0.062318547232996305
    w48  w126  -0.04421171581270231
    w48  w127  0.018295393218651743
    w48  w128  -0.002535681579450843
    w48  w129  -0.019192593547627805
    w48  w130  0.040651999302653424
    w48  w131  -0.01913614460907022
    w48  w132  -0.009637599456081416
    w48  w133  -0.02534466021262259
    w48  w134  0.10247731309372578
    w48  w135  0.014268327217911608
    w48  w136  -0.0758812225642532
    w48  w137  0.0203257013250026
    w48  w138  0.061972103589503856
    w48  w139  -0.029602103720035855
    w48  w140  -0.004795032236467391
    w48  w141  -0.04223684505451072
    w48  w142  -0.0007073367762227567
    w48  w143  0.04837397544039222
    w48  w144  0.03163683574636476
    w48  w145  0.014970679120445743
    w48  w146  -0.0006120357059414132
    w48  w147  -0.004469726019530762
    w48  w148  0.008679230027466667
    w48  w149  -0.018218341436458195
    w48  w150  -0.025716076567428137
    w48  w151  -0.0035062803437876803
    w48  w152  -0.008675570168287551
    w48  w153  0.051097445307598875
    w48  w154  0.030668122806413744
    w48  w155  0.0028713278328330078
    w48  w156  -0.003242487158960404
    w48  w157  -0.08663850825045519
    w48  w158  -0.02764028432283277
    w48  w159  -0.08648406959114252
    w48  w160  -0.027696070770017595
    w48  w161  0.08258697412936208
    w48  w162  0.044861038127553016
    w48  w163  0.007080585493644423
    w48  w164  -0.06194683531113521
    w48  w165  0.07295731692326654
    w48  w166  -0.02244316743080908
    w48  w167  0.014340828616574432
    w48  w168  0.0899625974314004
    w48  w169  -0.11489703278387589
    w48  w170  -0.046347023948775656
    w48  w171  -0.030017584345472175
    w48  w172  -0.0003640732647618284
    w48  w173  0.04354186304891573
    w48  w174  0.02911459091167306
    w48  w175  0.044916288839242195
    w48  w176  0.07604094342549389
    w48  w177  0.017149684167256738
    w48  w178  -0.06346583825766064
    w48  w179  0.039408497993682956
    w48  w180  0.028716278197103408
    w48  w181  0.054751232374932075
    w48  w182  -0.010579766393634279
    w48  w183  -0.035144596627406655
    w48  w184  0.05187531688269134
    w48  w185  -0.004838721374587733
    w48  w186  0.032707539389342614
    w48  w187  0.0037360443257458934
    w48  w188  -0.0014214852440688802
    w48  w189  0.0909993076747411
    w48  w190  0.04269379772137319
    w48  w191  0.007988825570786359
    w48  w192  -0.09873291130271072
    w48  w193  0.01855585728113281
    w48  w194  -0.008553386252670755
    w48  w195  -0.015133088738833237
    w48  w196  -0.017474246231335505
    w48  w197  0.05015505189953162
    w48  w198  -0.028672513770402617
    w48  w199  0.027559164416868304
    w49  w49  0.1872547386409656
    w49  w50  0.028217821357248114
    w49  w51  -0.03190493138715812
    w49  w52  0.002750486370807908
    w49  w53  -0.01442631709467391
    w49  w54  -0.002779339056646431
    w49  w55  0.003101786472438478
    w49  w56  -0.06537417129246384
    w49  w57  0.027022627174841447
    w49  w58  0.06655480312919508
    w49  w59  0.015136972621830502
    w49  w60  0.043853976212108244
    w49  w61  0.007611338050689704
    w49  w62  0.046980275691642134
    w49  w63  -0.034246595947117896
    w49  w64  -0.020685607491496123
    w49  w65  0.029789560942307152
    w49  w66  -0.07817293590633652
    w49  w67  0.07529321769734001
    w49  w68  0.011535822663238191
    w49  w69  0.05369125167767173
    w49  w70  -0.016807757824294077
    w49  w71  -0.022594482126741887
    w49  w72  -0.02081469885046431
    w49  w73  -0.045260684725416785
    w49  w74  0.0951136665718545
    w49  w75  -0.026814533318371574
    w49  w76  0.005451376691261221
    w49  w77  -0.03059739291828135
    w49  w78  0.037479080026434415
    w49  w79  -0.0034245370624930074
    w49  w80  0.07230386047978593
    w49  w81  -0.003513422764427925
    w49  w82  -0.08293585913599953
    w49  w83  0.08571772745760249
    w49  w84  -0.045017431250028515
    w49  w85  -0.008786759469847286
    w49  w86  -0.0208629908618221
    w49  w87  0.05723635096873994
    w49  w88  -0.006115411172858864
    w49  w89  -0.01320301692844039
    w49  w90  0.03707011169881967
    w49  w91  -0.004801572621150613
    w49  w92  -0.0010087115590900796
    w49  w93  -0.033037419523619965
    w49  w94  -0.04547892174590036
    w49  w95  -0.03663751958535403
    w49  w96  0.00854928180392306
    w49  w97  -0.006289116330955492
    w49  w98  0.028802960009929483
    w49  w99  0.08803815031002347
    w49  w100  0.02820874200708845
    w49  w101  0.014832136821303844
    w49  w102  -0.03389702379346702
    w49  w103  -0.007484720781428078
    w49  w104  0.012437232513612107
    w49  w105  -0.12231396353683764
    w49  w106  -0.04993617140036492
    w49  w107  -0.00433652452890607
    w49  w108  -0.018993761804209076
    w49  w109  0.025707446020297484
    w49  w110  -0.034930255546332695
    w49  w111  0.06873040584098146
    w49  w112  0.05915538272140963
    w49  w113  0.03125673682244862
    w49  w114  -0.020002198367765848
    w49  w115  0.04943341284133719
    w49  w116  0.03225504390785253
    w49  w117  0.06572527465335633
    w49  w118  0.024153578144991285
    w49  w119  0.0184022953494929
    w49  w120  -0.008435240321671094
    w49  w121  0.03177838591845824
    w49  w122  -0.03796597486532578
    w49  w123  0.07740781149109349
    w49  w124  -0.014490639484107209
    w49  w125  -0.05362095023176072
    w49  w126  0.0054190041551851155
    w49  w127  0.052398743649610356
    w49  w128  0.012399564062461552
    w49  w129  -0.021661449510238767
    w49  w130  -0.079373838927297
    w49  w131  -0.05171912721676384
    w49  w132  -0.02132406708869938
    w49  w133  -0.031144010590345276
    w49  w134  0.004613066954983368
    w49  w135  0.06522491331848138
    w49  w136  0.05369835858641367
    w49  w137  0.014331872418431792
    w49  w138  -0.06892662214160247
    w49  w139  -0.014620276519682132
    w49  w140  -0.022256943220249698
    w49  w141  0.00871598391277327
    w49  w142  0.08086224868571475
    w49  w143  0.08999803047892219
    w49  w144  0.0005271141818819628
    w49  w145  0.008440412842334743
    w49  w146  -0.028032717797966584
    w49  w147  0.026014836721783546
    w49  w148  -0.05257457220428463
    w49  w149  -0.08264882584009434
    w49  w150  -0.04730775679876897
    w49  w151  -0.06952245100540827
    w49  w152  0.02296191377271531
    w49  w153  -0.0465693364136196
    w49  w154  -0.05848384621658844
    w49  w155  0.03920484157093434
    w49  w156  0.045554454631327075
    w49  w157  -0.03414872086019257
    w49  w158  -0.0009756568586997876
    w49  w159  -0.015281948314543261
    w49  w160  0.031890920968781315
    w49  w161  -0.08785344739808104
    w49  w162  -0.10328466522488194
    w49  w163  0.06763923978851537
    w49  w164  0.05192489978571256
    w49  w165  0.07345331191974311
    w49  w166  0.011218220520734146
    w49  w167  0.05793889252662316
    w49  w168  -0.07666855124827494
    w49  w169  0.07865708606996727
    w49  w170  -0.04232996044431322
    w49  w171  0.019493114844572113
    w49  w172  0.027399719296697326
    w49  w173  -0.020627462751344257
    w49  w174  0.08319653976578449
    w49  w175  0.012123533185493375
    w49  w176  -0.030354975838772794
    w49  w177  -0.08025071691081204
    w49  w178  -0.07547572896878442
    w49  w179  0.02343803700866625
    w49  w180  0.039220572897861246
    w49  w181  -0.03629003673033535
    w49  w182  -0.02321103778868218
    w49  w183  0.010769192868932563
    w49  w184  0.017904160556495838
    w49  w185  0.051513282275542055
    w49  w186  0.054255279304862764
    w49  w187  -0.0667411347661138
    w49  w188  -0.03923586832334736
    w49  w189  0.029030917015576346
    w49  w190  0.00021525971106073447
    w49  w191  0.0365517823333164
    w49  w192  -0.0017813906277454742
    w49  w193  0.09107475691290731
    w49  w194  -0.0053492705684312965
    w49  w195  -0.03024067000717567
    w49  w196  -0.04751135050824284
    w49  w197  0.000645400647923596
    w49  w198  0.04541412508527874
    w49  w199  0.002018222846945305
    w50  w50  0.2526948781245205
    w50  w51  -0.015572503174160297
    w50  w52  0.027141354096084137
    w50  w53  -0.08566127695011025
    w50  w54  -0.0476567267916012
    w50  w55  0.1146206020435722
    w50  w56  0.04953760328377443
    w50  w57  0.003540728765947243
    w50  w58  0.05453484430143198
    w50  w59  2.684951079832855e-05
    w50  w60  -0.00022776161337178895
    w50  w61  0.04364952368130901
    w50  w62  -0.02105238758736463
    w50  w63  -0.01674939915163726
    w50  w64  0.020567280992790336
    w50  w65  0.026411026079763526
    w50  w66  -0.02315457920888227
    w50  w67  0.04682804291656256
    w50  w68  0.019817866666723458
    w50  w69  0.0032985867003336843
    w50  w70  -0.02167902129200736
    w50  w71  -0.021558395396602377
    w50  w72  -0.04229114218074251
    w50  w73  0.03907063749324065
    w50  w74  0.05286932540961731
    w50  w75  -0.08088165733651681
    w50  w76  0.11449479276784282
    w50  w77  0.03125617262582811
    w50  w78  0.045344103719565945
    w50  w79  -0.11425563364173562
    w50  w80  0.1266462064839785
    w50  w81  -0.006107974043693703
    w50  w82  -0.1203455876533902
    w50  w83  0.0643061924570856
    w50  w84  -0.02417751926482372
    w50  w85  0.03755473206303969
    w50  w86  0.012216418024486815
    w50  w87  -0.059799326417677406
    w50  w88  -0.10394229530565376
    w50  w89  0.11431642196649061
    w50  w90  0.02916365813033733
    w50  w91  0.09321170091170146
    w50  w92  0.02065809855690068
    w50  w93  -0.015072607487777423
    w50  w94  -0.09067880862130454
    w50  w95  0.001280474797493778
    w50  w96  0.07380617173778026
    w50  w97  0.00819877609019374
    w50  w98  0.029839437355301358
    w50  w99  0.05785908577097761
    w50  w100  -0.024962739753760108
    w50  w101  -0.056602757001723764
    w50  w102  -0.04974899607639412
    w50  w103  0.08569155874492396
    w50  w104  -0.10466061539637785
    w50  w105  0.007502737337217882
    w50  w106  -0.05600165567465395
    w50  w107  -0.05837255645422145
    w50  w108  0.010422620281225757
    w50  w109  0.02268351693476889
    w50  w110  0.0867458417963031
    w50  w111  -0.009863586503337698
    w50  w112  -0.05203019361959292
    w50  w113  0.009592203545655353
    w50  w114  0.10482492706373267
    w50  w115  -0.06987944110847005
    w50  w116  -0.06576986690295841
    w50  w117  0.11283815348642105
    w50  w118  -0.02915485867771239
    w50  w119  0.002518205360617755
    w50  w120  0.10727271485509794
    w50  w121  -0.030280130539151812
    w50  w122  -0.013214265617432538
    w50  w123  0.0666726322638329
    w50  w124  -0.015328805058892161
    w50  w125  -0.013957247815249391
    w50  w126  0.06928553884813328
    w50  w127  0.06613946363761851
    w50  w128  0.05187198855396463
    w50  w129  0.09917528153027104
    w50  w130  -0.09324191404209606
    w50  w131  0.06346512728361364
    w50  w132  0.008210138418431632
    w50  w133  -0.030967599186398225
    w50  w134  0.056682900338264945
    w50  w135  0.04702130406857173
    w50  w136  -0.055494388737769684
    w50  w137  0.059633933685377435
    w50  w138  -0.06568982369081208
    w50  w139  0.10156457440830344
    w50  w140  0.05521996145043834
    w50  w141  -0.06361662242571307
    w50  w142  0.15753110182575236
    w50  w143  0.003812993045048434
    w50  w144  0.025743768160369346
    w50  w145  -0.059858864539454874
    w50  w146  -0.02588758920896604
    w50  w147  -0.020912509997197314
    w50  w148  -0.016671313472798186
    w50  w149  -0.03172570317050594
    w50  w150  -0.05279270914383254
    w50  w151  -0.040554802608510875
    w50  w152  0.03042879217151493
    w50  w153  -0.02951980890482641
    w50  w154  0.11235770889522956
    w50  w155  -0.038686884137613106
    w50  w156  0.012140945632105866
    w50  w157  -0.001386077070140308
    w50  w158  0.03437169461346108
    w50  w159  0.06997226959833515
    w50  w160  -0.03621777955916252
    w50  w161  0.07190919913465899
    w50  w162  0.10201063266792765
    w50  w163  0.12203978101242577
    w50  w164  0.08223903973492992
    w50  w165  -0.07602491769669349
    w50  w166  -0.019249906862795055
    w50  w167  0.07708611633024876
    w50  w168  -0.09391745995105628
    w50  w169  0.06261859776555975
    w50  w170  0.004901307922596139
    w50  w171  -0.14286745218803523
    w50  w172  -0.0268058656758974
    w50  w173  -0.011763313052118684
    w50  w174  0.061894769693596544
    w50  w175  0.06710685435776588
    w50  w176  0.0008356570868323786
    w50  w177  0.003187056160424121
    w50  w178  -0.015440322079807027
    w50  w179  0.15202017207412152
    w50  w180  -0.03914735938430867
    w50  w181  0.03444566704602528
    w50  w182  -0.10907191112710536
    w50  w183  -0.01854433551754565
    w50  w184  0.10070026033847704
    w50  w185  0.0167543796830244
    w50  w186  0.016084204684130184
    w50  w187  -0.07565897514718806
    w50  w188  0.05360953684945106
    w50  w189  -0.11923191485809126
    w50  w190  -0.004285597893458867
    w50  w191  -0.01766466884111015
    w50  w192  0.04948753871612538
    w50  w193  0.022809946725122862
    w50  w194  0.005631825069002186
    w50  w195  0.11045312207776843
    w50  w196  -0.03313916232233271
    w50  w197  -0.07019666606748783
    w50  w198  0.09058305851293398
    w50  w199  -0.0006833697449280048
    w51  w51  0.09847954300465354
    w51  w52  -0.008287240830538556
    w51  w53  -0.005011330143988237
    w51  w54  0.01934561400736843
    w51  w55  -0.018434756314373458
    w51  w56  -0.017538948498829577
    w51  w57  -0.008711647743815705
    w51  w58  -0.013673301839514805
    w51  w59  0.029360609268453856
    w51  w60  0.057371443731278594
    w51  w61  0.03273091566555936
    w51  w62  0.00624816799933174
    w51  w63  0.01130640976470788
    w51  w64  0.057202252955118466
    w51  w65  -0.006278074720236858
    w51  w66  -0.010599014649157055
    w51  w67  0.021446599025340622
    w51  w68  -0.027832452453165457
    w51  w69  0.04058513929057246
    w51  w70  0.04410782530970879
    w51  w71  0.0620055879845068
    w51  w72  0.02870331822843631
    w51  w73  0.02536710105879912
    w51  w74  -0.05235528464505525
    w51  w75  -0.006241371297852598
    w51  w76  -0.003946526681732748
    w51  w77  0.026942009266310525
    w51  w78  0.01349086637473559
    w51  w79  0.00946305981984193
    w51  w80  -0.04563948325204393
    w51  w81  -0.027954068243697727
    w51  w82  0.10590303156623772
    w51  w83  -0.044627563418598415
    w51  w84  0.06953094913455533
    w51  w85  0.0529551980056526
    w51  w86  0.05991827500077959
    w51  w87  -0.046923139597021934
    w51  w88  0.005276749612973597
    w51  w89  0.04162178230944109
    w51  w90  -0.08541651287451979
    w51  w91  0.027164226003704602
    w51  w92  0.03735472350947568
    w51  w93  0.03391953790802785
    w51  w94  0.024869970837430835
    w51  w95  0.004372774443394356
    w51  w96  0.049800554650017405
    w51  w97  0.03687825792985
    w51  w98  0.02217546885642769
    w51  w99  -0.04680653910102829
    w51  w100  0.026753002583607126
    w51  w101  0.013565462989617864
    w51  w102  -0.034302081941036344
    w51  w103  -0.02013693804161051
    w51  w104  0.01355598269560239
    w51  w105  -0.03004450328980561
    w51  w106  0.0482152144376122
    w51  w107  -0.06848045312909787
    w51  w108  0.07210760977115985
    w51  w109  -0.08154743707934595
    w51  w110  -0.02856369158205489
    w51  w111  -0.03715113142415041
    w51  w112  0.03149327108141423
    w51  w113  -0.05246266353683203
    w51  w114  0.02773253962510224
    w51  w115  0.018875820121909397
    w51  w116  -0.01753204312455892
    w51  w117  -0.05086665666514205
    w51  w118  0.03281210278007637
    w51  w119  0.038054747401717826
    w51  w120  0.03245033282032763
    w51  w121  -0.046338378757438486
    w51  w122  0.0834599500113609
    w51  w123  0.00968789798894224
    w51  w124  -0.00014638018509296636
    w51  w125  0.05515057947461276
    w51  w126  0.03942904062724391
    w51  w127  -0.013501343273034958
    w51  w128  -0.023718130025722067
    w51  w129  -0.008392346281072608
    w51  w130  -0.02436661840380095
    w51  w131  0.03440159323043734
    w51  w132  0.006080569089157706
    w51  w133  0.014418475990427164
    w51  w134  -0.03872064720037365
    w51  w135  -0.03221704882125631
    w51  w136  -0.0035935158992539584
    w51  w137  0.018187462491623622
    w51  w138  0.013898363599565899
    w51  w139  -0.011561474799498357
    w51  w140  -0.00857327951566376
    w51  w141  0.008273700459238224
    w51  w142  0.056454832084735104
    w51  w143  -0.06435322970015814
    w51  w144  0.010863123782475118
    w51  w145  0.006155828707904911
    w51  w146  0.032248825785860094
    w51  w147  0.019854738648747157
    w51  w148  -0.05018828766606092
    w51  w149  -0.011746464936573588
    w51  w150  0.057465124187822264
    w51  w151  0.010286170002745345
    w51  w152  0.021792534415212665
    w51  w153  -0.11120068823335127
    w51  w154  0.029366844930147504
    w51  w155  0.03439672274447902
    w51  w156  -0.0074536590658376015
    w51  w157  0.051086820271940794
    w51  w158  0.015234693612217546
    w51  w159  -0.013006121234187193
    w51  w160  -0.051401343360748815
    w51  w161  0.011572066409639512
    w51  w162  0.0420962289775321
    w51  w163  -0.053715820391473636
    w51  w164  0.0022993663943212304
    w51  w165  -0.030539210438303353
    w51  w166  -0.027014349107869796
    w51  w167  -0.003694130821587809
    w51  w168  -0.0032712784168784873
    w51  w169  0.0201039750151325
    w51  w170  0.0004964965443744276
    w51  w171  -0.05128257656274653
    w51  w172  0.01708725283104063
    w51  w173  0.015173167581472982
    w51  w174  -0.019072453619159567
    w51  w175  0.005687085633798467
    w51  w176  -0.05151412084396642
    w51  w177  0.016578071969043585
    w51  w178  0.02125061857992353
    w51  w179  -0.029313088628105142
    w51  w180  0.0262613632293808
    w51  w181  -0.02383905126540177
    w51  w182  -0.004075116265121938
    w51  w183  -0.04683815271491807
    w51  w184  -0.044147713912726025
    w51  w185  0.00817372013753454
    w51  w186  -0.09452368593263508
    w51  w187  0.029146718124017836
    w51  w188  0.01772441828978643
    w51  w189  0.0003540003169057367
    w51  w190  0.01724576603443717
    w51  w191  -0.004119821443454894
    w51  w192  0.05895956059340727
    w51  w193  -0.07964887560498563
    w51  w194  -0.006938510681000253
    w51  w195  0.040409570765295715
    w51  w196  -0.008350277782658476
    w51  w197  -0.009575012232777144
    w51  w198  0.005955097898851381
    w51  w199  -0.020935338598859578
    w52  w52  0.13671727614177148
    w52  w53  0.007393454284564577
    w52  w54  -0.06292759772561611
    w52  w55  0.007731959525686995
    w52  w56  -0.07622642031444551
    w52  w57  0.019564471302626396
    w52  w58  0.027393921691789405
    w52  w59  0.03314681305230682
    w52  w60  -0.012809831234355277
    w52  w61  0.06700105103627037
    w52  w62  -0.01511744485815426
    w52  w63  0.007093041136479542
    w52  w64  -0.006930744232874702
    w52  w65  0.038177747849979564
    w52  w66  0.05720230677442227
    w52  w67  0.07234781651863671
    w52  w68  -0.013936291245788131
    w52  w69  -0.007744409503534893
    w52  w70  0.004276121325708612
    w52  w71  0.009947176061650633
    w52  w72  0.07008532011954242
    w52  w73  0.04708851521373352
    w52  w74  -0.027273791826275148
    w52  w75  -0.04764866062446021
    w52  w76  0.01545379049742325
    w52  w77  -0.030053755230222218
    w52  w78  0.008338015882525411
    w52  w79  0.021472387679531517
    w52  w80  -0.0016337315795181449
    w52  w81  -0.0344355139745091
    w52  w82  -0.022137720517306645
    w52  w83  -0.06326988980898121
    w52  w84  0.02777915100828173
    w52  w85  -0.03192461868608559
    w52  w86  -0.00761974816300939
    w52  w87  0.052153201423039454
    w52  w88  -0.00829361405592852
    w52  w89  0.027761306763068053
    w52  w90  0.008626577911642546
    w52  w91  0.06300479970934927
    w52  w92  -0.02048148740090573
    w52  w93  -0.02961709199129921
    w52  w94  -0.02548080200733624
    w52  w95  -0.006377809277034566
    w52  w96  -0.046683239427216534
    w52  w97  0.03270451876490436
    w52  w98  0.07918592337776573
    w52  w99  -0.003102530514531652
    w52  w100  -0.0450192881219575
    w52  w101  0.01312725056883623
    w52  w102  0.007812416571451526
    w52  w103  -0.0029338964834287203
    w52  w104  -0.0023198447668305974
    w52  w105  0.009646601935594334
    w52  w106  0.015818161517129635
    w52  w107  -0.009118203170287808
    w52  w108  0.019169106686849315
    w52  w109  -0.1108350138841439
    w52  w110  0.03018432636345914
    w52  w111  0.07090817920037348
    w52  w112  -0.030519465911271287
    w52  w113  -0.04529063210028065
    w52  w114  0.07211829650920154
    w52  w115  -0.029206409681448806
    w52  w116  0.07043959990343789
    w52  w117  0.10554296362055804
    w52  w118  -0.029552166737230715
    w52  w119  0.026688023310198743
    w52  w120  0.05946055006542878
    w52  w121  0.021274662906841015
    w52  w122  0.04874673875615815
    w52  w123  -0.022314024693885316
    w52  w124  0.05573212097737714
    w52  w125  -0.031167658328804804
    w52  w126  0.018470689182179072
    w52  w127  0.004569110222177472
    w52  w128  0.005434487536319961
    w52  w129  -0.015688313766232337
    w52  w130  -0.028415258531411643
    w52  w131  -0.04283642003858231
    w52  w132  -0.07140394650885319
    w52  w133  -0.05121894239588621
    w52  w134  -0.0035051435735565547
    w52  w135  0.0075678067911616655
    w52  w136  -0.041921550757970806
    w52  w137  0.09646566219305527
    w52  w138  0.030262454493202317
    w52  w139  -0.02541669228374023
    w52  w140  -0.014551084541322016
    w52  w141  -0.048644697749824724
    w52  w142  0.11366189334191196
    w52  w143  -0.032636166979726045
    w52  w144  0.03194319352319328
    w52  w145  -0.021347501071825967
    w52  w146  0.006636847438509831
    w52  w147  -0.012516041281753156
    w52  w148  -0.019611671531487296
    w52  w149  0.0044973889533993314
    w52  w150  0.023793070271192093
    w52  w151  -0.016445259860988718
    w52  w152  0.013984141256405755
    w52  w153  -0.02102541370160814
    w52  w154  0.09771612846255287
    w52  w155  0.006970731369269004
    w52  w156  -0.020472993917231078
    w52  w157  -0.045347598721035234
    w52  w158  -0.00416021774331247
    w52  w159  -0.02073143907850954
    w52  w160  -0.00883308162778451
    w52  w161  0.007781247521802589
    w52  w162  0.04530636598082524
    w52  w163  -0.005149704353150362
    w52  w164  -0.04809360048709647
    w52  w165  0.050202801271521005
    w52  w166  -0.09344304934651351
    w52  w167  -0.010910555395141623
    w52  w168  0.07956767430124183
    w52  w169  0.014697410804412538
    w52  w170  0.0055260897277793
    w52  w171  -0.10407968356685411
    w52  w172  0.02125618654369306
    w52  w173  -0.043387005210037084
    w52  w174  0.0026167171976226485
    w52  w175  0.06031582438981869
    w52  w176  0.04047906552591735
    w52  w177  0.006739156466574491
    w52  w178  -0.02790839118283722
    w52  w179  0.024042823920602654
    w52  w180  0.032512976071154845
    w52  w181  -0.04090667306817592
    w52  w182  -0.019815325539324535
    w52  w183  -0.017527857935308706
    w52  w184  0.04686713470300845
    w52  w185  0.004109995778242628
    w52  w186  -0.011120460229426143
    w52  w187  0.029857364624681137
    w52  w188  -0.000528804663063966
    w52  w189  0.018479887895468186
    w52  w190  0.10922458064542842
    w52  w191  0.042897698382420836
    w52  w192  -0.02104253709722107
    w52  w193  -0.002748924588742979
    w52  w194  -0.04803573284285222
    w52  w195  0.006418444504303515
    w52  w196  0.015477953523852811
    w52  w197  0.050878850639978816
    w52  w198  -0.03642226349404236
    w52  w199  0.07676198301151348
    w53  w53  0.19459257267896315
    w53  w54  0.019254207264250926
    w53  w55  -0.04001322457465845
    w53  w56  0.02183371062562352
    w53  w57  -0.03814145198898266
    w53  w58  -0.06654899329054954
    w53  w59  -0.018150520040372913
    w53  w60  -0.005486278381194541
    w53  w61  -0.024360710218729972
    w53  w62  -0.014451702366958
    w53  w63  0.0026733149527730232
    w53  w64  -0.013575113920000345
    w53  w65  0.06997312665149542
    w53  w66  0.05314114091928448
    w53  w67  -0.07662913377562201
    w53  w68  0.02779028507475255
    w53  w69  0.017714513153811114
    w53  w70  -0.03151651347705105
    w53  w71  0.06369812819436964
    w53  w72  0.059296133640179195
    w53  w73  -0.039027684827110776
    w53  w74  -0.08543109708633771
    w53  w75  0.06285395663948344
    w53  w76  -0.05751404393608451
    w53  w77  -0.04585049386440624
    w53  w78  -0.011067234908958704
    w53  w79  0.10017921138898739
    w53  w80  -0.13035113696289077
    w53  w81  0.02912678453774846
    w53  w82  0.003190572503909138
    w53  w83  -0.020216358070780985
    w53  w84  0.0836087860373251
    w53  w85  -0.05401084484396977
    w53  w86  -0.0643842688221511
    w53  w87  0.096251337076061
    w53  w88  0.10109475829989885
    w53  w89  -0.12584323334982475
    w53  w90  0.06948193650421965
    w53  w91  -0.061903020580299305
    w53  w92  -0.006546788237141979
    w53  w93  -0.01888605775240576
    w53  w94  0.023906317951943954
    w53  w95  -0.07057555748301382
    w53  w96  -0.04606644951075673
    w53  w97  -0.10054151013198527
    w53  w98  0.01448257293732487
    w53  w99  -0.03524319196924472
    w53  w100  -0.012398859360523214
    w53  w101  0.03464378772279018
    w53  w102  0.04849943705916087
    w53  w103  0.06084909207140626
    w53  w104  0.09766651191892245
    w53  w105  0.04361464928345429
    w53  w106  0.002507096465285723
    w53  w107  0.08544420745833854
    w53  w108  -0.04249794026296281
    w53  w109  0.0011429306426477635
    w53  w110  -0.04041469031716929
    w53  w111  0.04010894577301016
    w53  w112  0.08690336723052597
    w53  w113  0.03892249843170503
    w53  w114  -0.0225270332834721
    w53  w115  0.030382426677432784
    w53  w116  0.09021495128804702
    w53  w117  -0.009170051727776072
    w53  w118  -0.030525577143786425
    w53  w119  0.04140806646505312
    w53  w120  -0.06850752187033328
    w53  w121  -0.01583520678306529
    w53  w122  0.0028399703818371516
    w53  w123  -0.08108821411478699
    w53  w124  -0.021969876899169953
    w53  w125  -0.012639627009105274
    w53  w126  -0.03572670451432115
    w53  w127  -0.07131722105421444
    w53  w128  0.036284512864858606
    w53  w129  -0.013521665297162894
    w53  w130  0.0106530300881474
    w53  w131  -0.06301829086149309
    w53  w132  -0.027484520913322968
    w53  w133  -0.0065671934293044885
    w53  w134  -0.061178118733516904
    w53  w135  0.005049181976843295
    w53  w136  0.06633330899490886
    w53  w137  -0.027660635570463832
    w53  w138  -0.034005237136506335
    w53  w139  -0.03994622965355212
    w53  w140  -0.05704499983302933
    w53  w141  0.007946981985110128
    w53  w142  -0.05623580048535157
    w53  w143  -0.034075183075480936
    w53  w144  0.012094872856185218
    w53  w145  -0.002307666460187392
    w53  w146  0.04853513850716933
    w53  w147  -0.013858387740828716
    w53  w148  0.036158774205144996
    w53  w149  0.0170170389392911
    w53  w150  0.03327928619890829
    w53  w151  0.0175304860288953
    w53  w152  0.00750489761621456
    w53  w153  0.06947682077242366
    w53  w154  0.031874506796789166
    w53  w155  0.02499398331228303
    w53  w156  -0.015295649021028883
    w53  w157  0.03879334417714031
    w53  w158  -0.03281761682077244
    w53  w159  -0.012481388522026394
    w53  w160  0.11995436499976721
    w53  w161  -0.10557911824353232
    w53  w162  -0.03602346954711344
    w53  w163  -0.047183475626620786
    w53  w164  -0.09601779406639059
    w53  w165  0.003873249023274378
    w53  w166  -0.035332071254464734
    w53  w167  -0.08601491629140959
    w53  w168  0.08062899263129446
    w53  w169  0.014763415299778706
    w53  w170  -0.01861971322215008
    w53  w171  0.08076516801959704
    w53  w172  0.0016290811796407026
    w53  w173  -0.0726162833792571
    w53  w174  -0.06867641021067712
    w53  w175  -0.02189213300211276
    w53  w176  -0.007289787134078634
    w53  w177  -0.022474847736799333
    w53  w178  0.02945933240337861
    w53  w179  -0.1363783631267435
    w53  w180  -0.0172359395732621
    w53  w181  -0.016906426213236778
    w53  w182  -0.0011548966003405404
    w53  w183  0.05065177749800855
    w53  w184  -0.023514281695128356
    w53  w185  -0.011685441479736604
    w53  w186  0.0779185945973006
    w53  w187  0.06288702194238108
    w53  w188  -0.03321153847178007
    w53  w189  -0.03771025408206788
    w53  w190  -0.03311260226788381
    w53  w191  -0.041932874332315774
    w53  w192  0.015065466186379625
    w53  w193  -0.023044148406734362
    w53  w194  0.0008011115428657304
    w53  w195  -0.048532755844508654
    w53  w196  0.029535710231053464
    w53  w197  0.04383611884441709
    w53  w198  -0.10669292708001941
    w53  w199  0.035409506246446974
    w54  w54  0.1399786271851302
    w54  w55  -0.029460653273255248
    w54  w56  0.08763869777788456
    w54  w57  -0.021603652030940085
    w54  w58  -0.018730526070547218
    w54  w59  0.037972620382001485
    w54  w60  -0.029768804236722034
    w54  w61  -0.04164342960984259
    w54  w62  0.08366576636098028
    w54  w63  -0.008335873074559701
    w54  w64  0.07969082454589468
    w54  w65  0.015399108476205138
    w54  w66  -0.0242276359941099
    w54  w67  -0.018177768076885193
    w54  w68  -0.027092106054703732
    w54  w69  0.04765693511970043
    w54  w70  -0.015510860232723831
    w54  w71  0.026628176404310543
    w54  w72  -0.027728069250598657
    w54  w73  -0.028975356547695088
    w54  w74  -0.009324503922685847
    w54  w75  0.0592868998456454
    w54  w76  -0.11299229921243265
    w54  w77  0.02813551708554841
    w54  w78  -0.023277862088241428
    w54  w79  0.05461706647770377
    w54  w80  -0.03309644996124402
    w54  w81  0.007389797531236355
    w54  w82  0.04436319682678889
    w54  w83  0.01605326961758549
    w54  w84  0.03647691690807828
    w54  w85  0.019241552566689673
    w54  w86  -0.018262808222346806
    w54  w87  0.012765182669974682
    w54  w88  -0.03845380674730526
    w54  w89  -0.05089311734938511
    w54  w90  -0.06906638085702878
    w54  w91  -0.08596684927782276
    w54  w92  -0.0019757807927459504
    w54  w93  -0.0005257072778017007
    w54  w94  -0.027173612800625788
    w54  w95  -0.07761889975786274
    w54  w96  0.012938231931334965
    w54  w97  -0.055718901886061455
    w54  w98  -0.05150909624755222
    w54  w99  -0.02506641923037407
    w54  w100  -0.015336439067869276
    w54  w101  -0.04126787148164827
    w54  w102  -0.0174850000857812
    w54  w103  -0.09584559246910775
    w54  w104  0.06886567366006963
    w54  w105  0.01583374108963136
    w54  w106  -0.016807823831367773
    w54  w107  0.055450896168850454
    w54  w108  -0.03937367107459767
    w54  w109  0.01677941258057473
    w54  w110  -0.024230248407299544
    w54  w111  -0.02365213827706589
    w54  w112  0.043902491547869994
    w54  w113  0.04626803537652139
    w54  w114  -0.10012963622237223
    w54  w115  0.025734217685198575
    w54  w116  -0.06632894862027014
    w54  w117  -0.08552840066607388
    w54  w118  -0.029044473353261668
    w54  w119  -0.009461147021576684
    w54  w120  -0.08851274415044366
    w54  w121  -0.046598855410378615
    w54  w122  -0.010085051354713674
    w54  w123  0.04917408715042798
    w54  w124  -0.10942668320430506
    w54  w125  0.050324719784942934
    w54  w126  0.015445467040259592
    w54  w127  -0.04093046530050253
    w54  w128  0.02991638387417699
    w54  w129  0.0603382909678243
    w54  w130  -0.033863127379229925
    w54  w131  -0.03758416185145082
    w54  w132  0.026202729854951805
    w54  w133  0.09393678975635988
    w54  w134  -0.10945862306680142
    w54  w135  -0.04847587248290303
    w54  w136  0.04373255419797725
    w54  w137  -0.03280093074468403
    w54  w138  -0.04093895368815186
    w54  w139  -0.038726050239954284
    w54  w140  -0.014654234503128076
    w54  w141  0.07503333869781258
    w54  w142  -0.0825991143999339
    w54  w143  0.06625726679500073
    w54  w144  0.007140884720226431
    w54  w145  -0.0029247999810898687
    w54  w146  0.04265702208564252
    w54  w147  0.0077035965922180654
    w54  w148  0.027353579546356564
    w54  w149  0.017132013538773302
    w54  w150  -0.024328770241824792
    w54  w151  0.020604098635217154
    w54  w152  -0.0040576603539842805
    w54  w153  0.03666414596015203
    w54  w154  -0.09653004687514814
    w54  w155  0.06967118705459033
    w54  w156  -0.00047683435241183353
    w54  w157  0.0540150709391901
    w54  w158  0.016036703297143216
    w54  w159  0.03877429927130644
    w54  w160  0.028766147242053793
    w54  w161  -0.08930274273829444
    w54  w162  -0.09167777474154451
    w54  w163  0.04248609320380958
    w54  w164  0.024521278190320427
    w54  w165  -0.013896102083843632
    w54  w166  0.034129095123930496
    w54  w167  0.0010633262998166113
    w54  w168  -0.09223921149271745
    w54  w169  -0.0006116245929699501
    w54  w170  0.06079188375471798
    w54  w171  0.08305459203967024
    w54  w172  -0.004222573412768789
    w54  w173  -0.026543932081848725
    w54  w174  0.01831675845321031
    w54  w175  -0.05748522873595413
    w54  w176  -0.05000642685005629
    w54  w177  -0.0006220559805747094
    w54  w178  0.03413245186717558
    w54  w179  0.03684390185997963
    w54  w180  -0.01038806416442953
    w54  w181  0.01784448828016676
    w54  w182  0.03659635566616174
    w54  w183  0.03524568747172382
    w54  w184  -0.002710587114403841
    w54  w185  0.024501554146244442
    w54  w186  -0.027677423929647973
    w54  w187  -0.02523575945329426
    w54  w188  -0.05537891895285825
    w54  w189  -0.029022868251789832
    w54  w190  -0.06997220431839711
    w54  w191  -0.05443525238530278
    w54  w192  0.033188226202960254
    w54  w193  -0.006938287292420957
    w54  w194  0.04874440558915128
    w54  w195  -0.04823685627614457
    w54  w196  0.04215096211834728
    w54  w197  -0.05368118830540305
    w54  w198  0.05794504977962825
    w54  w199  -0.00903151274407684
    w55  w55  0.4800706837666645
    w55  w56  0.11084875684053158
    w55  w57  -0.025838392698522707
    w55  w58  -0.021225858480554072
    w55  w59  -0.0007633293292391305
    w55  w60  0.006109263450223117
    w55  w61  -0.1227324355814675
    w55  w62  -0.06847967770790832
    w55  w63  -0.019652833442509683
    w55  w64  0.022287560713556916
    w55  w65  0.05045828291792512
    w55  w66  0.12271394529023064
    w55  w67  -0.12368128802450888
    w55  w68  -0.035552156407030966
    w55  w69  0.05359517156513155
    w55  w70  0.002031015760636704
    w55  w71  0.040031843011162735
    w55  w72  -0.032512180908320164
    w55  w73  0.06236987192494075
    w55  w74  0.16080945408183495
    w55  w75  -0.04581451910064273
    w55  w76  0.0035461254129519216
    w55  w77  -0.07805367820510432
    w55  w78  -0.05266939729086881
    w55  w79  -0.19129573264312189
    w55  w80  0.02469013842604429
    w55  w81  0.08780471948197155
    w55  w82  -0.008055035414512801
    w55  w83  -0.0030339219348976916
    w55  w84  -0.1384618207209361
    w55  w85  -0.016736399255851294
    w55  w86  -0.11404242661566442
    w55  w87  -0.004335272481826751
    w55  w88  -0.050058119842179
    w55  w89  0.02689380131123069
    w55  w90  0.1666257947676354
    w55  w91  0.11074513972554058
    w55  w92  0.021299422151254653
    w55  w93  0.07867757804650544
    w55  w94  -0.0201096135090962
    w55  w95  -0.11248187244043807
    w55  w96  0.05768597253176476
    w55  w97  -0.006380429320872075
    w55  w98  0.12062750481750395
    w55  w99  0.03166634997217976
    w55  w100  0.10975153369941656
    w55  w101  -0.0650189006967804
    w55  w102  -0.07514000099763085
    w55  w103  0.0380349992586081
    w55  w104  -0.04237235965356524
    w55  w105  -0.03271154009899433
    w55  w106  -0.11754724575872343
    w55  w107  0.023785672606881705
    w55  w108  0.10863276472856787
    w55  w109  0.07156437645377968
    w55  w110  0.20164247371088492
    w55  w111  -0.11555006927602747
    w55  w112  -0.11351330758291113
    w55  w113  0.04966823032148976
    w55  w114  0.1462688557118109
    w55  w115  -0.23084727785283887
    w55  w116  -0.1172880042243815
    w55  w117  0.10553566499120681
    w55  w118  -0.09963398310615992
    w55  w119  -0.09056556810842133
    w55  w120  -0.08239910940811192
    w55  w121  0.04854563549076869
    w55  w122  -0.02117398749933992
    w55  w123  0.00407832224023966
    w55  w124  -0.15040908551214466
    w55  w125  -0.016364658642749615
    w55  w126  0.061621556616234696
    w55  w127  0.05300758375728339
    w55  w128  -0.02448627967356815
    w55  w129  0.0055764292126007035
    w55  w130  -0.02133386189384303
    w55  w131  0.1338684133641753
    w55  w132  -0.05683787443944951
    w55  w133  -0.13531942311136796
    w55  w134  -0.0030721512033685177
    w55  w135  0.05056564425405547
    w55  w136  0.04653571836780856
    w55  w137  0.11242661243779606
    w55  w138  0.00027602177742252516
    w55  w139  0.07764746521025255
    w55  w140  0.13939184549277672
    w55  w141  -0.024919034743285717
    w55  w142  0.16545711157975906
    w55  w143  -0.25432890363541344
    w55  w144  -0.09528117769994172
    w55  w145  -0.04188709881025524
    w55  w146  -0.11345317755159379
    w55  w147  -0.09129752526489984
    w55  w148  0.09821529481495485
    w55  w149  0.051122708764381374
    w55  w150  0.07500393772487823
    w55  w151  -0.10718411890967838
    w55  w152  -0.04345191848136011
    w55  w153  0.053712996399043055
    w55  w154  0.10400822023037623
    w55  w155  -0.23571155521593487
    w55  w156  -0.03441356638939684
    w55  w157  0.04625529535660655
    w55  w158  0.00392263299489179
    w55  w159  0.23868676641763512
    w55  w160  0.04089060875936339
    w55  w161  -0.005432012723050049
    w55  w162  0.05980510135541841
    w55  w163  0.0471423082210645
    w55  w164  0.11334141346841971
    w55  w165  -0.16291391233707864
    w55  w166  0.01744881907312735
    w55  w167  -0.039564989733276226
    w55  w168  -0.14513767856027784
    w55  w169  0.26118693884637656
    w55  w170  0.10876774446045234
    w55  w171  -0.13520172344432416
    w55  w172  0.11112120498909173
    w55  w173  -0.012576120666827955
    w55  w174  -0.05342998361899624
    w55  w175  0.039466705272877205
    w55  w176  0.02684150030875235
    w55  w177  -0.044790848303671006
    w55  w178  0.0645665679795436
    w55  w179  0.08616107661285677
    w55  w180  -0.15979579509065917
    w55  w181  -0.055658437491007684
    w55  w182  0.04515585495978602
    w55  w183  0.08887337879893324
    w55  w184  0.010023084262077707
    w55  w185  -0.07941489964873996
    w55  w186  0.05680869504179359
    w55  w187  -0.014806265747938542
    w55  w188  0.06092171084757975
    w55  w189  -0.15435721988520826
    w55  w190  0.09371753539370738
    w55  w191  0.05990066149137161
    w55  w192  0.17076791581834896
    w55  w193  0.10477179607714439
    w55  w194  -0.017203155011166316
    w55  w195  0.07554572947824076
    w55  w196  0.10640702161496593
    w55  w197  -0.043355341263588476
    w55  w198  -0.012039935660080025
    w55  w199  0.10140336572659535
    w56  w56  0.35675984692897056
    w56  w57  -0.06384962709834609
    w56  w58  -0.07378649767308146
    w56  w59  -0.01088848764071345
    w56  w60  -0.0811996127651326
    w56  w61  -0.12789933912507181
    w56  w62  0.002887858409685794
    w56  w63  0.007542075659999302
    w56  w64  0.031766959526251644
    w56  w65  0.05083105636222248
    w56  w66  0.035130678952758794
    w56  w67  -0.16718356533642434
    w56  w68  0.0019109734047220903
    w56  w69  0.010047419547862
    w56  w70  -0.09442198604028255
    w56  w71  0.0019125372751339388
    w56  w72  -0.07648777003295973
    w56  w73  0.015169393525117291
    w56  w74  -0.007422166502362311
    w56  w75  0.07898213194939956
    w56  w76  -0.048551603513470966
    w56  w77  0.022189598504933718
    w56  w78  -0.032575378932020005
    w56  w79  -0.03738330256824551
    w56  w80  0.006980748922846515
    w56  w81  0.0698018643599065
    w56  w82  -0.05602582412517515
    w56  w83  0.058932390441825175
    w56  w84  0.016638757179263934
    w56  w85  0.009140223237736222
    w56  w86  -0.12162636656702551
    w56  w87  -0.027864613171044602
    w56  w88  -0.04141067336152287
    w56  w89  -0.05749046418290947
    w56  w90  0.03287326444361204
    w56  w91  -0.059646044494529156
    w56  w92  0.0011734597647402867
    w56  w93  0.020712908202345413
    w56  w94  -0.044815184176070305
    w56  w95  -0.1008731565054922
    w56  w96  0.025569377327887687
    w56  w97  -0.13202607179279421
    w56  w98  -0.09300532048995444
    w56  w99  -0.022081882477886772
    w56  w100  -0.034921958805531346
    w56  w101  -0.09632744032459802
    w56  w102  -0.007694837772219063
    w56  w103  0.048416926540812255
    w56  w104  0.043033822269417675
    w56  w105  0.1528835562248854
    w56  w106  -0.08914100755957848
    w56  w107  0.1346880334954646
    w56  w108  -0.036374785474115254
    w56  w109  0.16367960934465967
    w56  w110  0.09818206979941486
    w56  w111  -0.08510542261612108
    w56  w112  -0.01549583969857642
    w56  w113  0.09964631963220916
    w56  w114  -0.02489620347392181
    w56  w115  -0.09633090500476868
    w56  w116  -0.1250152827663874
    w56  w117  -0.03860671667798287
    w56  w118  -0.08663404928608806
    w56  w119  -0.05344786321688422
    w56  w120  -0.08816837760645073
    w56  w121  -0.10401627428846899
    w56  w122  -0.06063245661730589
    w56  w123  -0.002691235508393216
    w56  w124  -0.14985104365724014
    w56  w125  0.021439443721445517
    w56  w126  0.021462033466458134
    w56  w127  -0.021562117612415558
    w56  w128  0.09186658846372775
    w56  w129  0.15414084222817404
    w56  w130  -2.3979629359411708e-05
    w56  w131  0.07262544499087933
    w56  w132  0.06360087872332221
    w56  w133  0.08598425894388054
    w56  w134  -0.046164831263739554
    w56  w135  -0.010324287730303052
    w56  w136  0.011944542992990477
    w56  w137  -0.05587865096930713
    w56  w138  -0.0821055599151781
    w56  w139  0.05939515328241428
    w56  w140  0.07188494877584974
    w56  w141  0.03804460176160478
    w56  w142  -0.11779008062661339
    w56  w143  -0.04222775309916072
    w56  w144  -0.03139605583298173
    w56  w145  -0.06570134384824729
    w56  w146  0.01622212306662948
    w56  w147  -0.03828558657167186
    w56  w148  0.1497032969004748
    w56  w149  0.08235780389410277
    w56  w150  -0.0512879267156756
    w56  w151  0.0312631925547529
    w56  w152  -0.0009379969929901507
    w56  w153  0.17263158572842152
    w56  w154  0.03292831335282978
    w56  w155  -0.03837777338378989
    w56  w156  -0.0018157798559452886
    w56  w157  0.09768798330953635
    w56  w158  0.03380275800451687
    w56  w159  0.13428925913870274
    w56  w160  0.07236330600674128
    w56  w161  -0.006541786220212478
    w56  w162  0.054159740648940184
    w56  w163  0.09572630648521643
    w56  w164  0.03316412903408293
    w56  w165  -0.1772376384895069
    w56  w166  0.05530234808375294
    w56  w167  -0.04937339761881669
    w56  w168  -0.11281832212028177
    w56  w169  0.0023016455172373894
    w56  w170  0.05298533487443696
    w56  w171  0.07941815978621349
    w56  w172  -0.04101805745348429
    w56  w173  -0.047403648749733074
    w56  w174  -0.03878709428055661
    w56  w175  -0.06688736620221407
    w56  w176  0.007830331342853374
    w56  w177  0.013963633341930928
    w56  w178  0.08430151955218222
    w56  w179  0.07488220849930563
    w56  w180  -0.12843636563534355
    w56  w181  0.11646413908007126
    w56  w182  -0.03817966047291325
    w56  w183  0.092702633342144
    w56  w184  0.07678534633129577
    w56  w185  -0.0357775521550991
    w56  w186  0.07480455294525772
    w56  w187  -0.00396421644101882
    w56  w188  0.009639130618766388
    w56  w189  -0.2136833802413168
    w56  w190  -0.13979089346529502
    w56  w191  -0.14641260118026123
    w56  w192  0.0714307216701569
    w56  w193  -0.0328930548944866
    w56  w194  0.07058655621417667
    w56  w195  0.017680194332672185
    w56  w196  0.03256540427739359
    w56  w197  -0.11939439314972156
    w56  w198  0.01830387675896118
    w56  w199  0.0009072611479988374
    w57  w57  0.11512406152032657
    w57  w58  0.08016490323359397
    w57  w59  0.01306550782305748
    w57  w60  -0.02156219129842888
    w57  w61  -0.022558923964554927
    w57  w62  0.026515521911617303
    w57  w63  -0.00914198981383796
    w57  w64  -0.03042348570014951
    w57  w65  -0.008094438548334216
    w57  w66  -0.0434553738210815
    w57  w67  0.04322929944786774
    w57  w68  -0.01626413386166322
    w57  w69  0.0326964538319322
    w57  w70  0.029193426708239028
    w57  w71  -0.04149148317379607
    w57  w72  0.04913233427247625
    w57  w73  0.03163222545076138
    w57  w74  0.062166629999387484
    w57  w75  -0.08380613438613961
    w57  w76  0.015081015475147112
    w57  w77  0.008648453495390906
    w57  w78  0.0013854037065880725
    w57  w79  -0.018786780255311587
    w57  w80  0.052051911507729275
    w57  w81  -0.008589062979363123
    w57  w82  0.023718425292451207
    w57  w83  0.006647996161569788
    w57  w84  -0.09334536384699875
    w57  w85  -0.01486728229699487
    w57  w86  0.009493317093043964
    w57  w87  -0.022455335665480372
    w57  w88  0.017922899451365087
    w57  w89  0.06152799362719918
    w57  w90  -0.03714999930127169
    w57  w91  0.052862846596683624
    w57  w92  -0.028956965175224017
    w57  w93  0.0060480551215040266
    w57  w94  0.006975913118007121
    w57  w95  0.03732496488827071
    w57  w96  -0.016624173842286986
    w57  w97  0.026504451299602407
    w57  w98  -0.021594677252914318
    w57  w99  0.019861779457084144
    w57  w100  0.04420321247241294
    w57  w101  0.013449879574024734
    w57  w102  -0.006681074303566463
    w57  w103  -0.07833618301934683
    w57  w104  -0.01416502677413049
    w57  w105  -0.03392230965486301
    w57  w106  0.009068846185464646
    w57  w107  0.04134715919994924
    w57  w108  0.048192828434261384
    w57  w109  -0.012783580150407455
    w57  w110  0.01188164680472277
    w57  w111  0.054372259730478385
    w57  w112  -0.030047314854319385
    w57  w113  0.005471801215336867
    w57  w114  -0.006000824517832916
    w57  w115  -0.011318880448263697
    w57  w116  0.0065530017497030125
    w57  w117  0.057312008062153544
    w57  w118  0.09685230120044613
    w57  w119  0.018899238338035206
    w57  w120  0.055922358835902936
    w57  w121  -0.006296211833794336
    w57  w122  -0.018501066390148327
    w57  w123  0.05917845038249787
    w57  w124  0.027849436936519895
    w57  w125  -0.01592013993365863
    w57  w126  0.0372634661081609
    w57  w127  0.057115931461341994
    w57  w128  -0.047730853306066835
    w57  w129  -0.04929324208622349
    w57  w130  0.013646537274123308
    w57  w131  -0.01585809462665093
    w57  w132  -0.016416029778364035
    w57  w133  0.01391862174296264
    w57  w134  0.01716686633108103
    w57  w135  0.007694120803881954
    w57  w136  -0.04554098523604586
    w57  w137  0.01607644615418911
    w57  w138  0.013441524179568074
    w57  w139  0.004032128672662717
    w57  w140  0.05537623175265843
    w57  w141  0.037645394957731435
    w57  w142  0.015660752372426277
    w57  w143  0.02169385788037191
    w57  w144  -0.013107385124357681
    w57  w145  -0.0032449944198477397
    w57  w146  -0.05888183342153287
    w57  w147  0.02035316888614568
    w57  w148  -0.07064567351730397
    w57  w149  0.0009428894583623801
    w57  w150  -0.03613483199294435
    w57  w151  0.019517219333379795
    w57  w152  -0.010481048820566045
    w57  w153  -0.09453069360691711
    w57  w154  -0.04437870896313903
    w57  w155  0.001948184488085924
    w57  w156  0.04252669567031283
    w57  w157  -0.039357782314726614
    w57  w158  0.03958112284324905
    w57  w159  -0.01207619237960393
    w57  w160  -0.09332749278906192
    w57  w161  0.035797233055747606
    w57  w162  -0.024212624157143172
    w57  w163  -0.02033892784506078
    w57  w164  0.05908761697189699
    w57  w165  0.05752142681201334
    w57  w166  0.022294236427169947
    w57  w167  0.04520855810725459
    w57  w168  -0.004570761108700796
    w57  w169  0.010328719175287833
    w57  w170  0.015587361002410208
    w57  w171  -0.032065760544854424
    w57  w172  0.0006735244603566285
    w57  w173  -0.009297980724467457
    w57  w174  0.006362537105731508
    w57  w175  -0.027079151049103325
    w57  w176  0.03415703145258429
    w57  w177  0.013343635078796979
    w57  w178  -0.03607328970252458
    w57  w179  0.0419956966369643
    w57  w180  0.07639207464921263
    w57  w181  -0.08191811076214814
    w57  w182  0.0012622952034647562
    w57  w183  -0.007192741601767922
    w57  w184  0.02426943322311599
    w57  w185  0.013385771756846184
    w57  w186  -0.03778584429935887
    w57  w187  0.00607811945184128
    w57  w188  -0.0012469813612441148
    w57  w189  0.04015393329346264
    w57  w190  0.1037767940801532
    w57  w191  0.07463494274075438
    w57  w192  -0.04789882452963877
    w57  w193  0.014906700470498921
    w57  w194  -0.04855237691722102
    w57  w195  -0.0319626619935227
    w57  w196  -0.06345721554993895
    w57  w197  0.013397491750505794
    w57  w198  0.04143975202584923
    w57  w199  -0.03513783995574772
    w58  w58  0.21760819603524229
    w58  w59  0.023050454566168565
    w58  w60  -0.015032643822680741
    w58  w61  0.015213881231719649
    w58  w62  0.05501207732962189
    w58  w63  -0.02587025689862546
    w58  w64  -0.004480977576793899
    w58  w65  0.010053828850648249
    w58  w66  -0.07212835157305202
    w58  w67  0.10301989439466047
    w58  w68  -0.00925990359951869
    w58  w69  0.05012066205686022
    w58  w70  0.033098290031942534
    w58  w71  -0.043285637611581114
    w58  w72  0.04265598283279795
    w58  w73  0.02211747394938617
    w58  w74  0.08538523913042775
    w58  w75  -0.1127072083000368
    w58  w76  0.03873577028323942
    w58  w77  0.01606837198937598
    w58  w78  0.026401179093584127
    w58  w79  -0.03535067691963575
    w58  w80  0.1008831239036581
    w58  w81  -0.016919913850838825
    w58  w82  -0.019540591224708307
    w58  w83  0.04153916864824913
    w58  w84  -0.08835570541096747
    w58  w85  0.00962048200358401
    w58  w86  0.030561319082212636
    w58  w87  -0.017503422450195722
    w58  w88  -0.03692278772688799
    w58  w89  0.0955813571345532
    w58  w90  -0.03952180574560078
    w58  w91  0.06725543180174623
    w58  w92  -0.024542356199164086
    w58  w93  -0.01342189349736812
    w58  w94  -0.04125723948953394
    w58  w95  0.01617544736251523
    w58  w96  0.008544383010142936
    w58  w97  0.02520638300867647
    w58  w98  0.00010797505189546665
    w58  w99  0.050222670402207986
    w58  w100  0.02876576517539983
    w58  w101  -0.004680644988885724
    w58  w102  -0.03384003469861469
    w58  w103  -0.08352725116376603
    w58  w104  -0.036974891069263084
    w58  w105  -0.06569452043428194
    w58  w106  -0.010526583542087261
    w58  w107  0.017023509832960425
    w58  w108  0.036683997197888486
    w58  w109  -0.024331388219083008
    w58  w110  0.015245052589210892
    w58  w111  0.0664347813529569
    w58  w112  -0.016417595217892874
    w58  w113  0.012569291812693017
    w58  w114  0.008690624310290274
    w58  w115  0.0008882220819351924
    w58  w116  -0.0008344826251223024
    w58  w117  0.09412725838496379
    w58  w118  0.08918840077932065
    w58  w119  0.030521517345031283
    w58  w120  0.08715092604743974
    w58  w121  -0.012291770725665422
    w58  w122  -0.02605476478356846
    w58  w123  0.11145923597873762
    w58  w124  0.015009030548113238
    w58  w125  -0.025203832790549545
    w58  w126  0.061294267884731427
    w58  w127  0.07364270161928123
    w58  w128  -0.024104679547156477
    w58  w129  -0.01546963582331666
    w58  w130  -0.04766554032283102
    w58  w131  -0.032770622617029115
    w58  w132  -0.015072838516852264
    w58  w133  0.015377280155145029
    w58  w134  0.02587540491336727
    w58  w135  0.02466922742429036
    w58  w136  -0.05389263041558851
    w58  w137  0.03502017960566486
    w58  w138  -0.025862902981165503
    w58  w139  0.009267225598988684
    w58  w140  0.05477318742865304
    w58  w141  0.0343397525600645
    w58  w142  0.08038724107266003
    w58  w143  0.07968659348420086
    w58  w144  0.024796861281947063
    w58  w145  -0.011262013942461561
    w58  w146  -0.05054678363883252
    w58  w147  0.018969282818507124
    w58  w148  -0.10585249145516827
    w58  w149  -0.048243092027239066
    w58  w150  -0.06975673257656585
    w58  w151  -0.004063225783609771
    w58  w152  0.001273852092888572
    w58  w153  -0.11981487996579096
    w58  w154  -0.04145212073488548
    w58  w155  0.031563031629132064
    w58  w156  0.055674079547237985
    w58  w157  -0.04458363633497483
    w58  w158  0.04218373123472168
    w58  w159  -0.012087492045780454
    w58  w160  -0.09929849392002588
    w58  w161  0.022960031524604803
    w58  w162  -0.04007895604362952
    w58  w163  0.039268900499771754
    w58  w164  0.08567442036594099
    w58  w165  0.07307865357231251
    w58  w166  0.020163082916653297
    w58  w167  0.09779031824210489
    w58  w168  -0.05660699778177455
    w58  w169  0.029597602189345602
    w58  w170  0.015089415720146227
    w58  w171  -0.07349429005511414
    w58  w172  0.002267709855663723
    w58  w173  -0.013212344995649139
    w58  w174  0.05600500815098838
    w58  w175  -0.0005374117874353961
    w58  w176  0.016784532386314163
    w58  w177  0.0022355622585530834
    w58  w178  -0.06509979730306718
    w58  w179  0.1060870347871147
    w58  w180  0.08714355518311144
    w58  w181  -0.07670781062448591
    w58  w182  -0.03550564567892798
    w58  w183  -0.019576188098392615
    w58  w184  0.06318689415387521
    w58  w185  0.044436037037091355
    w58  w186  -0.026030034849082315
    w58  w187  -0.042977481846775745
    w58  w188  -0.013473476771494745
    w58  w189  0.030806190045960392
    w58  w190  0.0995858288267607
    w58  w191  0.0659076887056931
    w58  w192  -0.033599041863681595
    w58  w193  0.04315069038410917
    w58  w194  -0.03382481628405013
    w58  w195  -0.01734056090954624
    w58  w196  -0.07670643161433066
    w58  w197  -0.003864246741309697
    w58  w198  0.09596676546259773
    w58  w199  -0.04072195646615823
    w59  w59  0.22388571446627986
    w59  w60  0.04594930439361816
    w59  w61  -0.009420110549327398
    w59  w62  0.07755751165916662
    w59  w63  0.03530039949846734
    w59  w64  0.02742908608854326
    w59  w65  0.027510607262798567
    w59  w66  -0.029183202138695623
    w59  w67  0.09659036022029342
    w59  w68  -0.1327309921573985
    w59  w69  0.08564535143497959
    w59  w70  -0.07700222649224625
    w59  w71  -0.008212129368832297
    w59  w72  -0.031075587676172176
    w59  w73  0.10466745250552244
    w59  w74  0.026544210262334157
    w59  w75  0.040989666597573644
    w59  w76  -0.13304641079331161
    w59  w77  -0.012075674542715617
    w59  w78  0.008270336584060217
    w59  w79  0.05922824215409955
    w59  w80  0.06118521097385107
    w59  w81  -0.09663252510297281
    w59  w82  0.03544287305417878
    w59  w83  -0.055656505480707406
    w59  w84  0.06091176119565251
    w59  w85  -0.001953370451079937
    w59  w86  -0.10106319170699316
    w59  w87  0.03769195442405964
    w59  w88  -0.025524197185716583
    w59  w89  -0.007518634297791643
    w59  w90  -0.1801773029267037
    w59  w91  0.011731335743464943
    w59  w92  -0.001201914414835247
    w59  w93  -0.0023562795590011316
    w59  w94  -0.04091247313752261
    w59  w95  -0.06252971398114764
    w59  w96  -0.042533834349937356
    w59  w97  0.09437415626986684
    w59  w98  0.01521493467366792
    w59  w99  0.0061887545046478455
    w59  w100  -0.03813228597841125
    w59  w101  -0.01040852799064342
    w59  w102  -0.07552239881919777
    w59  w103  -0.13954463135568096
    w59  w104  0.13386966584470122
    w59  w105  -0.056751534898955604
    w59  w106  -0.013835792368434213
    w59  w107  -0.0016176041364136644
    w59  w108  0.09444622606667995
    w59  w109  -0.11314181178719655
    w59  w110  0.005417241054621289
    w59  w111  0.08176661635556942
    w59  w112  -0.00031542456144815074
    w59  w113  -0.09033283890550185
    w59  w114  -0.016408524964593038
    w59  w115  -0.01646787678458841
    w59  w116  -0.02834922959751817
    w59  w117  0.028607787112123886
    w59  w118  -0.02939682229161484
    w59  w119  -4.415577690155973e-05
    w59  w120  -0.03348183133792753
    w59  w121  -0.048353102575110773
    w59  w122  0.13010819765911263
    w59  w123  0.059470066568860225
    w59  w124  -0.01865019131725407
    w59  w125  -0.003307223055551873
    w59  w126  0.059017543294908915
    w59  w127  0.06328516370158616
    w59  w128  0.012899946841316142
    w59  w129  0.01019512542494852
    w59  w130  -0.08869405831797611
    w59  w131  -0.0035417369380008217
    w59  w132  -0.06883967354503064
    w59  w133  0.030728039276711566
    w59  w134  -0.14434428066650554
    w59  w135  -0.015846069185550336
    w59  w136  0.01551664829329984
    w59  w137  0.13791267840431137
    w59  w138  0.022033037586409208
    w59  w139  -0.09270856474316573
    w59  w140  -0.029602173229161383
    w59  w141  0.006685082955439525
    w59  w142  0.11992239382135278
    w59  w143  -0.06351639038204648
    w59  w144  -0.07977388226158934
    w59  w145  -0.03994371802069551
    w59  w146  0.009574382160541423
    w59  w147  0.08429176035471479
    w59  w148  0.04280241404621186
    w59  w149  0.05514415241252517
    w59  w150  0.0376185314451205
    w59  w151  -0.05973976073274795
    w59  w152  0.08557387245728044
    w59  w153  -0.07351440410655993
    w59  w154  0.021106156869748205
    w59  w155  0.1080734633178847
    w59  w156  0.00809829847514489
    w59  w157  -0.012158489084653383
    w59  w158  0.07637635500129827
    w59  w159  -0.0002115772909320865
    w59  w160  -0.03837230105106989
    w59  w161  -0.06547570832027559
    w59  w162  0.01761220152680691
    w59  w163  0.03386626000418436
    w59  w164  0.02665268466660052
    w59  w165  0.019798086757198
    w59  w166  -0.11706160207564663
    w59  w167  -0.0502375644024127
    w59  w168  -0.0474209865469082
    w59  w169  0.053750872725509984
    w59  w170  -0.01211521907481437
    w59  w171  -0.00504112612271131
    w59  w172  0.06310172181328677
    w59  w173  -0.06672479699089583
    w59  w174  0.08015903584801184
    w59  w175  -0.009189950323415576
    w59  w176  -0.02150598765947735
    w59  w177  -0.06573115043746293
    w59  w178  -0.045537571840679976
    w59  w179  0.07830932664279822
    w59  w180  0.0692333907812819
    w59  w181  -0.0028259234956111304
    w59  w182  0.022897802208582785
    w59  w183  -0.010228962280270348
    w59  w184  0.03661941599829765
    w59  w185  0.03983922281635594
    w59  w186  -0.1442342758681675
    w59  w187  0.04385816429741585
    w59  w188  -0.03205905926849953
    w59  w189  0.007021136977663429
    w59  w190  0.06965701932893618
    w59  w191  0.024500057080018983
    w59  w192  0.010516549113941174
    w59  w193  -0.06945685855658319
    w59  w194  -0.05830256269851619
    w59  w195  -0.02586462527915782
    w59  w196  -0.01757403613302168
    w59  w197  -0.046563286849016464
    w59  w198  0.0055668525783961215
    w59  w199  0.12728947786988457
    w60  w60  0.2646839811063083
    w60  w61  0.03039771842552204
    w60  w62  -0.011316237872741655
    w60  w63  0.017589447716215838
    w60  w64  -0.01993493094598912
    w60  w65  0.0019405369701965016
    w60  w66  -0.0725986968395766
    w60  w67  0.05399594874646832
    w60  w68  -0.03853852670278966
    w60  w69  0.07704178452662182
    w60  w70  0.007581494125608821
    w60  w71  0.049429569205769554
    w60  w72  -0.026714592452513303
    w60  w73  0.01460757883510608
    w60  w74  0.011796532704358393
    w60  w75  0.03212306550394839
    w60  w76  0.03580570968941075
    w60  w77  -0.04353759206838116
    w60  w78  0.07172398101910078
    w60  w79  -0.020432980330326825
    w60  w80  0.027200714685424027
    w60  w81  -0.0385202839092134
    w60  w82  0.05395509360944301
    w60  w83  0.01746748506758449
    w60  w84  0.08838142378586616
    w60  w85  0.08536206548890914
    w60  w86  0.01101509360283674
    w60  w87  -0.008454898485922534
    w60  w88  0.05341971299985084
    w60  w89  0.00684697043034248
    w60  w90  -0.05156407283017467
    w60  w91  0.037210336000224095
    w60  w92  0.07938887251120658
    w60  w93  0.05017920741438147
    w60  w94  0.044233835670990644
    w60  w95  -0.012818115010687723
    w60  w96  0.06315833342435692
    w60  w97  0.09148209996947666
    w60  w98  0.07401085918721347
    w60  w99  0.027503153794105423
    w60  w100  0.07916012326409666
    w60  w101  0.06581734112678066
    w60  w102  -0.09438217283342346
    w60  w103  0.051536228850216796
    w60  w104  0.06723655240994834
    w60  w105  -0.18237951083315512
    w60  w106  0.011525956586911981
    w60  w107  -0.1373069545746388
    w60  w108  0.14861560432753657
    w60  w109  -0.03942710498597858
    w60  w110  -0.07153283841063093
    w60  w111  -0.028363029083701894
    w60  w112  0.11590231353843237
    w60  w113  -0.1053970304408154
    w60  w114  0.0752100546034084
    w60  w115  0.07134867084540895
    w60  w116  0.041921723104089974
    w60  w117  -0.029513985640317087
    w60  w118  0.0598641871281766
    w60  w119  0.03914935809038675
    w60  w120  0.014281571848646559
    w60  w121  -0.027414568646650723
    w60  w122  0.11912889082636087
    w60  w123  0.01782400581248228
    w60  w124  0.04856958517217504
    w60  w125  -0.02704601673823198
    w60  w126  0.00894573391558606
    w60  w127  0.05782940370640817
    w60  w128  -0.0275982447213102
    w60  w129  -0.07424948519212203
    w60  w130  -0.06456763751116248
    w60  w131  0.08662071705128019
    w60  w132  0.005106900396178909
    w60  w133  -0.06286044880766338
    w60  w134  0.03200605606557718
    w60  w135  0.0641565025848625
    w60  w136  0.06346460616468937
    w60  w137  0.025439815336372948
    w60  w138  -0.013657103735371436
    w60  w139  -0.0500817503631944
    w60  w140  -0.03794278790445153
    w60  w141  -0.01863236720307351
    w60  w142  0.16135598995684486
    w60  w143  -0.11757353424786829
    w60  w144  -0.03971639997588662
    w60  w145  0.038327977988446005
    w60  w146  0.015635019136065118
    w60  w147  0.07493723146142617
    w60  w148  -0.05692378756780514
    w60  w149  -0.11008096733435409
    w60  w150  0.08766713928141454
    w60  w151  -0.0970000634791703
    w60  w152  0.08249076346219862
    w60  w153  -0.16867622214848457
    w60  w154  0.05178320741965456
    w60  w155  0.05448913824430212
    w60  w156  0.04007892698606007
    w60  w157  0.042519950639424424
    w60  w158  -0.003654938575542341
    w60  w159  -0.08828705041114178
    w60  w160  -0.011321405101496264
    w60  w161  -0.024742922370512663
    w60  w162  0.051316161503497985
    w60  w163  -0.05533928810446993
    w60  w164  -0.001133503259589589
    w60  w165  -0.017663477312446156
    w60  w166  -0.03738469628703903
    w60  w167  -0.018968241172046096
    w60  w168  -0.030640926493631253
    w60  w169  0.0748608843040105
    w60  w170  -0.1591986753146003
    w60  w171  -0.00866791123833865
    w60  w172  0.09353122165366078
    w60  w173  0.05869604760112582
    w60  w174  0.032758013947401084
    w60  w175  0.03097052332440436
    w60  w176  -0.08542451309491025
    w60  w177  -0.1042483706027726
    w60  w178  -0.07339650514902032
    w60  w179  -0.10600630660302446
    w60  w180  0.04725624988939035
    w60  w181  0.017994807057799312
    w60  w182  -0.04117765917146973
    w60  w183  -0.07091665584858566
    w60  w184  -0.07334651392357794
    w60  w185  0.026211434517648638
    w60  w186  -0.03423716913696859
    w60  w187  0.03156164027702698
    w60  w188  0.02044248840190103
    w60  w189  0.04379087726635612
    w60  w190  -0.0164406543704183
    w60  w191  -0.0111984720000831
    w60  w192  0.0876311347267364
    w60  w193  -0.06597137273267067
    w60  w194  -0.01598821035913028
    w60  w195  0.04989279917694165
    w60  w196  -0.10180794526443543
    w60  w197  -0.0011541078738066819
    w60  w198  -0.05523641846228206
    w60  w199  -0.0026583813389843567
    w61  w61  0.26529554157841545
    w61  w62  -0.001257365575621427
    w61  w63  -0.007157090503261662
    w61  w64  0.08319584783165596
    w61  w65  -0.019736186889055773
    w61  w66  0.014369426013994583
    w61  w67  0.17703621685473853
    w61  w68  0.04253733613421293
    w61  w69  -0.07254626154675048
    w61  w70  0.07195189114519662
    w61  w71  0.04695318102685892
    w61  w72  0.03317726033041164
    w61  w73  -0.038875804087258485
    w61  w74  -0.12245242787539581
    w61  w75  -0.031333723341864954
    w61  w76  0.08522430452314682
    w61  w77  0.03867408531887476
    w61  w78  0.05205690221034032
    w61  w79  0.043650670886954734
    w61  w80  -0.019749467383346306
    w61  w81  -0.07137775450680067
    w61  w82  -0.02316833157927129
    w61  w83  -0.050933780057501675
    w61  w84  0.14495248752314635
    w61  w85  0.0598864143900168
    w61  w86  0.1800760341999376
    w61  w87  0.006572313576881965
    w61  w88  -0.10655748124270856
    w61  w89  0.07784316936001429
    w61  w90  -0.03354980920731523
    w61  w91  0.019501471012403473
    w61  w92  0.025277409934882446
    w61  w93  -0.0638021614774449
    w61  w94  -0.050621911202740885
    w61  w95  0.05123755472240999
    w61  w96  0.03272567849997623
    w61  w97  0.06423515522331166
    w61  w98  0.09919684839678386
    w61  w99  -0.018321985370758274
    w61  w100  -0.11066742626864778
    w61  w101  0.010338350959259624
    w61  w102  0.010632200093485089
    w61  w103  0.04096750760801559
    w61  w104  -0.1011358334560142
    w61  w105  -0.014916619835166033
    w61  w106  0.08021413282722863
    w61  w107  -0.19193039071698134
    w61  w108  -0.07400496498099536
    w61  w109  -0.1795367993510496
    w61  w110  -0.07049573210121135
    w61  w111  0.007867378985415792
    w61  w112  0.021400353294836586
    w61  w113  -0.08716691428964843
    w61  w114  0.057506158995321924
    w61  w115  0.09698132717754324
    w61  w116  0.06806019164644848
    w61  w117  0.002271001391029691
    w61  w118  -0.061650334811734965
    w61  w119  0.051663106969507384
    w61  w120  0.12229629748075461
    w61  w121  0.044517541873066946
    w61  w122  0.06802465494016083
    w61  w123  -0.01274380178765927
    w61  w124  0.09875455792229919
    w61  w125  0.030805037459744066
    w61  w126  -0.011760347841793944
    w61  w127  -0.0675962018174218
    w61  w128  0.03077347025621981
    w61  w129  0.038196649096582415
    w61  w130  -0.07763392908370285
    w61  w131  -0.07184544370112715
    w61  w132  -0.0073131667081146896
    w61  w133  -0.029869408944678058
    w61  w134  0.03892730056517129
    w61  w135  -0.03170361524495518
    w61  w136  -0.05364775042169729
    w61  w137  0.0421346722038298
    w61  w138  0.019119378630104787
    w61  w139  -0.019900432717348707
    w61  w140  -0.11284081220521139
    w61  w141  -0.08863108046210351
    w61  w142  0.12139066569064041
    w61  w143  0.12467464909182281
    w61  w144  0.15734994079947204
    w61  w145  0.026123576186785326
    w61  w146  0.10764795149366892
    w61  w147  -0.018949348175131428
    w61  w148  -0.09917691119208631
    w61  w149  -0.10328654872939055
    w61  w150  0.015503865851586541
    w61  w151  -0.004436322819384907
    w61  w152  0.013664224857717063
    w61  w153  -0.04750272551898852
    w61  w154  0.07166249095810888
    w61  w155  0.08683464906429897
    w61  w156  -0.05449911053576032
    w61  w157  -0.03546911812929934
    w61  w158  -0.062405646604721206
    w61  w159  -0.10544548438425752
    w61  w160  -0.009344453554316956
    w61  w161  0.028144314483728537
    w61  w162  0.029640402028139893
    w61  w163  0.024626983515847335
    w61  w164  -0.09212622755491387
    w61  w165  0.08166848065561616
    w61  w166  -0.08642031363011099
    w61  w167  0.07839118240458597
    w61  w168  0.07947965512377246
    w61  w169  -0.08628300438736419
    w61  w170  -0.015255816705054704
    w61  w171  -0.1403337015648553
    w61  w172  -0.027200910367941686
    w61  w173  0.04458539834912682
    w61  w174  0.06672347601662111
    w61  w175  0.13165481194823447
    w61  w176  -0.04394953501413923
    w61  w177  0.048820102877202794
    w61  w178  -0.029105299247928873
    w61  w179  0.02713461394257832
    w61  w180  0.0323056694818699
    w61  w181  0.034978260935202274
    w61  w182  -0.04940455656862289
    w61  w183  -0.11218734122680663
    w61  w184  0.0033110900048118497
    w61  w185  0.05030635707678606
    w61  w186  -0.04045473962819869
    w61  w187  -0.062088426936991174
    w61  w188  -0.006281923480651863
    w61  w189  0.0920562985798872
    w61  w190  -0.011181214213551538
    w61  w191  -0.01707299451607587
    w61  w192  -0.012763550566755856
    w61  w193  -0.010213239627042348
    w61  w194  0.033882482816471424
    w61  w195  0.07080613026202462
    w61  w196  0.04717795119147093
    w61  w197  0.05279703732564653
    w61  w198  0.0393556902523339
    w61  w199  0.0029129923001663016
    w62  w62  0.17424597481110662
    w62  w63  -0.009306470369141867
    w62  w64  0.0548779196635838
    w62  w65  0.03871049414307408
    w62  w66  -0.05052818621747136
    w62  w67  0.0972313675985322
    w62  w68  -0.05582663862704601
    w62  w69  0.07456070033803097
    w62  w70  0.0006879357562328079
    w62  w71  -0.006405425462495321
    w62  w72  0.01672821674850301
    w62  w73  0.003664693352683043
    w62  w74  0.032306994705339175
    w62  w75  0.00902581169485106
    w62  w76  -0.0903528912362491
    w62  w77  -0.007412914560575164
    w62  w78  0.009921485308908325
    w62  w79  0.04790387684007411
    w62  w80  0.05845280932362017
    w62  w81  -0.017279433941662682
    w62  w82  0.024714467014501633
    w62  w83  0.022397283276201135
    w62  w84  0.02816474153366729
    w62  w85  0.04876262820643947
    w62  w86  -0.019280471920201384
    w62  w87  0.05123048354610867
    w62  w88  -0.07553278745673365
    w62  w89  -0.0015352261474161487
    w62  w90  -0.10302523624153623
    w62  w91  -0.03859154870163523
    w62  w92  -0.021697008104987474
    w62  w93  -0.01111446657887688
    w62  w94  -0.054970138860913335
    w62  w95  -0.09690748799775963
    w62  w96  -0.01977656135678917
    w62  w97  -0.00714576923673012
    w62  w98  -0.007672776895508722
    w62  w99  0.010828868198771683
    w62  w100  -0.025534749504322957
    w62  w101  -0.03241092649478764
    w62  w102  -0.059682722192160684
    w62  w103  -0.17192055241130894
    w62  w104  0.09108389399124867
    w62  w105  -0.053998271304068736
    w62  w106  -0.023383999624600665
    w62  w107  0.06009435930963876
    w62  w108  0.022849070523924302
    w62  w109  -0.03415612820774322
    w62  w110  -0.014649349113102127
    w62  w111  0.027626294500404453
    w62  w112  0.055635129987158666
    w62  w113  0.0032197565353148305
    w62  w114  -0.06046145050451865
    w62  w115  0.04350019187112117
    w62  w116  -0.0097012653899722
    w62  w117  -0.0034211172038966127
    w62  w118  0.010715339491522693
    w62  w119  0.0033370818654190667
    w62  w120  -0.03205112971382996
    w62  w121  -0.052348662029309746
    w62  w122  0.010768028471282266
    w62  w123  0.11078436722359893
    w62  w124  -0.05583816385307472
    w62  w125  -0.015966210996417794
    w62  w126  0.0358492725693496
    w62  w127  0.013418694784717737
    w62  w128  0.021423346934439307
    w62  w129  0.03143123047269832
    w62  w130  -0.07260316734483696
    w62  w131  -0.06650646657948865
    w62  w132  0.00515484739781962
    w62  w133  0.08969893856368011
    w62  w134  -0.05395137643202503
    w62  w135  -0.012152525543467583
    w62  w136  -0.0065859688480852645
    w62  w137  0.014860078902990102
    w62  w138  -0.03700719817998749
    w62  w139  -0.10400378882177826
    w62  w140  0.00884751608938833
    w62  w141  0.0959577911942555
    w62  w142  0.007186723952136747
    w62  w143  0.10575337511514764
    w62  w144  0.04668899849139202
    w62  w145  0.007880467015284184
    w62  w146  0.03794856515951304
    w62  w147  0.02953829026065404
    w62  w148  -0.035763454785803526
    w62  w149  -0.060310941119222236
    w62  w150  -0.056306203072292754
    w62  w151  -0.013624093013363826
    w62  w152  0.013693489236527629
    w62  w153  -0.03142802500628028
    w62  w154  -0.09073069747077506
    w62  w155  0.13218304058911562
    w62  w156  0.04442589059591907
    w62  w157  0.008223475852035127
    w62  w158  0.01917909726892803
    w62  w159  -0.04158907662634592
    w62  w160  -0.028043008091672796
    w62  w161  -0.07436226241998388
    w62  w162  -0.09761237795963848
    w62  w163  0.06263400490583697
    w62  w164  0.021092248042948927
    w62  w165  0.07193281770242421
    w62  w166  0.0197223407161427
    w62  w167  0.049236676346743266
    w62  w168  -0.09591151528799322
    w62  w169  -0.023545203259818986
    w62  w170  0.010289836826006763
    w62  w171  0.030470333736646874
    w62  w172  0.04885632724358883
    w62  w173  -0.011638599586149106
    w62  w174  0.07067635337181398
    w62  w175  -0.03330122706946171
    w62  w176  -0.01911343831840593
    w62  w177  -0.02668255127138364
    w62  w178  -0.06583095643845482
    w62  w179  0.10236520442499503
    w62  w180  0.07276572415259007
    w62  w181  0.011988800929979688
    w62  w182  0.0013859177956580006
    w62  w183  0.001840124423646415
    w62  w184  0.06470442934352534
    w62  w185  0.06024346591385852
    w62  w186  -0.014113630089875423
    w62  w187  -0.027967044345150044
    w62  w188  -0.08849315382564325
    w62  w189  0.045135077951981836
    w62  w190  0.017186295826402874
    w62  w191  -0.040673891603216696
    w62  w192  -0.0017436908599240074
    w62  w193  0.008548271606222811
    w62  w194  0.031701647777855425
    w62  w195  -0.08398824278232624
    w62  w196  -0.028751184434241645
    w62  w197  -0.0260715624473477
    w62  w198  0.07368406063356815
    w62  w199  0.001662709240520556
    w63  w63  0.07420349514404095
    w63  w64  -0.02096621274244341
    w63  w65  -0.014371844563590731
    w63  w66  0.012678905271485484
    w63  w67  -0.002585618900850789
    w63  w68  -0.03826358606768146
    w63  w69  -0.012111748421096072
    w63  w70  -0.026575280718899596
    w63  w71  -0.012860769425693287
    w63  w72  -0.015934538710861375
    w63  w73  0.04323416602816471
    w63  w74  -0.024194307196553477
    w63  w75  0.03924180571858973
    w63  w76  -0.022426605674303175
    w63  w77  -0.008112877682511226
    w63  w78  -0.0020970002895009747
    w63  w79  0.014396928068072088
    w63  w80  0.009150678900949376
    w63  w81  -0.02604196732200069
    w63  w82  0.02392654805421582
    w63  w83  -0.037298424091049845
    w63  w84  0.03591757420598169
    w63  w85  0.00695552348528365
    w63  w86  -0.03125076786708396
    w63  w87  -0.004842225762016078
    w63  w88  0.012163275331929697
    w63  w89  -0.010319638265581585
    w63  w90  -0.05342614345036311
    w63  w91  -0.0009169676779418164
    w63  w92  0.0025305673704105846
    w63  w93  0.014164902628460907
    w63  w94  0.0210608444259735
    w63  w95  0.010898095757645608
    w63  w96  -0.027745714525803343
    w63  w97  0.0437739728626441
    w63  w98  -0.010103520307867852
    w63  w99  -0.018978522466153065
    w63  w100  -0.020366337548285825
    w63  w101  0.00664565512241563
    w63  w102  -0.007254044979650072
    w63  w103  -0.01484696498060035
    w63  w104  0.04116845117747711
    w63  w105  0.015654143028793047
    w63  w106  0.013574111613699999
    w63  w107  -0.007110913725022843
    w63  w108  0.04212222073953245
    w63  w109  -0.01888073245137182
    w63  w110  0.003259074916485956
    w63  w111  -0.0034578994539749
    w63  w112  -0.012520739457683411
    w63  w113  -0.053463538305683664
    w63  w114  0.007629973133945037
    w63  w115  -0.0069577556952122865
    w63  w116  0.003030503816637414
    w63  w117  -0.021042667736806825
    w63  w118  -0.008883302524578746
    w63  w119  -0.015635348551445553
    w63  w120  -0.00835979845622869
    w63  w121  -0.01648942751460808
    w63  w122  0.05005529610847071
    w63  w123  -0.027792395066823197
    w63  w124  0.03312635654832366
    w63  w125  -0.007192305227346649
    w63  w126  -0.010319847873676173
    w63  w127  0.010358801447567094
    w63  w128  -0.003926080838336478
    w63  w129  -0.008551631703944651
    w63  w130  0.022782626777782696
    w63  w131  0.031978887220941346
    w63  w132  -0.0018195963566324622
    w63  w133  0.008362119720476048
    w63  w134  -0.002862646380092084
    w63  w135  -0.009379415036915391
    w63  w136  -0.014066858827668885
    w63  w137  0.017768431295020974
    w63  w138  0.040462216933043055
    w63  w139  -0.03207852800901101
    w63  w140  -0.006149592894631216
    w63  w141  -0.009235279299594704
    w63  w142  -0.008492277310332134
    w63  w143  -0.05538287430386309
    w63  w144  -0.033106023053915204
    w63  w145  -0.000908602808795245
    w63  w146  0.010996095388112553
    w63  w147  0.025821687418787424
    w63  w148  0.041261127662356824
    w63  w149  0.029790908773786956
    w63  w150  0.02907838984767437
    w63  w151  -0.002448437372477015
    w63  w152  0.02290099579629579
    w63  w153  0.007218590767508172
    w63  w154  0.02952517511032708
    w63  w155  0.01741570923432299
    w63  w156  -0.004245993544238895
    w63  w157  -0.003079128338443537
    w63  w158  0.010873192474057573
    w63  w159  -0.03118066921750885
    w63  w160  -0.015967196415836084
    w63  w161  0.028539767844541156
    w63  w162  0.05575099172810216
    w63  w163  -0.026361365419494055
    w63  w164  -0.030925064750304956
    w63  w165  -0.013215169806128198
    w63  w166  -0.03132421392050591
    w63  w167  -0.045479198220725006
    w63  w168  0.03516050324627381
    w63  w169  -0.04159506895197151
    w63  w170  -0.03556857458312009
    w63  w171  0.018279048205502347
    w63  w172  0.015682095712350314
    w63  w173  0.012431700584671085
    w63  w174  -0.004385584401427103
    w63  w175  -0.006168242011257971
    w63  w176  0.014756746235708548
    w63  w177  -0.006054512971584215
    w63  w178  -0.008962957658713442
    w63  w179  -0.01358631041913486
    w63  w180  0.009856813836888302
    w63  w181  0.041845903519591374
    w63  w182  0.00883696521692014
    w63  w183  -0.01499007309226827
    w63  w184  -0.001472022071288621
    w63  w185  -0.011856326790185041
    w63  w186  -0.036254437962276155
    w63  w187  0.046633040460753596
    w63  w188  0.00819326925310075
    w63  w189  0.01648879432212995
    w63  w190  0.0037476629969791287
    w63  w191  -0.017004209823661902
    w63  w192  -0.015081007272742664
    w63  w193  -0.056077698636569605
    w63  w194  -0.012970137692962805
    w63  w195  -0.0015580868917765914
    w63  w196  -0.013717206036549152
    w63  w197  -0.0028777704315813674
    w63  w198  -0.043380166873868455
    w63  w199  0.03228163852282351
    w64  w64  0.23569313551872184
    w64  w65  0.021760348548597406
    w64  w66  0.030402543574485942
    w64  w67  0.056827283440957256
    w64  w68  -0.007863622695816414
    w64  w69  0.030806036134460837
    w64  w70  0.0646787743606124
    w64  w71  0.095074902144359
    w64  w72  0.028560028755431715
    w64  w73  -0.016627532570021204
    w64  w74  -0.0649988164704606
    w64  w75  -0.017597057439205768
    w64  w76  -0.04004937767643974
    w64  w77  0.05436416723817495
    w64  w78  -0.00822286941285889
    w64  w79  0.020192234054549854
    w64  w80  -0.06855473585196062
    w64  w81  -0.014726708104741153
    w64  w82  0.07238657780581466
    w64  w83  -0.04358761311528561
    w64  w84  0.08869210405512508
    w64  w85  0.05669104000436499
    w64  w86  0.10037066251432795
    w64  w87  -0.01792902744605233
    w64  w88  -0.11465396424333728
    w64  w89  0.04967541555918807
    w64  w90  -0.0610239964745537
    w64  w91  -0.004214644108971716
    w64  w92  0.02350810881724307
    w64  w93  -0.007503600784435816
    w64  w94  -0.05827640186921607
    w64  w95  -0.061736133581326104
    w64  w96  0.07195250168926905
    w64  w97  -0.019590350380674994
    w64  w98  0.05224684149845728
    w64  w99  -0.055342346983853125
    w64  w100  -0.03827294460272048
    w64  w101  -0.053091522602770495
    w64  w102  -0.02952251783289048
    w64  w103  -0.062367982212853036
    w64  w104  -0.032888685389534295
    w64  w105  0.01674048965447493
    w64  w106  0.026014815945179105
    w64  w107  -0.06545414366754565
    w64  w108  -0.03200493992040224
    w64  w109  -0.11664903916711866
    w64  w110  0.00010827332891796662
    w64  w111  -0.05623909737875832
    w64  w112  0.010648192544491689
    w64  w113  0.004647986169539924
    w64  w114  0.0028850475908573253
    w64  w115  0.0019086918412537196
    w64  w116  -0.0670253654392845
    w64  w117  -0.04458382854005174
    w64  w118  -0.06899731111822918
    w64  w119  0.025159615122543822
    w64  w120  0.009804166261826265
    w64  w121  -0.026901833127323846
    w64  w122  0.043877289437032764
    w64  w123  0.04624861649429617
    w64  w124  -0.09172018653584818
    w64  w125  0.09779770503151795
    w64  w126  0.060296467904686867
    w64  w127  -0.07667021285727145
    w64  w128  0.026597832998995288
    w64  w129  0.08684409189106043
    w64  w130  -0.08948726324295926
    w64  w131  -0.03828096803721902
    w64  w132  -0.0009188825636088193
    w64  w133  0.041410875297553475
    w64  w134  -0.10063346964253844
    w64  w135  -0.07485472759674305
    w64  w136  -0.003621852715767098
    w64  w137  0.039420883450955284
    w64  w138  -0.02311633272284623
    w64  w139  -0.0030431685075747094
    w64  w140  -0.025403655686492027
    w64  w141  0.013478860903832787
    w64  w142  0.06600320553403247
    w64  w143  0.043277204626271874
    w64  w144  0.09554381403693517
    w64  w145  -0.010859940983273487
    w64  w146  0.07565858751367095
    w64  w147  -0.041269016616089116
    w64  w148  -0.045732735216247905
    w64  w149  -0.01830740433640303
    w64  w150  0.019950723221224785
    w64  w151  0.016820224496317857
    w64  w152  -0.014938477713939125
    w64  w153  -0.03274420974526314
    w64  w154  0.0061585392474254865
    w64  w155  0.044626152826912104
    w64  w156  -0.05161201869436851
    w64  w157  0.062019732583188825
    w64  w158  -0.006717741686514821
    w64  w159  0.06143953140285346
    w64  w160  -0.006736570859474813
    w64  w161  -0.04596289455927253
    w64  w162  -0.0280088954019203
    w64  w163  0.043968619148741735
    w64  w164  0.012527151401923281
    w64  w165  -0.025497849560315956
    w64  w166  -0.025194418547436884
    w64  w167  0.04977397246710118
    w64  w168  -0.07076833757556612
    w64  w169  0.03805323324419937
    w64  w170  0.11958903308270566
    w64  w171  -0.10348314514835724
    w64  w172  -0.003839342025235553
    w64  w173  -0.015451163921644003
    w64  w174  0.014897303664617403
    w64  w175  0.039752240476886774
    w64  w176  -0.07262722230307793
    w64  w177  0.0550349239548433
    w64  w178  0.06232657453887004
    w64  w179  0.08279445605577052
    w64  w180  -0.02511013404376793
    w64  w181  -0.02256473110564009
    w64  w182  0.009009814986876368
    w64  w183  -0.022496925779811626
    w64  w184  -0.0011173014896823587
    w64  w185  0.029271904310521964
    w64  w186  -0.07933745225729315
    w64  w187  -0.05485235598242953
    w64  w188  -0.021844262969868935
    w64  w189  -0.03847188656735371
    w64  w190  -0.007849075452530361
    w64  w191  -0.028064350808356075
    w64  w192  0.0922853033213707
    w64  w193  -0.011299556658227138
    w64  w194  0.04822375934640136
    w64  w195  0.04329805008907687
    w64  w196  0.10523163127319587
    w64  w197  -0.03076031082488855
    w64  w198  0.09483488237729734
    w64  w199  0.00146351840021769
    w65  w65  0.22443138086030037
    w65  w66  0.03776546613772522
    w65  w67  -0.004030774306071327
    w65  w68  -0.0010912954533812869
    w65  w69  0.10544722784841033
    w65  w70  -0.024689137722624533
    w65  w71  0.0743093412895399
    w65  w72  0.10379902840852775
    w65  w73  0.01812881491925975
    w65  w74  -0.022227178248663656
    w65  w75  -0.01863188538696745
    w65  w76  -0.02041063050552411
    w65  w77  -0.06820889912422819
    w65  w78  0.02842357173082611
    w65  w79  0.029625445362496297
    w65  w80  -0.021694028685936305
    w65  w81  0.03990217842363215
    w65  w82  -0.032428861664949384
    w65  w83  0.02336928907835632
    w65  w84  0.07975652371325417
    w65  w85  0.008458018960676283
    w65  w86  -0.09421967159894251
    w65  w87  0.105292636732159
    w65  w88  0.013495760746842327
    w65  w89  -0.038772869640777266
    w65  w90  0.05910676331029784
    w65  w91  0.02534886404927085
    w65  w92  -0.005517631742297688
    w65  w93  -0.00866465701357667
    w65  w94  -0.05641994216454053
    w65  w95  -0.17064163031511004
    w65  w96  -0.010746546171990402
    w65  w97  -0.11518286419783766
    w65  w98  0.0735950804513674
    w65  w99  0.0012679607902113905
    w65  w100  -0.004216769413409256
    w65  w101  -0.012956721310288159
    w65  w102  -0.04245476427719775
    w65  w103  0.014578875432450303
    w65  w104  0.11081459721502797
    w65  w105  -0.0005042261686112991
    w65  w106  -0.05852560014578463
    w65  w107  0.12166102460639606
    w65  w108  0.052816865416807614
    w65  w109  -0.01473345785515117
    w65  w110  0.046248679571894526
    w65  w111  0.04446519665390137
    w65  w112  0.09983037207212009
    w65  w113  0.046929435642301676
    w65  w114  0.07353536309162602
    w65  w115  -0.027172362619792004
    w65  w116  0.0708908598016692
    w65  w117  0.11399971471712068
    w65  w118  -0.016582136541919725
    w65  w119  0.06276382211482993
    w65  w120  -0.001794387743115753
    w65  w121  -0.09338384025592693
    w65  w122  0.016727515076085175
    w65  w123  0.030489556696633995
    w65  w124  -0.07198929937436863
    w65  w125  -0.05792852957148739
    w65  w126  0.0586268571783764
    w65  w127  -0.005252544844122155
    w65  w128  0.07003466695946797
    w65  w129  0.04407066645480008
    w65  w130  -0.09746348736895748
    w65  w131  -0.04181818617519567
    w65  w132  -0.037341212451035485
    w65  w133  0.0021409046097814826
    w65  w134  -0.035707371312630284
    w65  w135  0.053952093974621876
    w65  w136  0.01451134745184709
    w65  w137  0.04423052476547163
    w65  w138  -0.10603679057586518
    w65  w139  -0.04884332805964482
    w65  w140  0.03280213698684229
    w65  w141  0.042911906456414406
    w65  w142  0.10859703531736846
    w65  w143  -0.05016830979694192
    w65  w144  0.06413329137864314
    w65  w145  -0.04193478889677437
    w65  w146  0.04053187225226761
    w65  w147  -0.02475720706582137
    w65  w148  -0.018569051453369127
    w65  w149  -0.06101506571543576
    w65  w150  -0.014249736104456569
    w65  w151  -0.02786376417852458
    w65  w152  0.034603852831812894
    w65  w153  -0.0078106374064867415
    w65  w154  0.10441444797758215
    w65  w155  0.05736975602306386
    w65  w156  0.03711383499412874
    w65  w157  0.06571010641171106
    w65  w158  0.0014935894849259343
    w65  w159  0.013972649292996995
    w65  w160  0.06803403715466307
    w65  w161  -0.09919046939662142
    w65  w162  0.0020510215290408954
    w65  w163  0.04001016691870833
    w65  w164  -0.033706284811177524
    w65  w165  -0.018013703627528188
    w65  w166  -0.03918826183427718
    w65  w167  -0.019112698968304982
    w65  w168  -0.0340833610766411
    w65  w169  0.0890241675298945
    w65  w170  -0.018149304885428347
    w65  w171  -0.042023985678194424
    w65  w172  0.058924691912709354
    w65  w173  -0.09889994801892121
    w65  w174  -0.027347051391269125
    w65  w175  0.004179340013919535
    w65  w176  0.0006936487377754348
    w65  w177  -0.04551024280592572
    w65  w178  -0.032547570281466355
    w65  w179  0.0106785176869516
    w65  w180  0.009767563326330782
    w65  w181  -0.0229047323896124
    w65  w182  -0.09426131749107049
    w65  w183  0.048720627303174446
    w65  w184  0.10066369880616742
    w65  w185  0.022958127105689667
    w65  w186  0.11073231971117116
    w65  w187  0.03515469367561642
    w65  w188  -0.046687945829308776
    w65  w189  -0.11350132447248934
    w65  w190  0.04068209772179562
    w65  w191  -0.0760651265885545
    w65  w192  0.0849700021275375
    w65  w193  -0.014024394225965436
    w65  w194  0.005773718257900389
    w65  w195  -0.028863737104492755
    w65  w196  -0.03472276769887082
    w65  w197  0.0006476383917996512
    w65  w198  -0.03804654517311515
    w65  w199  0.04127177199938594
    w66  w66  0.2568698966000508
    w66  w67  -0.058693056149958754
    w66  w68  -0.0008077498202802799
    w66  w69  -0.06307025993129604
    w66  w70  0.03680336398475669
    w66  w71  0.05527302882995728
    w66  w72  0.07468687746554818
    w66  w73  0.021287345886419524
    w66  w74  -0.06667275660800923
    w66  w75  0.020757350934140113
    w66  w76  -0.02635447579911238
    w66  w77  -0.06699544611676392
    w66  w78  -0.06132539533181861
    w66  w79  -0.004580297368158755
    w66  w80  -0.10055378172841925
    w66  w81  0.04949150311148156
    w66  w82  0.034491307671099786
    w66  w83  -0.11335124462247562
    w66  w84  0.03807744189578656
    w66  w85  -0.021734804400062636
    w66  w86  -0.024399295521202156
    w66  w87  0.07346034066798486
    w66  w88  -0.038769883049214006
    w66  w89  -0.03554848870782465
    w66  w90  0.10857178987646485
    w66  w91  0.013867262084384397
    w66  w92  -0.02552359670431881
    w66  w93  0.012559447949465766
    w66  w94  0.009381318919985992
    w66  w95  -0.0723814762435651
    w66  w96  -0.058316013864181844
    w66  w97  -0.02850641430791622
    w66  w98  0.10221247980019699
    w66  w99  -0.07142049818247935
    w66  w100  -0.04872948480423061
    w66  w101  -0.028287870468775293
    w66  w102  0.034299724757306686
    w66  w103  -0.0026671695755028967
    w66  w104  1.677534590146917e-05
    w66  w105  0.10290417317188517
    w66  w106  0.002866944638134516
    w66  w107  0.04406877082608942
    w66  w108  -0.004899751632237227
    w66  w109  -0.05808813967073974
    w66  w110  0.09794970210185097
    w66  w111  -0.06840426550330173
    w66  w112  -0.06800366944044349
    w66  w113  -0.0075275629995132315
    w66  w114  0.0820286249636526
    w66  w115  -0.10029819844304726
    w66  w116  0.03687658826958814
    w66  w117  0.02602400533148509
    w66  w118  -0.13219139315984518
    w66  w119  -0.05076413294157911
    w66  w120  -0.051403893054676644
    w66  w121  0.04996174796872052
    w66  w122  0.011481106083501754
    w66  w123  -0.10755108864709782
    w66  w124  -0.019347866133615783
    w66  w125  -0.010710776751063938
    w66  w126  -0.03096598550658261
    w66  w127  -0.08934970344763342
    w66  w128  0.0046069758229823
    w66  w129  0.005370472346258827
    w66  w130  0.05593615180109588
    w66  w131  -0.012890447344264094
    w66  w132  -0.043574275068821874
    w66  w133  -0.05461545858262962
    w66  w134  0.014701882951454465
    w66  w135  -0.0338083846645646
    w66  w136  -0.0298909942456736
    w66  w137  0.04817110726978183
    w66  w138  0.07443366576079775
    w66  w139  -0.04484555211259838
    w66  w140  0.022988600112657433
    w66  w141  -0.02001984240365035
    w66  w142  -0.00535058128073705
    w66  w143  -0.10763504595866419
    w66  w144  0.05583691918248861
    w66  w145  0.0057723983536626606
    w66  w146  0.03535126694975107
    w66  w147  -0.1030899216896912
    w66  w148  0.08145531329309001
    w66  w149  0.03652823036874027
    w66  w150  0.06915710628560025
    w66  w151  0.005910825430506199
    w66  w152  -0.0663864914538914
    w66  w153  0.15292263368949713
    w66  w154  0.09983918776331427
    w66  w155  -0.08995673270907477
    w66  w156  -0.07897530552967744
    w66  w157  0.009098865952208875
    w66  w158  -0.07317901478798583
    w66  w159  0.04124350749559992
    w66  w160  0.06685918525758297
    w66  w161  0.011874666584470197
    w66  w162  0.04784485063959497
    w66  w163  -0.03432862119656613
    w66  w164  -0.11407107990141595
    w66  w165  -0.025622462821723067
    w66  w166  -0.032802399236924566
    w66  w167  -0.07124574819034654
    w66  w168  0.08978853095958003
    w66  w169  -0.01716743678935611
    w66  w170  0.08078085128248891
    w66  w171  -0.07651585645133924
    w66  w172  0.05708701960104891
    w66  w173  0.005218746982475419
    w66  w174  -0.09352386815108657
    w66  w175  0.051992774198262315
    w66  w176  0.0714482687750054
    w66  w177  0.04954257642343816
    w66  w178  0.052397154268867985
    w66  w179  -0.003524222199045615
    w66  w180  -0.08866420275600255
    w66  w181  0.017328437730951014
    w66  w182  0.05320548326318213
    w66  w183  0.03474174934726695
    w66  w184  0.01841129478381924
    w66  w185  -0.06726017636423001
    w66  w186  0.07173829330252497
    w66  w187  0.051573342498538545
    w66  w188  -0.008457393523196004
    w66  w189  -0.005965241387358227
    w66  w190  0.06910537942208714
    w66  w191  -0.025728483924321595
    w66  w192  0.03221960617297903
    w66  w193  0.020282672985459712
    w66  w194  0.02255103977275378
    w66  w195  -0.010736967986166078
    w66  w196  0.14503078612000858
    w66  w197  0.06805353837181048
    w66  w198  -0.09779543468561283
    w66  w199  0.09428741720779656
    w67  w67  0.3220716135151698
    w67  w68  -0.05175750525845923
    w67  w69  0.016585041370707473
    w67  w70  0.0462823454241781
    w67  w71  -0.01646927124462026
    w67  w72  0.025904745121632607
    w67  w73  0.023920370072888917
    w67  w74  0.0020992489756259127
    w67  w75  -0.05228061454482992
    w67  w76  0.013541089025693427
    w67  w77  0.002872272014869629
    w67  w78  0.06383274861064993
    w67  w79  0.034642019342745994
    w67  w80  0.11479117310721983
    w67  w81  -0.1033915971935426
    w67  w82  -0.00926208726542666
    w67  w83  -0.025330994278410533
    w67  w84  0.07901856669530412
    w67  w85  0.07974580714623783
    w67  w86  0.09972380992581782
    w67  w87  0.03779176449749098
    w67  w88  -0.1364303924481256
    w67  w89  0.1019758908055296
    w67  w90  -0.14029280029288368
    w67  w91  0.04251696700637406
    w67  w92  -0.001667537458197698
    w67  w93  -0.04848768324096722
    w67  w94  -0.07736019756366708
    w67  w95  -0.0021275888548144763
    w67  w96  -0.008699008978218306
    w67  w97  0.12994473125803213
    w67  w98  0.09044491662026051
    w67  w99  0.03562681098748692
    w67  w100  -0.07998525083329483
    w67  w101  0.002081380463977076
    w67  w102  -0.07131468872716014
    w67  w103  -0.1364187615156709
    w67  w104  -0.007053608788617246
    w67  w105  -0.12433701189815918
    w67  w106  0.03675279361547176
    w67  w107  -0.13065574552696196
    w67  w108  0.03320269990358229
    w67  w109  -0.18751827087513873
    w67  w110  -0.04922453763143543
    w67  w111  0.0679174635092259
    w67  w112  0.025049682889420173
    w67  w113  -0.1175044991163152
    w67  w114  0.030608487714215503
    w67  w115  0.09055730691626292
    w67  w116  0.0543526226230606
    w67  w117  0.05782849027655506
    w67  w118  -0.000182446410423768
    w67  w119  0.031813239173727935
    w67  w120  0.1027930788016387
    w67  w121  0.015565894435684638
    w67  w122  0.09099793837999126
    w67  w123  0.10653269724947316
    w67  w124  0.0860666976450484
    w67  w125  -0.02960751346254112
    w67  w126  0.03324368775792758
    w67  w127  0.03631446453759392
    w67  w128  0.004688522204432876
    w67  w129  0.0012422872509128336
    w67  w130  -0.1223152116141366
    w67  w131  -0.07901428636334343
    w67  w132  -0.032135506051609884
    w67  w133  0.008365280552710274
    w67  w134  0.018853801988488114
    w67  w135  -0.001189001234890545
    w67  w136  -0.06592227686283038
    w67  w137  0.10280061315501213
    w67  w138  0.020402150983418948
    w67  w139  -0.10915086822860004
    w67  w140  -0.05868242815823853
    w67  w141  -0.011121988860616843
    w67  w142  0.1825124186777455
    w67  w143  0.14063285405104
    w67  w144  0.10626475570274849
    w67  w145  0.026273861930586388
    w67  w146  0.06009828270780803
    w67  w147  0.04620474615902346
    w67  w148  -0.12115641058467476
    w67  w149  -0.131686018741597
    w67  w150  -0.02430586684017684
    w67  w151  -0.05848008360575509
    w67  w152  0.045291790601418365
    w67  w153  -0.13232519710931828
    w67  w154  -0.0057086352613759835
    w67  w155  0.1625667935465384
    w67  w156  0.018092197405207188
    w67  w157  -0.07247421470017622
    w67  w158  -0.006242403846385158
    w67  w159  -0.13807026037524214
    w67  w160  -0.0887300962039026
    w67  w161  -0.0012484541569341735
    w67  w162  -0.026583964429256313
    w67  w163  0.06296857300809748
    w67  w164  -0.01792435747166801
    w67  w165  0.15383051347365514
    w67  w166  -0.07630427855060448
    w67  w167  0.10747512805112128
    w67  w168  -0.015922263054156678
    w67  w169  -0.05844489943118335
    w67  w170  -0.04584728736952937
    w67  w171  -0.1197410485063509
    w67  w172  0.054230435274668226
    w67  w173  0.03960683427713923
    w67  w174  0.14617315268366732
    w67  w175  0.08948070430752854
    w67  w176  -0.024806726432151097
    w67  w177  -0.018915710501993647
    w67  w178  -0.1324017374532728
    w67  w179  0.13169835547374073
    w67  w180  0.1298340038448553
    w67  w181  0.013638966802189824
    w67  w182  -0.03436034566066645
    w67  w183  -0.10907789788682777
    w67  w184  0.06443558795411654
    w67  w185  0.09238260269021346
    w67  w186  -0.08183753364095199
    w67  w187  -0.05933238708168516
    w67  w188  -0.05897160651252689
    w67  w189  0.15608885190128258
    w67  w190  0.08272931785981275
    w67  w191  0.019917796218984003
    w67  w192  -0.039794786354059246
    w67  w193  0.007334386320923762
    w67  w194  -0.00026449822851601324
    w67  w195  -0.009295226604638097
    w67  w196  -0.04048559508127569
    w67  w197  0.0277375522414215
    w67  w198  0.08618590588990528
    w67  w199  0.03287010248650085
    w68  w68  0.18638959106552927
    w68  w69  -0.0616986462660434
    w68  w70  0.03431642707853563
    w68  w71  0.01641656093478335
    w68  w72  0.018807381475305057
    w68  w73  -0.10292000524156258
    w68  w74  -0.0440974612479124
    w68  w75  -0.036464009067648455
    w68  w76  0.10846192088189718
    w68  w77  0.03039209792458529
    w68  w78  0.012140918616047823
    w68  w79  -0.010798846299062168
    w68  w80  -0.05845828534396349
    w68  w81  0.0550510519672642
    w68  w82  -0.07945867045555116
    w68  w83  0.06340658137201001
    w68  w84  -0.01666800546165249
    w68  w85  -0.0222677482868329
    w68  w86  0.08471365040196054
    w68  w87  -0.014622309192376797
    w68  w88  0.024336635378099658
    w68  w89  -0.005153109165548414
    w68  w90  0.1437536581519192
    w68  w91  -0.021303351218790432
    w68  w92  0.00400953528512789
    w68  w93  -0.03801930408390651
    w68  w94  -0.002131107795612844
    w68  w95  0.0505839953267737
    w68  w96  0.04231715821530267
    w68  w97  -0.10024402228373344
    w68  w98  -0.014670213701986668
    w68  w99  0.010481364903772014
    w68  w100  -0.0012867027677839842
    w68  w101  0.011027698923200921
    w68  w102  0.07493157658175532
    w68  w103  0.1540511335359997
    w68  w104  -0.1134672460823794
    w68  w105  0.052886731164969364
    w68  w106  0.009169756380959055
    w68  w107  -0.012374478302018665
    w68  w108  -0.13105783105945426
    w68  w109  0.07106422913327098
    w68  w110  -0.0342579071293817
    w68  w111  -0.011359027748186404
    w68  w112  0.025346479127747915
    w68  w113  0.08867909328336464
    w68  w114  -0.002670307463568338
    w68  w115  0.04152617524866926
    w68  w116  0.035734857283032224
    w68  w117  0.0008808314484181919
    w68  w118  0.0075258045391964415
    w68  w119  0.035437773837311864
    w68  w120  0.04643466619756563
    w68  w121  0.033862270796184694
    w68  w122  -0.10418107374869849
    w68  w123  -0.04166174365660044
    w68  w124  0.011558436471547081
    w68  w125  0.012989558785699474
    w68  w126  -0.03798318977636516
    w68  w127  -0.05877578166497923
    w68  w128  0.026040001423696425
    w68  w129  0.024105158049346348
    w68  w130  0.021948123964750956
    w68  w131  -0.037821159827926824
    w68  w132  0.03929105541745197
    w68  w133  -0.024432224808364402
    w68  w134  0.07246936638871886
    w68  w135  0.016649509137925372
    w68  w136  0.0068790447703106
    w68  w137  -0.09755277943814834
    w68  w138  -0.05971971816992093
    w68  w139  0.09774571417508017
    w68  w140  -0.023803245191904035
    w68  w141  -0.03568649114128625
    w68  w142  -0.06647131875317072
    w68  w143  0.10115769352619937
    w68  w144  0.07726124974650095
    w68  w145  0.008483563336908449
    w68  w146  0.010017177812552177
    w68  w147  -0.05771655590344245
    w68  w148  -0.04616613147218739
    w68  w149  -0.04084961837396168
    w68  w150  -0.04754924455479867
    w68  w151  0.0471048677283238
    w68  w152  -0.042245152633588745
    w68  w153  0.05243178682670934
    w68  w154  -0.00014527211722831156
    w68  w155  -0.052621070541480644
    w68  w156  -0.012653747964479788
    w68  w157  0.004392088593672545
    w68  w158  -0.05094820595803717
    w68  w159  0.008413542576974896
    w68  w160  0.06260426474327606
    w68  w161  0.011095186675099612
    w68  w162  -0.02911563206365467
    w68  w163  0.009161337273532386
    w68  w164  -0.020294585862020334
    w68  w165  -0.004681760028783814
    w68  w166  0.05386625510155807
    w68  w167  0.05028597689977508
    w68  w168  0.040701195034076945
    w68  w169  -0.020790016504819018
    w68  w170  0.010727614242923376
    w68  w171  0.001358222358909699
    w68  w172  -0.0898896680059817
    w68  w173  0.0027782321016651805
    w68  w174  -0.035135097920220765
    w68  w175  0.022719191116118937
    w68  w176  -0.00895889595422993
    w68  w177  0.04491832915343201
    w68  w178  0.04164011825700694
    w68  w179  -0.06222393949417016
    w68  w180  -0.049993341141440606
    w68  w181  -0.010470226596280753
    w68  w182  -0.04956059004693751
    w68  w183  0.009517549481592516
    w68  w184  -0.017873693090912114
    w68  w185  -0.006161402426538557
    w68  w186  0.11006416346936637
    w68  w187  -0.05867834845280429
    w68  w188  0.022177698672598455
    w68  w189  -0.03935147670193425
    w68  w190  -0.08448475034298268
    w68  w191  -0.017652197204755367
    w68  w192  -0.012103188313377495
    w68  w193  0.05825217253020939
    w68  w194  0.039368865745036764
    w68  w195  0.036755464453859625
    w68  w196  0.016651804662058976
    w68  w197  0.027301823836878087
    w68  w198  0.01523350669401171
    w68  w199  -0.09006770624880185
    w69  w69  0.2320922174000731
    w69  w70  -0.004148300967777008
    w69  w71  0.06720735380130226
    w69  w72  0.07154926962548043
    w69  w73  0.049771086241099174
    w69  w74  0.05518324222555868
    w69  w75  -0.0424381315106604
    w69  w76  -0.05618584547516883
    w69  w77  -0.033210482391393195
    w69  w78  0.03434957756957386
    w69  w79  0.005456033535106925
    w69  w80  0.011114400331464266
    w69  w81  0.0035371878032936033
    w69  w82  0.07246827018669728
    w69  w83  0.032937683956504
    w69  w84  0.017656277342837274
    w69  w85  0.033280179502002016
    w69  w86  -0.07598403655887857
    w69  w87  0.026628804724140184
    w69  w88  0.0510945989335378
    w69  w89  0.008379055336816009
    w69  w90  -0.06404762090170747
    w69  w91  0.05186635267434568
    w69  w92  0.02190117539924246
    w69  w93  0.04175886311477618
    w69  w94  -0.015881061654818136
    w69  w95  -0.12794258138620399
    w69  w96  0.03954870276209285
    w69  w97  -0.03619926026783792
    w69  w98  0.03360463436692628
    w69  w99  0.013268982356155196
    w69  w100  0.097830266762545
    w69  w101  0.011233733199277455
    w69  w102  -0.09918993527668044
    w69  w103  -0.07222071279131184
    w69  w104  0.13207460350623423
    w69  w105  -0.1131734870452046
    w69  w106  -0.04007268452377516
    w69  w107  0.07549397064757499
    w69  w108  0.15311210607320022
    w69  w109  -0.026651009001904223
    w69  w110  0.007125580276153841
    w69  w111  0.04246978389402987
    w69  w112  0.10742554863135148
    w69  w113  0.015047325058819014
    w69  w114  0.03279269263417711
    w69  w115  -0.01112168779431838
    w69  w116  0.00047573723284303983
    w69  w117  0.06187025500719068
    w69  w118  0.09245385622932929
    w69  w119  0.07479665190351376
    w69  w120  -0.0029842682529036594
    w69  w121  -0.11682007582296895
    w69  w122  0.06245296607745225
    w69  w123  0.10764457921777003
    w69  w124  -0.08869842787501343
    w69  w125  -0.01316180612559876
    w69  w126  0.10818679068235224
    w69  w127  0.06475690566117848
    w69  w128  -0.002704491736137196
    w69  w129  -0.01828425329522608
    w69  w130  -0.10770964539827417
    w69  w131  0.012980342769719929
    w69  w132  -0.03280565998745938
    w69  w133  0.023411285639297803
    w69  w134  -0.09219309018028238
    w69  w135  0.04330488946600413
    w69  w136  0.04485353195007628
    w69  w137  0.0560754198576344
    w69  w138  -0.09035650148053236
    w69  w139  -0.04265767461710401
    w69  w140  0.05622098689300285
    w69  w141  0.08601715454037062
    w69  w142  0.14209613927386688
    w69  w143  -0.09729648644094833
    w69  w144  -0.02843885834420214
    w69  w145  -0.031427256870500415
    w69  w146  -0.017097917468052323
    w69  w147  0.04737948452352069
    w69  w148  -0.07443136152462598
    w69  w149  -0.04511656149700241
    w69  w150  0.013615924444449605
    w69  w151  -0.041793310641130406
    w69  w152  0.060040484724989594
    w69  w153  -0.17747386669887852
    w69  w154  0.018093258863440036
    w69  w155  0.07171521514142362
    w69  w156  0.07464949808974244
    w69  w157  0.08016217160447954
    w69  w158  0.0675579301500221
    w69  w159  0.030427616270409734
    w69  w160  -0.032390927890639264
    w69  w161  -0.10027656528256901
    w69  w162  -0.026168211482611257
    w69  w163  -0.005349572500925563
    w69  w164  0.07948244431221516
    w69  w165  -0.02312095870605332
    w69  w166  -0.016206296547561123
    w69  w167  -0.0012402379197610175
    w69  w168  -0.11511471069277578
    w69  w169  0.16587792965728868
    w69  w170  -0.020546313081367618
    w69  w171  -0.025987128390663937
    w69  w172  0.08125205837597572
    w69  w173  -0.08056705418958637
    w69  w174  -0.002168083004049093
    w69  w175  -0.04759455345575056
    w69  w176  -0.054450826614490834
    w69  w177  -0.07438110395294922
    w69  w178  -0.03781484261506808
    w69  w179  0.0035937710865388745
    w69  w180  0.07269472308235644
    w69  w181  -0.09877875266428518
    w69  w182  -0.05167425448850755
    w69  w183  0.02256257930130451
    w69  w184  0.028449260172978417
    w69  w185  0.04172851476558147
    w69  w186  -0.02946791989170936
    w69  w187  0.0410194453033971
    w69  w188  -0.027581755897371142
    w69  w189  -0.08046634608945238
    w69  w190  0.07978503570129011
    w69  w191  0.0034785333567932185
    w69  w192  0.10986239692433099
    w69  w193  -0.04639488207498266
    w69  w194  -0.040687304601887776
    w69  w195  -0.023092982946862725
    w69  w196  -0.09685516787648231
    w69  w197  -0.04060237015477177
    w69  w198  0.017656832882637245
    w69  w199  -0.000612316480314086
    w70  w70  0.25901983816575236
    w70  w71  0.06344786685374601
    w70  w72  0.11952719911071805
    w70  w73  -0.031461471789065186
    w70  w74  -0.022270225114911696
    w70  w75  -0.09995574395106614
    w70  w76  0.08273723753105036
    w70  w77  0.0031615668596231333
    w70  w78  -0.0037833733916423596
    w70  w79  -0.057093806018630726
    w70  w80  -0.05382678086734265
    w70  w81  0.0433750079578291
    w70  w82  0.13654725702621662
    w70  w83  -0.042195635788737744
    w70  w84  -0.020203873075947714
    w70  w85  0.08611140260306391
    w70  w86  0.1753039272373855
    w70  w87  -0.044762703184544846
    w70  w88  -0.045320115573623525
    w70  w89  0.1079289715023435
    w70  w90  0.026699667102116343
    w70  w91  0.06408237595137363
    w70  w92  0.011255373578961024
    w70  w93  0.04796888200692179
    w70  w94  0.044119048669554246
    w70  w95  0.02076171584783619
    w70  w96  0.0571895365182875
    w70  w97  0.01846380065773628
    w70  w98  0.07895034882044433
    w70  w99  -0.05128335706582773
    w70  w100  0.06935980191109035
    w70  w101  0.012555009085162357
    w70  w102  -0.014613977708536017
    w70  w103  -0.05987789091857628
    w70  w104  -0.09266833369080657
    w70  w105  -0.05079655048478832
    w70  w106  0.06788883159262576
    w70  w107  -0.06444944122522195
    w70  w108  0.060381204900487796
    w70  w109  -0.07723892878844063
    w70  w110  0.000735824120032269
    w70  w111  -0.10366834744055103
    w70  w112  0.0017368999843476024
    w70  w113  -0.014371145496005868
    w70  w114  0.06859836052461216
    w70  w115  0.01541211957102785
    w70  w116  0.023279782024464967
    w70  w117  -0.028235688759667896
    w70  w118  0.07199237342592507
    w70  w119  0.02185274498283209
    w70  w120  0.07619052743821982
    w70  w121  0.022292825093812047
    w70  w122  -0.004179686881479856
    w70  w123  0.022908275108128446
    w70  w124  0.022910048894899036
    w70  w125  0.03321208972108926
    w70  w126  0.01776381415481341
    w70  w127  -0.04694810710743036
    w70  w128  -0.08064899201266354
    w70  w129  -0.06141886336513836
    w70  w130  0.03368875796100824
    w70  w131  -0.0009038256290542338
    w70  w132  0.029916475508272488
    w70  w133  -0.014953177956596725
    w70  w134  0.1005189308747158
    w70  w135  -0.029704369515448664
    w70  w136  -0.06492708203971356
    w70  w137  -0.03361664926487946
    w70  w138  0.044903379260246866
    w70  w139  -0.01587656426057586
    w70  w140  0.058986724378887814
    w70  w141  0.051655914991665275
    w70  w142  0.028713948923736802
    w70  w143  0.007793692692920536
    w70  w144  0.12427065466103554
    w70  w145  0.06798842489871096
    w70  w146  0.013760485115062419
    w70  w147  -0.06347390060445372
    w70  w148  -0.14817463717721718
    w70  w149  -0.1111317201403345
    w70  w150  0.026415883207387872
    w70  w151  0.036411546651371064
    w70  w152  -0.08120130327976029
    w70  w153  -0.10754510906462508
    w70  w154  -0.026329741728348833
    w70  w155  -0.03331355641704189
    w70  w156  -0.0031006591500832405
    w70  w157  0.024521404388171148
    w70  w158  -0.059838554633561684
    w70  w159  -0.04501947652352776
    w70  w160  -0.09189210888861798
    w70  w161  0.07191821386027053
    w70  w162  -0.019971595012827442
    w70  w163  -0.08527476984210192
    w70  w164  -0.0108324032092887
    w70  w165  0.04139219195631139
    w70  w166  0.07724854759650188
    w70  w167  0.08861249650146993
    w70  w168  0.014537997002753055
    w70  w169  -0.02431730673763865
    w70  w170  0.04992691865798194
    w70  w171  -0.12999163498806846
    w70  w172  0.044978944666773886
    w70  w173  0.10463775155885588
    w70  w174  -0.06008872624283929
    w70  w175  0.03582198425623759
    w70  w176  -0.0030585677809215135
    w70  w177  0.078109875113497
    w70  w178  0.0007461521350425705
    w70  w179  -0.006895223175511482
    w70  w180  0.029543240811099252
    w70  w181  -0.07017046163212314
    w70  w182  0.01698061515862459
    w70  w183  -0.06154923942184309
    w70  w184  -0.042182065664913344
    w70  w185  -0.007845164875006801
    w70  w186  0.0002341136981487658
    w70  w187  -0.01605322630508713
    w70  w188  0.00017626045806028967
    w70  w189  0.09876700555195707
    w70  w190  0.09282740796572062
    w70  w191  0.024870160114964558
    w70  w192  0.04054686304078694
    w70  w193  0.022213280613850465
    w70  w194  0.0333704768255906
    w70  w195  0.011638599769048066
    w70  w196  0.017436632715001208
    w70  w197  0.07048676356224742
    w70  w198  0.03705437239222491
    w70  w199  -0.1060286593271195
    w71  w71  0.24187023616957287
    w71  w72  0.09685308848133642
    w71  w73  -0.018117803700809194
    w71  w74  -0.09591775910645738
    w71  w75  -0.010760851341137561
    w71  w76  -0.004119247589037317
    w71  w77  -0.012480348074573835
    w71  w78  0.011509140233007507
    w71  w79  0.03160587129043076
    w71  w80  -0.13904295099032368
    w71  w81  0.0204537997615602
    w71  w82  0.09296673740862595
    w71  w83  -0.04599729345054342
    w71  w84  0.12087898953764872
    w71  w85  0.038153266557727585
    w71  w86  0.05101491055265134
    w71  w87  0.025024339687853135
    w71  w88  0.02151341684940643
    w71  w89  -0.006772888651308981
    w71  w90  0.025832496373470838
    w71  w91  0.02159805056153793
    w71  w92  0.04312086785458317
    w71  w93  0.02099525317313036
    w71  w94  0.0062304967877554965
    w71  w95  -0.08610272900101704
    w71  w96  0.06140186743253132
    w71  w97  -0.05965211949185383
    w71  w98  0.09613201583323072
    w71  w99  -0.06321112386816079
    w71  w100  0.029837351289351142
    w71  w101  0.013818698150940851
    w71  w102  -0.02146555585848023
    w71  w103  0.0438254218774267
    w71  w104  0.030741232317346538
    w71  w105  -0.015807955224292097
    w71  w106  0.02971054824900252
    w71  w107  -0.031293874028431444
    w71  w108  0.039798742371193276
    w71  w109  -0.09580207810967964
    w71  w110  -0.018057146031805662
    w71  w111  -0.0428136633719709
    w71  w112  0.08939320985615337
    w71  w113  0.00157867972610604
    w71  w114  0.06922941926462771
    w71  w115  0.009400276795782484
    w71  w116  0.03400826715976375
    w71  w117  -0.01333590990150937
    w71  w118  -0.016938613287485773
    w71  w119  0.07365209425219926
    w71  w120  0.007730318514411878
    w71  w121  -0.046852418458688996
    w71  w122  0.06836120979251539
    w71  w123  -0.022172164849270662
    w71  w124  -0.056491127151091024
    w71  w125  0.0506629136761924
    w71  w126  0.043508788861999714
    w71  w127  -0.07563315945234042
    w71  w128  0.012255173435552734
    w71  w129  0.009040027551915577
    w71  w130  -0.06285377872625485
    w71  w131  -0.011698702537241552
    w71  w132  -0.020005757536230885
    w71  w133  -0.02331978644409058
    w71  w134  -0.06324715157298127
    w71  w135  -0.016471234010372905
    w71  w136  0.03822566143036286
    w71  w137  0.021914330945348805
    w71  w138  -0.04136016035716189
    w71  w139  -0.013461412543031721
    w71  w140  -0.023377987102900143
    w71  w141  0.006579973748367528
    w71  w142  0.09767859045708958
    w71  w143  -0.08808436265554065
    w71  w144  0.07388977202470083
    w71  w145  -0.0005074461099871499
    w71  w146  0.06831976482072499
    w71  w147  -0.03778637309333892
    w71  w148  -0.06000864405711611
    w71  w149  -0.046636879266117016
    w71  w150  0.07846424637435026
    w71  w151  0.0015346731875045309
    w71  w152  0.00603504947658107
    w71  w153  -0.07161671449794896
    w71  w154  0.08702016103102925
    w71  w155  0.01656426796910829
    w71  w156  -0.028873934101476956
    w71  w157  0.09755441723229827
    w71  w158  -0.028838566811103798
    w71  w159  0.02439383945500198
    w71  w160  0.043944073922969104
    w71  w161  -0.07075245975040491
    w71  w162  0.012412147489385739
    w71  w163  -0.05020333174815984
    w71  w164  -0.04467459291043465
    w71  w165  -0.04640484792837558
    w71  w166  -0.04261023384928915
    w71  w167  -0.020314071885152416
    w71  w168  0.006547687923621648
    w71  w169  0.09294691333452482
    w71  w170  0.02997711312648691
    w71  w171  -0.08361227940062234
    w71  w172  0.03636930178206329
    w71  w173  -0.034749751671972945
    w71  w174  -0.06767917313723423
    w71  w175  0.03365700488524403
    w71  w176  -0.06854993237995485
    w71  w177  0.010016952586160185
    w71  w178  0.0510451366941293
    w71  w179  -0.07832350098704466
    w71  w180  -0.019064629850084565
    w71  w181  -0.05975059241495363
    w71  w182  -0.027937703442339454
    w71  w183  -0.008851400276143043
    w71  w184  -0.039234066702911616
    w71  w185  0.002947692115708612
    w71  w186  -0.001881269693869072
    w71  w187  0.029730583995555507
    w71  w188  -0.002506042788787742
    w71  w189  -0.06303554258006397
    w71  w190  0.014736838585742274
    w71  w191  -0.03408517388289737
    w71  w192  0.1295660757351486
    w71  w193  -0.048710570739785415
    w71  w194  0.0149838310753196
    w71  w195  0.041294704973508185
    w71  w196  0.04739571377997178
    w71  w197  0.02164033822448507
    w71  w198  -0.032239922548291486
    w71  w199  -0.00038468815150021575
    w72  w72  0.33497945259093687
    w72  w73  0.023199069509768657
    w72  w74  -0.07601623331888893
    w72  w75  -0.11548014587697375
    w72  w76  0.03700754637369549
    w72  w77  -0.047753297985870254
    w72  w78  0.006809189241388017
    w72  w79  0.02927111116584455
    w72  w80  -0.098161492269939
    w72  w81  0.04664114327421506
    w72  w82  0.11484997365748086
    w72  w83  -0.06551339000082604
    w72  w84  0.0401298123281433
    w72  w85  0.024484477878866068
    w72  w86  0.050466412242251305
    w72  w87  0.054317124347605765
    w72  w88  0.045796241183596806
    w72  w89  0.05010036752416112
    w72  w90  0.03830484429747982
    w72  w91  0.08680960878891934
    w72  w92  -0.02473878565264854
    w72  w93  0.02290393354219792
    w72  w94  0.023717951759330395
    w72  w95  -0.07531655791905104
    w72  w96  -0.0191732886373437
    w72  w97  -0.07284790084440848
    w72  w98  0.09470705130956407
    w72  w99  -0.0693669492113968
    w72  w100  0.044348687470014934
    w72  w101  0.03196125361922532
    w72  w102  -0.0007464124262533838
    w72  w103  -0.0541635872585223
    w72  w104  0.03783953597566447
    w72  w105  0.007303178329186996
    w72  w106  0.04844260238948986
    w72  w107  0.0968223629403994
    w72  w108  0.10077938080079911
    w72  w109  -0.114767237290002
    w72  w110  0.026827778942225496
    w72  w111  0.01962376646023679
    w72  w112  0.0611070391762437
    w72  w113  0.01168357113880099
    w72  w114  0.1013431344445756
    w72  w115  -0.011408528788665339
    w72  w116  0.12513578261641906
    w72  w117  0.09204414075878128
    w72  w118  0.0908703307532812
    w72  w119  0.09729677913841867
    w72  w120  0.09155705158737115
    w72  w121  -0.06697816391224283
    w72  w122  0.026754921088299348
    w72  w123  0.005267394287675308
    w72  w124  0.016715380892458904
    w72  w125  -0.021392326577721804
    w72  w126  0.06023371790636498
    w72  w127  -0.043360344573907555
    w72  w128  -0.031486759978047826
    w72  w129  -0.05591500227422458
    w72  w130  -0.0010816410695954728
    w72  w131  -0.06458850719624663
    w72  w132  -0.035818295109375405
    w72  w133  0.0013547294355475044
    w72  w134  0.03269991893283274
    w72  w135  0.0005146460996503783
    w72  w136  -0.0735232365659784
    w72  w137  0.018415180667942854
    w72  w138  -0.009450983736044204
    w72  w139  -0.06056411326717755
    w72  w140  0.07121379039786253
    w72  w141  0.07543805150612079
    w72  w142  0.07022772830943312
    w72  w143  -0.05699965345128318
    w72  w144  0.1337118979520094
    w72  w145  0.009323350864031747
    w72  w146  0.031587068734917685
    w72  w147  -0.05463774482970457
    w72  w148  -0.14356960686779105
    w72  w149  -0.07918888273887828
    w72  w150  0.01799265714954439
    w72  w151  0.05668813230356924
    w72  w152  -0.035960076890032236
    w72  w153  -0.11529463974952564
    w72  w154  0.07787934388984068
    w72  w155  0.028621543625081108
    w72  w156  0.027943009738361196
    w72  w157  0.04409719520196522
    w72  w158  -0.025179635359749965
    w72  w159  -0.05527907963875125
    w72  w160  -0.05268058797469991
    w72  w161  0.0033363634467146967
    w72  w162  0.006886449921217929
    w72  w163  -0.10186811224892911
    w72  w164  -0.06856038883170511
    w72  w165  0.05642623455811411
    w72  w166  -0.004999276239029112
    w72  w167  0.01980850489406055
    w72  w168  0.08467658240472187
    w72  w169  0.013633306944869217
    w72  w170  0.028280103220302274
    w72  w171  -0.13106294058321546
    w72  w172  0.05698742017961737
    w72  w173  -0.034619682936519486
    w72  w174  -0.11227938838557495
    w72  w175  0.007729896967324585
    w72  w176  0.040603994176685046
    w72  w177  0.05654394793216503
    w72  w178  -0.019514977717432665
    w72  w179  -0.041883002075276995
    w72  w180  0.0819493540588999
    w72  w181  -0.12520432771258103
    w72  w182  -0.05289167748665403
    w72  w183  -0.010514105297294529
    w72  w184  0.04716279833800533
    w72  w185  0.0009192804747594265
    w72  w186  0.0511369934575719
    w72  w187  0.08105943525534855
    w72  w188  -0.031166626428877835
    w72  w189  0.01055908382681714
    w72  w190  0.17496614109474443
    w72  w191  -7.776149025673076e-05
    w72  w192  0.03689424343191233
    w72  w193  -0.03843471493414318
    w72  w194  -0.022369490035510357
    w72  w195  -0.04403841613811201
    w72  w196  -0.035963035788818966
    w72  w197  0.09530008181298116
    w72  w198  -0.046236378035524564
    w72  w199  -0.04406298403946395
    w73  w73  0.21453331859626273
    w73  w74  0.021224243268639018
    w73  w75  -0.025899937647524372
    w73  w76  -0.028457615872531282
    w73  w77  -0.013208361437281805
    w73  w78  -0.000964720987912044
    w73  w79  -0.03131621336204268
    w73  w80  0.06777773303524601
    w73  w81  -0.04704208249695681
    w73  w82  0.058207207485163094
    w73  w83  -0.06987414427969005
    w73  w84  0.001650041271005933
    w73  w85  0.013020421012347867
    w73  w86  -0.07918305439781777
    w73  w87  -0.030780302059167805
    w73  w88  -0.004234606471375969
    w73  w89  0.06444575009489976
    w73  w90  -0.11690643182961975
    w73  w91  0.09320522453107165
    w73  w92  -0.005719896761326076
    w73  w93  0.0433292027671638
    w73  w94  0.0024348920128000754
    w73  w95  -0.013089665702471153
    w73  w96  -0.029673114931036193
    w73  w97  0.0856610125423807
    w73  w98  0.012063259302537573
    w73  w99  -0.02063732591430262
    w73  w100  0.0033584257101973974
    w73  w101  -0.012735076261070157
    w73  w102  -0.05974350462088216
    w73  w103  -0.08068529323450437
    w73  w104  0.06282315579349988
    w73  w105  0.009260556794923276
    w73  w106  -0.0021186530686975627
    w73  w107  0.025666231867575235
    w73  w108  0.15936804670894242
    w73  w109  -0.06808804155822878
    w73  w110  0.08427988013754158
    w73  w111  0.020468169309592995
    w73  w112  -0.06453317586129854
    w73  w113  -0.08458119720496163
    w73  w114  0.07596606424183466
    w73  w115  -0.09477291109016314
    w73  w116  -0.030692307734684333
    w73  w117  0.06548191774031531
    w73  w118  0.022882858992506343
    w73  w119  -0.007682535632849784
    w73  w120  0.04209063929018286
    w73  w121  -0.06997181767124794
    w73  w122  0.10335132748541
    w73  w123  0.022849252064939606
    w73  w124  0.021316197717592276
    w73  w125  -0.015963555482554084
    w73  w126  0.07152659363938406
    w73  w127  0.07833878527367927
    w73  w128  -0.02194967959000847
    w73  w129  -0.006971742350099787
    w73  w130  -0.008249944949144276
    w73  w131  0.07734225555073658
    w73  w132  -0.04144670704049771
    w73  w133  0.008252479358486569
    w73  w134  -0.02878802414393447
    w73  w135  -0.0033358007611369272
    w73  w136  -0.0667012388132303
    w73  w137  0.11148490552790963
    w73  w138  0.05371653505926592
    w73  w139  -0.02966830408407828
    w73  w140  0.07274024991726999
    w73  w141  0.002693700049015635
    w73  w142  0.10381610447516756
    w73  w143  -0.15915039219780402
    w73  w144  -0.06924161493242573
    w73  w145  -0.04582369882970641
    w73  w146  -0.03240258672437018
    w73  w147  0.039582483918474534
    w73  w148  0.029020580775385975
    w73  w149  0.06625386877788475
    w73  w150  0.039921524936135246
    w73  w151  -0.015288114382712806
    w73  w152  0.04698308181101369
    w73  w153  -0.08098105714956437
    w73  w154  0.09878581473985484
    w73  w155  0.005636593081418551
    w73  w156  0.017168875428213274
    w73  w157  -0.00014929727973444297
    w73  w158  0.0745183546742098
    w73  w159  0.013817411843572009
    w73  w160  -0.10378335428952472
    w73  w161  0.07110627427617182
    w73  w162  0.1305055329940558
    w73  w163  -0.023078012158659088
    w73  w164  0.027564918495093724
    w73  w165  -0.043931886363363995
    w73  w166  -0.07225003829836377
    w73  w167  -0.04793560439658024
    w73  w168  0.0008112029909313987
    w73  w169  0.025079153049661303
    w73  w170  -0.008786849114091907
    w73  w171  -0.08100366108352315
    w73  w172  0.05354106629163994
    w73  w173  -0.02563126330568009
    w73  w174  -0.007329218061511458
    w73  w175  -0.008315758479395523
    w73  w176  0.045902271588235
    w73  w177  -0.004281002804300872
    w73  w178  -0.023364843219724075
    w73  w179  0.0744355159266285
    w73  w180  0.044544875668356215
    w73  w181  -0.007407424679428882
    w73  w182  -0.01300108746888944
    w73  w183  -0.016904767577326917
    w73  w184  0.05921477719200979
    w73  w185  -0.014317550127143799
    w73  w186  -0.10580870028913901
    w73  w187  0.0859160351182849
    w73  w188  0.030567465058179227
    w73  w189  -0.03309119193174481
    w73  w190  0.12555860580467954
    w73  w191  0.02137961345492461
    w73  w192  0.012773871126377085
    w73  w193  -0.09600059280575478
    w73  w194  -0.06904440384252077
    w73  w195  0.016967957230740696
    w73  w196  -0.05264648700058255
    w73  w197  -0.03018964916800348
    w73  w198  -0.025011124367479882
    w73  w199  0.07070599326467715
    w74  w74  0.3063948409059991
    w74  w75  -0.04947792688400494
    w74  w76  -0.01263821821990875
    w74  w77  -0.041104991880289335
    w74  w78  -0.013541994747704966
    w74  w79  -0.11983823306672592
    w74  w80  0.15763819850280184
    w74  w81  0.029281588581905688
    w74  w82  -0.04929389604766086
    w74  w83  0.08784389313865379
    w74  w84  -0.21255454582992817
    w74  w85  -0.019419103897091377
    w74  w86  -0.08931074595546949
    w74  w87  -0.008851578619201017
    w74  w88  -0.021927256522659918
    w74  w89  0.02788401782430089
    w74  w90  0.03547466302479564
    w74  w91  0.040452008557915344
    w74  w92  -0.020118183930371136
    w74  w93  0.03277561827275066
    w74  w94  -0.014023698325918172
    w74  w95  -0.013333514446651139
    w74  w96  0.00114010525947549
    w74  w97  0.04794939059428226
    w74  w98  -0.014389944814913035
    w74  w99  0.10683100737851564
    w74  w100  0.10421333783874982
    w74  w101  -0.020234943679421583
    w74  w102  -0.06422602994948386
    w74  w103  -0.087547323753275
    w74  w104  -0.010226214305453672
    w74  w105  -0.12498686242974986
    w74  w106  -0.09529527006337925
    w74  w107  0.04888355663451339
    w74  w108  0.06627651648822842
    w74  w109  0.11916359249899186
    w74  w110  0.07143901909973865
    w74  w111  0.00754560970377594
    w74  w112  -0.06359452590378598
    w74  w113  0.04183126936331029
    w74  w114  -0.016131110370603118
    w74  w115  -0.0729543890857153
    w74  w116  -0.07535030902096061
    w74  w117  0.0718794064222549
    w74  w118  0.05018884481918037
    w74  w119  -0.07504256451447365
    w74  w120  -0.053792867165376186
    w74  w121  0.0531454190807073
    w74  w122  -0.07717561582034113
    w74  w123  0.10647924700278656
    w74  w124  -0.05293420156382028
    w74  w125  -0.06448567035793512
    w74  w126  0.022546215338632856
    w74  w127  0.1308048221443077
    w74  w128  -0.05348479190273561
    w74  w129  -0.05556681128174369
    w74  w130  -0.001965469836274829
    w74  w131  0.049671386879134215
    w74  w132  -0.013670242687165754
    w74  w133  -0.03771960162494115
    w74  w134  0.03730197125616614
    w74  w135  0.06775861289390907
    w74  w136  0.028640898428168762
    w74  w137  0.02875925934550208
    w74  w138  -0.006839043545926364
    w74  w139  0.018096492313717138
    w74  w140  0.10092444816956762
    w74  w141  0.044568280571947165
    w74  w142  0.04169387131692146
    w74  w143  -0.010799956877500782
    w74  w144  -0.11318372527694767
    w74  w145  0.0028293994832496653
    w74  w146  -0.13961739139106175
    w74  w147  0.020923331421460307
    w74  w148  0.013325466129604975
    w74  w149  -0.005469268196507387
    w74  w150  -0.04862949948611933
    w74  w151  -0.08273488894599074
    w74  w152  -0.018018730839984193
    w74  w153  -0.026916932120016168
    w74  w154  -0.10869181980731475
    w74  w155  -0.08354836955219075
    w74  w156  0.06175967309271451
    w74  w157  -0.053095345522707366
    w74  w158  0.041463055119302185
    w74  w159  0.07588295543548416
    w74  w160  -0.04562117034409464
    w74  w161  -0.006852017097910475
    w74  w162  -0.07785449547785099
    w74  w163  0.06267888608060009
    w74  w164  0.15605878547503269
    w74  w165  0.015263895183237267
    w74  w166  0.08447222220595581
    w74  w167  0.047173198419400264
    w74  w168  -0.15257202346521798
    w74  w169  0.11825113787059993
    w74  w170  0.008534359465167625
    w74  w171  0.02364945020082882
    w74  w172  0.06493811185707893
    w74  w173  0.022878602800999924
    w74  w174  0.06430414736017952
    w74  w175  -0.03773886873833435
    w74  w176  0.0308320251320882
    w74  w177  -0.07878084657973843
    w74  w178  -0.06156725784225399
    w74  w179  0.1029681505751688
    w74  w180  0.004052840197184247
    w74  w181  -0.04789483091509633
    w74  w182  0.048049937372950435
    w74  w183  0.049224378298159926
    w74  w184  0.019848955600337823
    w74  w185  -0.0008476846097762893
    w74  w186  0.023976718005887077
    w74  w187  -0.05672446585478327
    w74  w188  -0.0029053369362651454
    w74  w189  0.02028459737039482
    w74  w190  0.06696164795946032
    w74  w191  0.09734299828487043
    w74  w192  -0.005895675529654839
    w74  w193  0.12796966003135854
    w74  w194  -0.03154453629187584
    w74  w195  -0.03929191814191197
    w74  w196  -0.049186876897256246
    w74  w197  -0.03906218093963555
    w74  w198  0.06702257214461001
    w74  w199  0.006931765260449475
    w75  w75  0.27317008065746584
    w75  w76  -0.11607273787885637
    w75  w77  -0.03512958084532589
    w75  w78  -0.01754352229119765
    w75  w79  0.0829750749571155
    w75  w80  -0.029111716629235354
    w75  w81  -0.016689632338937378
    w75  w82  -0.023302510406416146
    w75  w83  -0.011244902211328376
    w75  w84  0.10994159198132272
    w75  w85  -0.004306664425377249
    w75  w86  -0.09638792108143049
    w75  w87  0.06787062210217722
    w75  w88  0.010742702703717721
    w75  w89  -0.1545758270944672
    w75  w90  -0.027693300173471224
    w75  w91  -0.13766354388902358
    w75  w92  0.012027970633964739
    w75  w93  -0.008626215055316331
    w75  w94  0.01624461081703709
    w75  w95  -0.04897339734111144
    w75  w96  -0.0556274736954451
    w75  w97  0.00467485725195565
    w75  w98  -0.03609352837584977
    w75  w99  -0.012728036217214257
    w75  w100  -0.07302964610545265
    w75  w101  -0.00244125535770064
    w75  w102  0.008894522950270307
    w75  w103  0.00865593984582902
    w75  w104  0.12039960108622497
    w75  w105  0.024171028361602058
    w75  w106  -0.019813358883274228
    w75  w107  0.002071591656023318
    w75  w108  -0.05346160076678582
    w75  w109  0.04867636148219358
    w75  w110  -0.050952929492155755
    w75  w111  -0.02888446865039863
    w75  w112  0.04755253435756265
    w75  w113  -0.03540464098911096
    w75  w114  -0.08447564124617953
    w75  w115  0.049908651047704325
    w75  w116  0.0013525522038978514
    w75  w117  -0.12236808261005222
    w75  w118  -0.11569411247272635
    w75  w119  -0.06543914516624165
    w75  w120  -0.15533592485095754
    w75  w121  0.013794883849645792
    w75  w122  0.03305270709175237
    w75  w123  -0.07645747464607541
    w75  w124  -0.015723335510159985
    w75  w125  -0.014290369615931709
    w75  w126  -0.09258482391587997
    w75  w127  -0.04571895578817488
    w75  w128  0.051077532430513946
    w75  w129  0.025598089250834854
    w75  w130  0.02335040594493
    w75  w131  0.004233742926962644
    w75  w132  0.02124729094381543
    w75  w133  0.026664237319470423
    w75  w134  -0.052079708480603636
    w75  w135  -0.013972057759335124
    w75  w136  0.08414405406203129
    w75  w137  -0.03560066467872059
    w75  w138  0.02050311253526474
    w75  w139  -0.08773123143339513
    w75  w140  -0.09614720483435146
    w75  w141  -0.009316677436423422
    w75  w142  -0.11753906223387726
    w75  w143  -0.004372262154009572
    w75  w144  -0.056885983328265964
    w75  w145  0.023435851504570747
    w75  w146  0.06877787483841703
    w75  w147  0.03475174506446294
    w75  w148  0.15626018981807388
    w75  w149  0.03494588597137462
    w75  w150  0.036899656514087845
    w75  w151  -0.03553341677678045
    w75  w152  0.033300065003091905
    w75  w153  0.16597635703951671
    w75  w154  -0.033020590480103994
    w75  w155  0.05736497921430129
    w75  w156  -0.030989814113907853
    w75  w157  0.01425624603472482
    w75  w158  -0.03422477378954057
    w75  w159  -0.042714634568918816
    w75  w160  0.12535463142033876
    w75  w161  -0.07917008205676494
    w75  w162  -0.01841708236021399
    w75  w163  0.015054284230609182
    w75  w164  -0.09332561083510812
    w75  w165  -0.020896270458021084
    w75  w166  -0.023426269213713102
    w75  w167  -0.10769571296952624
    w75  w168  0.01599447932916585
    w75  w169  -0.08024978421653893
    w75  w170  -0.07130000677373768
    w75  w171  0.1806979235182986
    w75  w172  0.022438393450916885
    w75  w173  0.01934097822589793
    w75  w174  0.025417346708307444
    w75  w175  -0.02517482378816789
    w75  w176  -0.02394795470122835
    w75  w177  -0.06396407775248973
    w75  w178  0.001979025817983155
    w75  w179  -0.07308895551036781
    w75  w180  -0.055478872101959176
    w75  w181  0.15055675917264505
    w75  w182  0.05551213094192242
    w75  w183  0.02560114498572598
    w75  w184  -0.04057211108928667
    w75  w185  -0.011033579507050771
    w75  w186  0.028421797906028376
    w75  w187  0.027817266616075795
    w75  w188  -0.041158277165116726
    w75  w189  0.026549518012375664
    w75  w190  -0.15222909459576267
    w75  w191  -0.09904717818458449
    w75  w192  -0.012494748058884186
    w75  w193  -0.033188834827077844
    w75  w194  0.051399149549415414
    w75  w195  -0.046724887894182825
    w75  w196  0.05053657343842826
    w75  w197  -0.019890386673032674
    w75  w198  -0.08950559236198494
    w75  w199  0.0809685688267261
    w76  w76  0.28971766795018955
    w76  w77  0.02525795942403512
    w76  w78  0.06432273679404099
    w76  w79  -0.12574231440190756
    w76  w80  0.05597111402500906
    w76  w81  0.039864172419838646
    w76  w82  -0.061836272556179565
    w76  w83  0.06755853755904426
    w76  w84  -0.02830958688650697
    w76  w85  0.07039675327464899
    w76  w86  0.13907926091313125
    w76  w87  -0.09702438503659694
    w76  w88  -0.013177517444621577
    w76  w89  0.13400543027731976
    w76  w90  0.10993456803713922
    w76  w91  0.10387938767078525
    w76  w92  0.034856373177837456
    w76  w93  0.01193183030663483
    w76  w94  0.011218284331245538
    w76  w95  0.1010101191540309
    w76  w96  0.09105868565519734
    w76  w97  -0.0028356903217232167
    w76  w98  0.0314667648720649
    w76  w99  0.02798176470198911
    w76  w100  0.038630083521548245
    w76  w101  0.01893270261772658
    w76  w102  0.004490759559788022
    w76  w103  0.17644722545194802
    w76  w104  -0.17267793704903753
    w76  w105  -0.009133418814109368
    w76  w106  0.021877432569722712
    w76  w107  -0.1022217799228751
    w76  w108  0.018526734244904596
    w76  w109  0.047893558028689456
    w76  w110  0.015055352999144553
    w76  w111  -0.062256242918609664
    w76  w112  -0.001808935533151721
    w76  w113  0.0018625907673468817
    w76  w114  0.13593175465134874
    w76  w115  0.011680428597779896
    w76  w116  0.03558637893115964
    w76  w117  0.05783234987966645
    w76  w118  0.08416480846651093
    w76  w119  0.04207659115842062
    w76  w120  0.17850897456589734
    w76  w121  -0.0036682381948265307
    w76  w122  -0.0490315378106296
    w76  w123  -0.0017540699257270827
    w76  w124  0.09808031151916187
    w76  w125  -0.024935298462098583
    w76  w126  0.005922108712480332
    w76  w127  0.025053493782206285
    w76  w128  -0.011585236425457782
    w76  w129  -0.0006915972738674149
    w76  w130  0.0132775124866157
    w76  w131  0.07471103908181029
    w76  w132  0.06590767798040034
    w76  w133  -0.061332115657375536
    w76  w134  0.2153599825857845
    w76  w135  0.06265628957173493
    w76  w136  -0.08594383607722868
    w76  w137  -0.06339183994339105
    w76  w138  -0.03367169101000801
    w76  w139  0.11568895029795899
    w76  w140  0.05801521002787801
    w76  w141  -0.05637662909856123
    w76  w142  0.07229085700275649
    w76  w143  0.016229535338804772
    w76  w144  0.09428866533953194
    w76  w145  0.015649956649029805
    w76  w146  -0.01748431109451093
    w76  w147  -0.04243171649475994
    w76  w148  -0.11990812872352143
    w76  w149  -0.12137123248007825
    w76  w150  -0.03694812648151906
    w76  w151  0.016981040007546702
    w76  w152  -0.017515592221625187
    w76  w153  -0.08213172648529728
    w76  w154  0.09734823300833846
    w76  w155  -0.07175160294872775
    w76  w156  0.030226960282700412
    w76  w157  0.0008621050988974108
    w76  w158  -0.0358311641322765
    w76  w159  -0.05153011504713716
    w76  w160  -0.06370074710685436
    w76  w161  0.1583382954822433
    w76  w162  0.11379797497131144
    w76  w163  -0.012393112261983773
    w76  w164  0.008984934398314019
    w76  w165  -0.03538643038684393
    w76  w166  0.05870003899970186
    w76  w167  0.10224565218508411
    w76  w168  0.03015320747313033
    w76  w169  -0.036312568999094665
    w76  w170  -0.07290273615525364
    w76  w171  -0.1326690913449568
    w76  w172  -0.04485498812049377
    w76  w173  0.08876161594289605
    w76  w174  -0.024460617435559315
    w76  w175  0.07032753700127116
    w76  w176  0.013894796580598027
    w76  w177  0.04957473059733029
    w76  w178  -0.02685377851945662
    w76  w179  -0.010107852107686346
    w76  w180  -0.008431111339262578
    w76  w181  0.0184198778468519
    w76  w182  -0.12869055656471104
    w76  w183  -0.0720256552770275
    w76  w184  0.021034691862070718
    w76  w185  -0.008350772603195583
    w76  w186  0.0879052470407862
    w76  w187  -0.04498767950192099
    w76  w188  0.08103437015290452
    w76  w189  -0.019912454674840645
    w76  w190  -0.012783533217705808
    w76  w191  -0.020651111054873335
    w76  w192  0.011911042725043702
    w76  w193  0.008367008524981321
    w76  w194  0.022335187823736464
    w76  w195  0.1134230456886382
    w76  w196  -0.09396171431144405
    w76  w197  0.022202455000923063
    w76  w198  0.026080457277937643
    w76  w199  -0.1354812357042094
    w77  w77  0.19444405035452378
    w77  w78  -0.0018390385951166047
    w77  w79  0.011356576983668086
    w77  w80  -0.017811313267884803
    w77  w81  -0.046089725334611566
    w77  w82  0.003808062259831437
    w77  w83  0.007013758831779249
    w77  w84  -0.015801374715136776
    w77  w85  -0.01781169375962939
    w77  w86  0.10012818919224357
    w77  w87  -0.12073833697936141
    w77  w88  -0.015985351886598553
    w77  w89  0.06678516557019369
    w77  w90  -0.08686366613473423
    w77  w91  -0.007376411155487101
    w77  w92  0.011394633959559228
    w77  w93  -0.028233243375504258
    w77  w94  -0.015509736477487442
    w77  w95  0.12046136195854594
    w77  w96  0.06307605157025128
    w77  w97  0.006880022328103617
    w77  w98  -0.09673382154994146
    w77  w99  -0.018717558980817315
    w77  w100  -0.025121612955147404
    w77  w101  -0.017279287710639378
    w77  w102  0.04445987570570683
    w77  w103  0.03154113485400563
    w77  w104  -0.10850480188111154
    w77  w105  0.07085164277327792
    w77  w106  0.05033361460146841
    w77  w107  -0.07058711527024834
    w77  w108  -0.092348459450419
    w77  w109  -0.016124487167872115
    w77  w110  -0.043741762972891875
    w77  w111  0.016048630125683493
    w77  w112  -0.05095749169575731
    w77  w113  0.02201055287724011
    w77  w114  -0.06953913139884434
    w77  w115  0.022663715960810692
    w77  w116  -0.09348036888691878
    w77  w117  -0.058661537415805314
    w77  w118  0.02781103742607842
    w77  w119  0.03157558658213658
    w77  w120  0.07124657097025167
    w77  w121  -0.015064198743903176
    w77  w122  -0.013909228629357236
    w77  w123  0.01912294755440037
    w77  w124  -0.001816608659729616
    w77  w125  0.11080152572232536
    w77  w126  0.0319495312010019
    w77  w127  -0.015399271513320082
    w77  w128  0.0026908303378588823
    w77  w129  0.06259160732849339
    w77  w130  -0.004112358567604353
    w77  w131  -0.0014874469032423996
    w77  w132  0.029087510210424827
    w77  w133  0.05663850214145851
    w77  w134  -0.06800109112508673
    w77  w135  -0.06762406188473935
    w77  w136  -0.022978007164254386
    w77  w137  -0.02690461662145331
    w77  w138  -0.008355841924950168
    w77  w139  0.11714130590809321
    w77  w140  -0.03429494838707072
    w77  w141  -0.038731746589355444
    w77  w142  -0.052698423815512985
    w77  w143  0.08773833891334437
    w77  w144  -0.009939334068229074
    w77  w145  -0.03535720409876605
    w77  w146  -0.003941001642926995
    w77  w147  0.018168073607787154
    w77  w148  -0.03184281322181257
    w77  w149  0.08146053947828101
    w77  w150  -0.032079864910458306
    w77  w151  0.07720312199961743
    w77  w152  0.0036513765828245152
    w77  w153  -0.050321156167583404
    w77  w154  -0.036544686870958236
    w77  w155  0.001909739716595031
    w77  w156  -0.028725354639182896
    w77  w157  -0.0019531793931452136
    w77  w158  0.05500494058044755
    w77  w159  0.05709781492944692
    w77  w160  -0.061811386287620985
    w77  w161  0.05073661223430878
    w77  w162  0.013289098521775277
    w77  w163  0.019029078761805217
    w77  w164  0.07262392622053303
    w77  w165  -0.0339908538074829
    w77  w166  -0.005774148306410284
    w77  w167  0.04891877692567389
    w77  w168  -0.008562512241015934
    w77  w169  -0.021125050840276056
    w77  w170  0.07813325642108819
    w77  w171  -0.017737069967704886
    w77  w172  -0.1352134486265086
    w77  w173  -0.02567285706313325
    w77  w174  0.021780201661393207
    w77  w175  -0.012884496654676222
    w77  w176  -0.0452695277768064
    w77  w177  0.07930183904897
    w77  w178  0.08263818035883017
    w77  w179  0.03642544105761181
    w77  w180  -0.0015057626419538357
    w77  w181  -0.03118275963477015
    w77  w182  -0.00415656656447745
    w77  w183  -0.028925920845818343
    w77  w184  -0.03341877623724507
    w77  w185  0.016329649485847572
    w77  w186  -0.13462404976166573
    w77  w187  -0.05107624807279287
    w77  w188  0.050420548376594924
    w77  w189  -0.04938408400259329
    w77  w190  -0.05858728447807729
    w77  w191  0.038527843525979794
    w77  w192  -0.029747782093414395
    w77  w193  -0.0365674145684001
    w77  w194  -0.011843803481482913
    w77  w195  0.07211135605608034
    w77  w196  0.01914112255919168
    w77  w197  -0.057642812589708194
    w77  w198  0.10841625760503447
    w77  w199  -0.0659607861942247
    w78  w78  0.11291752237518249
    w78  w79  -0.0050182179801225545
    w78  w80  0.050770997664751426
    w78  w81  -0.02062766697409941
    w78  w82  -0.03561467731405736
    w78  w83  0.04664451297996529
    w78  w84  0.06248199432118963
    w78  w85  0.05348826903956586
    w78  w86  0.02375704285837943
    w78  w87  -0.003630133328504731
    w78  w88  -0.001766079175402987
    w78  w89  0.032800238603958774
    w78  w90  -0.020907004951392912
    w78  w91  0.027081571166495476
    w78  w92  0.029398321855566057
    w78  w93  -0.007502894142140704
    w78  w94  -0.021107531570539472
    w78  w95  -0.007640261194725811
    w78  w96  0.036634533044641635
    w78  w97  0.008416323591084619
    w78  w98  0.022739004877850345
    w78  w99  0.029452142587173755
    w78  w100  -0.0006282680491673762
    w78  w101  0.018800050686090055
    w78  w102  -0.040867150727283356
    w78  w103  0.051551524122101906
    w78  w104  0.009722246092362089
    w78  w105  -0.06070708238692873
    w78  w106  -0.0016885080138221726
    w78  w107  -0.05013853373476879
    w78  w108  0.03950320339674489
    w78  w109  -0.01277905646318995
    w78  w110  -0.034917647214807675
    w78  w111  0.01924483620249098
    w78  w112  0.07461598972531329
    w78  w113  -0.02980023133773336
    w78  w114  0.04733213288718238
    w78  w115  0.055305569219435996
    w78  w116  0.039855206477902985
    w78  w117  0.03087856526902003
    w78  w118  0.04154990639777661
    w78  w119  0.05015366820574936
    w78  w120  0.06904898736004506
    w78  w121  -0.04809280560181858
    w78  w122  0.033414004856096295
    w78  w123  0.03822321736845228
    w78  w124  0.03814517383209691
    w78  w125  -0.029543969684855495
    w78  w126  0.021093614514978085
    w78  w127  0.03302725643428534
    w78  w128  0.026500425868781076
    w78  w129  0.011904917358573764
    w78  w130  -0.06693943901896761
    w78  w131  0.013792334714444465
    w78  w132  0.017852980049304263
    w78  w133  -0.003900343872919297
    w78  w134  0.045388768682060765
    w78  w135  0.04668646309562992
    w78  w136  -0.007715010398970308
    w78  w137  0.0002450411242977424
    w78  w138  -0.05531222906537064
    w78  w139  -0.005458288207252868
    w78  w140  -0.01460637130622751
    w78  w141  -0.011884145708311906
    w78  w142  0.09216060191176538
    w78  w143  0.020180328521445676
    w78  w144  0.03811294697951919
    w78  w145  -0.0008177273761053091
    w78  w146  0.027752053061838096
    w78  w147  0.03262706324538353
    w78  w148  -0.06357990968572531
    w78  w149  -0.08977182844598165
    w78  w150  -0.01661063368850475
    w78  w151  -0.028820849328399196
    w78  w152  0.05273106885552265
    w78  w153  -0.08667338344503485
    w78  w154  0.04954282892272655
    w78  w155  0.06888578590329437
    w78  w156  0.041068055997785215
    w78  w157  0.015159565308437083
    w78  w158  0.00461922096439177
    w78  w159  -0.06768717057894416
    w78  w160  -0.013740747475396765
    w78  w161  0.003901451216292337
    w78  w162  0.03632916552760945
    w78  w163  0.020595015137912908
    w78  w164  -0.003320858552558165
    w78  w165  0.006026628105868969
    w78  w166  -0.01861265625701555
    w78  w167  0.03649001456769548
    w78  w168  -0.018101974919953346
    w78  w169  0.0006585628125655886
    w78  w170  -0.09236961767095013
    w78  w171  -0.029293372341472886
    w78  w172  0.008301681968122237
    w78  w173  0.008532716632856813
    w78  w174  0.04006842913516582
    w78  w175  0.02685337397058676
    w78  w176  -0.034048212446531945
    w78  w177  -0.03481588291454313
    w78  w178  -0.0602207694863168
    w78  w179  -0.005360469290472969
    w78  w180  0.044027133996360795
    w78  w181  0.027959450016083534
    w78  w182  -0.09017373928274484
    w78  w183  -0.04439224643250601
    w78  w184  0.028808142766690453
    w78  w185  0.039290226094682766
    w78  w186  0.0194705610538741
    w78  w187  -0.011307372450642724
    w78  w188  0.0028800373527366205
    w78  w189  -0.008407995750167152
    w78  w190  -0.024770367493716073
    w78  w191  -0.04162956040779293
    w78  w192  0.02252332189963146
    w78  w193  -0.03389982181076352
    w78  w194  0.006109668307102123
    w78  w195  0.03252968072056966
    w78  w196  -0.09031618168310838
    w78  w197  -0.010851690828396337
    w78  w198  0.010029042832558302
    w78  w199  -0.03146055226658373
    w79  w79  0.2813422938995478
    w79  w80  -0.11324397863835889
    w79  w81  -0.06255491531734082
    w79  w82  0.008216429538819214
    w79  w83  -0.05310282514991549
    w79  w84  0.12830529422582657
    w79  w85  -0.07125660366956371
    w79  w86  -0.028820327776990593
    w79  w87  0.09618121316554866
    w79  w88  0.06836526430814935
    w79  w89  -0.11952285110244454
    w79  w90  -0.0782673024535291
    w79  w91  -0.10453909972071397
    w79  w92  -0.02259820171551356
    w79  w93  -0.07096262220384147
    w79  w94  -0.007017144288476751
    w79  w95  -0.02042353907770573
    w79  w96  -0.07802645433997149
    w79  w97  -0.037560919374412326
    w79  w98  -0.029980751713737163
    w79  w99  -0.03873621684822907
    w79  w100  -0.09028904958696987
    w79  w101  0.03764558266768762
    w79  w102  0.06273310000372358
    w79  w103  -0.03131800665465237
    w79  w104  0.11356293982150671
    w79  w105  0.04363182368028225
    w79  w106  0.048244188770336614
    w79  w107  0.03883770173521684
    w79  w108  -0.1015338646199413
    w79  w109  -0.09664829486845096
    w79  w110  -0.11424581629953183
    w79  w111  0.12546962129732914
    w79  w112  0.07930230944610249
    w79  w113  -0.009255137636418307
    w79  w114  -0.11475771489743303
    w79  w115  0.1023831174284651
    w79  w116  0.08306363124173187
    w79  w117  -0.04362668153888289
    w79  w118  -0.03730448623508326
    w79  w119  0.05896763231770376
    w79  w120  -0.05185946003883743
    w79  w121  -0.009223158994209826
    w79  w122  0.04886267286052656
    w79  w123  -0.049105307375388034
    w79  w124  0.015530943501443168
    w79  w125  0.026725499723454144
    w79  w126  -0.03368661233072698
    w79  w127  -0.07515232857984469
    w79  w128  0.045777824887138704
    w79  w129  0.004899361388267343
    w79  w130  -0.024212935353819083
    w79  w131  -0.13866435678611985
    w79  w132  -0.04757259926623328
    w79  w133  0.053257081481489416
    w79  w134  -0.15335310782278988
    w79  w135  -0.050277612456632946
    w79  w136  0.055474526567804196
    w79  w137  0.006812082467667231
    w79  w138  -0.006641359222063014
    w79  w139  -0.07860733916523724
    w79  w140  -0.14297546034808248
    w79  w141  -0.004210224313854014
    w79  w142  -0.07127440451727679
    w79  w143  0.08512245905117521
    w79  w144  0.011620636181211473
    w79  w145  -0.008631630568417497
    w79  w146  0.0838409019346141
    w79  w147  0.0452244891720976
    w79  w148  0.020875201077114387
    w79  w149  0.05411538341880365
    w79  w150  0.01340903674507552
    w79  w151  0.037688708514246494
    w79  w152  0.04156916850164714
    w79  w153  0.034841012040979544
    w79  w154  -0.03201505520534931
    w79  w155  0.1381445136515911
    w79  w156  -0.02968214715596464
    w79  w157  -0.013017609173311417
    w79  w158  0.001320307702977687
    w79  w159  -0.061836129242588994
    w79  w160  0.08185218256492709
    w79  w161  -0.1315927167837338
    w79  w162  -0.08133347790692673
    w79  w163  -0.02182971546601187
    w79  w164  -0.09859941155156615
    w79  w165  0.08866704918222411
    w79  w166  -0.09851593719541406
    w79  w167  -0.06716986723801999
    w79  w168  0.10305483066506124
    w79  w169  -0.05205918035090249
    w79  w170  -0.002921966545929604
    w79  w171  0.10780795783606467
    w79  w172  -0.04454239423963502
    w79  w173  -0.10036658613851193
    w79  w174  0.01339038839341561
    w79  w175  -0.024037890327057474
    w79  w176  -0.033335274826451565
    w79  w177  -0.009768807940637312
    w79  w178  0.013138241259719114
    w79  w179  -0.09080574269637737
    w79  w180  0.056192714385548
    w79  w181  -0.01805368173945021
    w79  w182  0.02785818602835091
    w79  w183  0.011495076146530725
    w79  w184  -0.025281246529324806
    w79  w185  0.038949952747392255
    w79  w186  -0.0490811724825681
    w79  w187  0.04344573083438264
    w79  w188  -0.06519071230234562
    w79  w189  0.03654489106464175
    w79  w190  -0.03766300862701315
    w79  w191  -0.00960909527650127
    w79  w192  -0.06279557866258384
    w79  w193  -0.05312325910271927
    w79  w194  -0.019946350276938377
    w79  w195  -0.0737514582860222
    w79  w196  0.03849485214210622
    w79  w197  0.033600042956481085
    w79  w198  -0.050225833546930373
    w79  w199  0.0635063660370229
    w80  w80  0.3671473883665388
    w80  w81  -0.026268544140205196
    w80  w82  -0.11444614798345334
    w80  w83  0.0992867823921103
    w80  w84  -0.08542049383314276
    w80  w85  0.07590129813292115
    w80  w86  -0.05834603549799373
    w80  w87  -0.030909644781532963
    w80  w88  -0.11975345123981335
    w80  w89  0.09343178597503707
    w80  w90  -0.06833988054389291
    w80  w91  0.05120167570772867
    w80  w92  -0.012742548118535438
    w80  w93  0.007410355503071992
    w80  w94  -0.06627779820645292
    w80  w95  0.000748026222913726
    w80  w96  -0.007090009589425794
    w80  w97  0.09767744059284812
    w80  w98  -0.029351995475204923
    w80  w99  0.10813169392184087
    w80  w100  -0.015860573359870355
    w80  w101  -0.04666475473439588
    w80  w102  -0.10011885039336943
    w80  w103  -0.08179836474140072
    w80  w104  -0.006151978126416385
    w80  w105  -0.08540595016567334
    w80  w106  -0.08102750240837953
    w80  w107  -0.0053571212482698746
    w80  w108  0.08844757626746205
    w80  w109  0.08397720378885791
    w80  w110  0.06897562068847087
    w80  w111  0.005818914075108812
    w80  w112  -0.04502628199136412
    w80  w113  -0.046023103657219074
    w80  w114  0.0333339237247567
    w80  w115  -0.022652065032881804
    w80  w116  -0.05165460114012794
    w80  w117  0.0828606829665401
    w80  w118  0.03516950677526353
    w80  w119  -0.06749116748875697
    w80  w120  0.0509764595707054
    w80  w121  -0.02644357647404863
    w80  w122  -0.020125887399924144
    w80  w123  0.13346335607085197
    w80  w124  0.03900577635555223
    w80  w125  -0.1053427989394624
    w80  w126  0.02536297953254668
    w80  w127  0.15333150178994748
    w80  w128  0.01282210821612467
    w80  w129  0.03149799878603689
    w80  w130  -0.04691781058776459
    w80  w131  0.07319490931297118
    w80  w132  0.04008802258305303
    w80  w133  0.02549272259115712
    w80  w134  0.13014225911573116
    w80  w135  0.07748496840516324
    w80  w136  -0.07683173275639939
    w80  w137  0.031749155473107936
    w80  w138  -0.015671941437643735
    w80  w139  -0.02603492736030333
    w80  w140  0.08970597406632404
    w80  w141  0.02201481571677486
    w80  w142  0.078370797271372
    w80  w143  0.06552535752233163
    w80  w144  -0.028545550624406796
    w80  w145  -0.006211969225783466
    w80  w146  -0.05597363409501783
    w80  w147  0.055298046719648566
    w80  w148  0.0048593680098888365
    w80  w149  -0.08076846665501147
    w80  w150  -0.1038798096599962
    w80  w151  -0.07904749511124307
    w80  w152  0.04175601762711222
    w80  w153  -0.027361501135654626
    w80  w154  -0.024647458618820853
    w80  w155  0.043721409925745726
    w80  w156  0.0901255530750123
    w80  w157  -0.06503741698612427
    w80  w158  0.04572681078667706
    w80  w159  -0.056987921923512985
    w80  w160  -0.10151015787386816
    w80  w161  0.09234462890837816
    w80  w162  0.04338952386015184
    w80  w163  0.1263023232717919
    w80  w164  0.09120860111632856
    w80  w165  0.023067118081052888
    w80  w166  0.04760462777205436
    w80  w167  0.08758764996110101
    w80  w168  -0.13257307374896707
    w80  w169  -0.05288289810284456
    w80  w170  -0.10047833644251233
    w80  w171  -0.013098503203627723
    w80  w172  0.04982463942139663
    w80  w173  0.07327681421064215
    w80  w174  0.137314156804071
    w80  w175  0.004258768798046989
    w80  w176  0.04862289524808035
    w80  w177  -0.06311204062652957
    w80  w178  -0.14654352730338144
    w80  w179  0.19808396822799415
    w80  w180  0.05305948070970749
    w80  w181  0.11445624741385098
    w80  w182  -0.0661850542030033
    w80  w183  -0.03229889010287008
    w80  w184  0.13116540038554048
    w80  w185  0.039018319203506034
    w80  w186  0.026528121696004898
    w80  w187  -0.06125681242746351
    w80  w188  -0.008618514966676837
    w80  w189  0.038690640800703585
    w80  w190  0.012048669982344848
    w80  w191  -0.029958487018894794
    w80  w192  -0.049905081639985076
    w80  w193  0.03620781222259573
    w80  w194  0.012212039356339285
    w80  w195  -0.00796565261129122
    w80  w196  -0.14071375075688808
    w80  w197  -0.06950162879751828
    w80  w198  0.0874641747173828
    w80  w199  -0.006182140145811799
    w81  w81  0.1856768265254063
    w81  w82  -0.002918556816166187
    w81  w83  0.049882258760922525
    w81  w84  -0.05706783789451183
    w81  w85  0.018534922158109802
    w81  w86  -0.015605965074895018
    w81  w87  0.019614195206799113
    w81  w88  0.0077240665153644516
    w81  w89  -0.023399633584459824
    w81  w90  0.1461393146986748
    w81  w91  -0.00548117226747094
    w81  w92  -0.00993267908994295
    w81  w93  0.034803620190701226
    w81  w94  0.018805661249019803
    w81  w95  -0.06655157886742596
    w81  w96  0.013721459011258952
    w81  w97  -0.10630491767122122
    w81  w98  0.010809411043575495
    w81  w99  -0.0037148281600273923
    w81  w100  0.05833687841962145
    w81  w101  -0.018722658795820607
    w81  w102  0.00618771300289601
    w81  w103  0.03257787259613756
    w81  w104  -0.011570110296795487
    w81  w105  0.023620241290291995
    w81  w106  -0.04426536292174573
    w81  w107  0.09921231401938176
    w81  w108  0.0036675743403468725
    w81  w109  0.11712687701374033
    w81  w110  0.05670651702659033
    w81  w111  -0.08350826400063567
    w81  w112  0.0205916876931841
    w81  w113  0.09038812632703447
    w81  w114  0.03032875516217994
    w81  w115  -0.04079699531712137
    w81  w116  0.00930164115676824
    w81  w117  0.007488529602183606
    w81  w118  0.011641612887317002
    w81  w119  -0.02279128271959253
    w81  w120  -0.03843525917963323
    w81  w121  -0.006595595282183893
    w81  w122  -0.09669629924709236
    w81  w123  -0.008824444916435473
    w81  w124  -0.06059255668489719
    w81  w125  -0.03504587143207003
    w81  w126  -0.016412122339187284
    w81  w127  -0.027488624179854045
    w81  w128  -0.0019514472020302207
    w81  w129  -0.0025402833044120537
    w81  w130  0.04811601223899633
    w81  w131  0.017873556508999543
    w81  w132  0.042246216976870185
    w81  w133  -0.006515129073352105
    w81  w134  0.089277814257123
    w81  w135  0.03314094382241621
    w81  w136  0.0016420770209548152
    w81  w137  -0.08185144615518133
    w81  w138  -0.03998020844477709
    w81  w139  0.01376211310057552
    w81  w140  0.0868342853668084
    w81  w141  0.06207768525704232
    w81  w142  -0.0719131390245272
    w81  w143  -0.017259731103615016
    w81  w144  0.046140942312367206
    w81  w145  0.022118365797398877
    w81  w146  -0.016419791693490636
    w81  w147  -0.07345114978727395
    w81  w148  0.0006492903086452227
    w81  w149  -0.0535720879156972
    w81  w150  -0.029144817528299373
    w81  w151  0.014741774021023018
    w81  w152  -0.06645563046678463
    w81  w153  0.07617793917235754
    w81  w154  -0.015488408326696134
    w81  w155  -0.07828400786800334
    w81  w156  0.022538342811508235
    w81  w157  0.047367274426031045
    w81  w158  -0.048519482576302085
    w81  w159  0.032161635502692396
    w81  w160  0.04351551033392897
    w81  w161  0.0033713280155165605
    w81  w162  -0.03102915147498807
    w81  w163  -0.007566487793292749
    w81  w164  -0.005512499196882251
    w81  w165  -0.03974858209404461
    w81  w166  0.11146207919561554
    w81  w167  0.01309718686511869
    w81  w168  -0.03453740856805063
    w81  w169  0.010787641798929442
    w81  w170  0.01749229599972646
    w81  w171  0.01782755568227005
    w81  w172  0.028827241011499506
    w81  w173  0.03184414740960975
    w81  w174  -0.07692780288271533
    w81  w175  -0.025674907913801403
    w81  w176  0.03355640025452825
    w81  w177  0.011517187040948056
    w81  w178  0.013764623537101247
    w81  w179  -0.021117423382317566
    w81  w180  -0.059908021516146534
    w81  w181  0.005329719417702871
    w81  w182  -0.012340029886068346
    w81  w183  0.054534383474208165
    w81  w184  0.01825398719878164
    w81  w185  -0.03655091621346221
    w81  w186  0.1568845444342642
    w81  w187  -0.006505491290201243
    w81  w188  -0.011290588515324627
    w81  w189  -0.04319893120775445
    w81  w190  -0.015164517734726653
    w81  w191  -0.05395432526707818
    w81  w192  0.044022919754855575
    w81  w193  0.06036135369810179
    w81  w194  0.05472805621124285
    w81  w195  -0.029012318624519463
    w81  w196  0.004821642440983317
    w81  w197  0.017177131433238325
    w81  w198  -0.02066644304951057
    w81  w199  -0.06347439180631062
    w82  w82  0.36813219013542664
    w82  w83  -0.12944407630160096
    w82  w84  0.028493963915503767
    w82  w85  0.07651394449702613
    w82  w86  0.08649251782849
    w82  w87  -0.0636516640217214
    w82  w88  0.04261596954635675
    w82  w89  0.05730773918529303
    w82  w90  -0.13609915148387688
    w82  w91  0.04680951850732132
    w82  w92  0.024337845898602127
    w82  w93  0.10785085862309947
    w82  w94  0.11124231968370611
    w82  w95  -0.0017158461662700921
    w82  w96  0.027983605198500246
    w82  w97  0.07198809952570441
    w82  w98  0.033206729852214865
    w82  w99  -0.1174752617871028
    w82  w100  0.1093895694650892
    w82  w101  0.0345225615433899
    w82  w102  -0.046576520099830834
    w82  w103  -0.16425226496607553
    w82  w104  0.058579707243349786
    w82  w105  -0.05467790099570057
    w82  w106  0.09903237048300575
    w82  w107  -0.025031694730227504
    w82  w108  0.18428329805853633
    w82  w109  -0.13024449732906998
    w82  w110  -0.016086055408307712
    w82  w111  -0.0990612452709967
    w82  w112  0.013215493037535058
    w82  w113  -0.08105376982613255
    w82  w114  0.022385168909963643
    w82  w115  -0.0067757006973829925
    w82  w116  -0.01832253208232576
    w82  w117  -0.11356945858454806
    w82  w118  0.10487716106882065
    w82  w119  0.02267843372234763
    w82  w120  -0.0023715317673695126
    w82  w121  -0.049819213675096896
    w82  w122  0.11587863890608145
    w82  w123  0.004450905412529486
    w82  w124  -0.006374870398747578
    w82  w125  0.08137134491804814
    w82  w126  0.04839514686721019
    w82  w127  -0.03171674440519827
    w82  w128  -0.12140690738078254
    w82  w129  -0.10573793465674512
    w82  w130  0.06255966838428098
    w82  w131  0.05230051230845615
    w82  w132  0.0035320915559029276
    w82  w133  0.036716223697916904
    w82  w134  -0.04388159087021168
    w82  w135  -0.0815951073099349
    w82  w136  -0.02647387049726482
    w82  w137  0.008201539060365687
    w82  w138  0.1036011080153545
    w82  w139  -0.08224425687952394
    w82  w140  0.05691315680588884
    w82  w141  0.09829110884514985
    w82  w142  -0.0013157620250865102
    w82  w143  -0.15896275295509074
    w82  w144  -0.0009070210065328986
    w82  w145  0.05393018074477344
    w82  w146  0.012557996249195446
    w82  w147  0.010606579768928306
    w82  w148  -0.08595976401402833
    w82  w149  0.00325893574940175
    w82  w150  0.1189762903089154
    w82  w151  0.04873817031898506
    w82  w152  -0.03392367304689539
    w82  w153  -0.17635437265128923
    w82  w154  -0.03498272733960557
    w82  w155  0.009015969768343119
    w82  w156  -0.0043702506277520205
    w82  w157  0.07560038577573136
    w82  w158  0.00924518732012423
    w82  w159  -0.029991396799418236
    w82  w160  -0.13328372991934712
    w82  w161  0.038968367478456126
    w82  w162  0.01654568140647331
    w82  w163  -0.18160910072057498
    w82  w164  -0.004437648307034244
    w82  w165  -0.008075894424639862
    w82  w166  0.023213841649512384
    w82  w167  -0.029555999091516242
    w82  w168  0.02414399161973456
    w82  w169  0.007592264206583154
    w82  w170  0.04913004719937018
    w82  w171  -0.05601790915680537
    w82  w172  0.08875868986354812
    w82  w173  0.06694708155127374
    w82  w174  -0.10446410273115338
    w82  w175  -0.04503187131355807
    w82  w176  -0.02701105287535893
    w82  w177  0.05417202117462277
    w82  w178  0.03820721216811393
    w82  w179  -0.07510762226237032
    w82  w180  0.06739353730488869
    w82  w181  -0.09746999150011605
    w82  w182  0.08870917692497907
    w82  w183  -0.05207849767677372
    w82  w184  -0.10581555686450493
    w82  w185  -0.026276651722146674
    w82  w186  -0.1550160323718895
    w82  w187  0.10418475824630853
    w82  w188  0.00320194314577411
    w82  w189  0.0896385263843289
    w82  w190  0.13186521770205403
    w82  w191  0.04005434015718705
    w82  w192  0.06977311008730012
    w82  w193  -0.11110559307867404
    w82  w194  -0.024074487586656652
    w82  w195  -0.020387892196170796
    w82  w196  0.006048110790182554
    w82  w197  0.03829178512914859
    w82  w198  -0.028103638472106257
    w82  w199  -0.049947415194154056
    w83  w83  0.26702213042601664
    w83  w84  -0.06165162389583366
    w83  w85  0.021095612240718563
    w83  w86  -0.026537438455380567
    w83  w87  -0.011928530367858523
    w83  w88  0.000459464356047845
    w83  w89  -0.010963851040177323
    w83  w90  0.07596307960070534
    w83  w91  -0.030680269548801382
    w83  w92  0.01097113491326685
    w83  w93  -0.016205564500965882
    w83  w94  -0.041259973261792475
    w83  w95  -0.019867385843731784
    w83  w96  0.05369569288420218
    w83  w97  -0.08423785235466481
    w83  w98  -0.06324569306343467
    w83  w99  0.0907002663730741
    w83  w100  0.0382279302132329
    w83  w101  -0.01397777673523579
    w83  w102  -0.021400528733643828
    w83  w103  0.08185235903117223
    w83  w104  -0.02056899329305973
    w83  w105  -0.04844328696650467
    w83  w106  -0.07852163216870756
    w83  w107  0.04175667578501881
    w83  w108  -0.04726095975117909
    w83  w109  0.17237863254575223
    w83  w110  -0.017214703465055745
    w83  w111  0.0057246467782192
    w83  w112  0.07117621013891055
    w83  w113  0.09647919242511403
    w83  w114  -0.03288705431461899
    w83  w115  0.04294744712102037
    w83  w116  -0.020522542645092734
    w83  w117  0.02377044274793303
    w83  w118  0.05337639624577914
    w83  w119  0.008744502897182156
    w83  w120  0.0026665298980091054
    w83  w121  -0.03234869403068264
    w83  w122  -0.11097082805389132
    w83  w123  0.07854902428228269
    w83  w124  -0.04342880699121431
    w83  w125  -0.04814718274098663
    w83  w126  -0.0009363779134350702
    w83  w127  0.05426709403508341
    w83  w128  0.04679643975181413
    w83  w129  0.04414150833884681
    w83  w130  -0.045168549373865934
    w83  w131  0.01283677149790146
    w83  w132  0.06564591636925309
    w83  w133  0.02189834520697927
    w83  w134  0.07023601911577856
    w83  w135  0.0813964522862858
    w83  w136  0.03709934164438681
    w83  w137  -0.0924296848791502
    w83  w138  -0.12947290994249983
    w83  w139  0.0623591673644227
    w83  w140  0.029550912474329675
    w83  w141  0.02933142407262687
    w83  w142  -0.028149641603093297
    w83  w143  0.1133255912145696
    w83  w144  0.002684175171888321
    w83  w145  -0.006146683899797991
    w83  w146  -0.030980528516521246
    w83  w147  0.013778618898094987
    w83  w148  -0.025282396511434886
    w83  w149  -0.08394461582334936
    w83  w150  -0.10913946692887089
    w83  w151  -0.024122735889141406
    w83  w152  0.015949034966907336
    w83  w153  0.008280124108049474
    w83  w154  -0.06174219102979687
    w83  w155  0.01159304015042154
    w83  w156  0.07579758233590511
    w83  w157  0.015811619375190683
    w83  w158  0.009698697911883176
    w83  w159  0.007120013896224105
    w83  w160  0.037842467416708374
    w83  w161  -0.028510561362032998
    w83  w162  -0.059172511708967326
    w83  w163  0.0959485332187722
    w83  w164  0.0797160280509666
    w83  w165  -0.020189410370271964
    w83  w166  0.09758866470161665
    w83  w167  0.07379390885919604
    w83  w168  -0.12113575375764368
    w83  w169  0.027109399503523705
    w83  w170  -0.06712764216532766
    w83  w171  0.08004527043378634
    w83  w172  -0.03577300453074549
    w83  w173  0.0020395605552776426
    w83  w174  0.05434857953276408
    w83  w175  -0.03360227984026992
    w83  w176  -0.02784416872582732
    w83  w177  -0.05528267020621236
    w83  w178  -0.04542012794843949
    w83  w179  0.024750359599311683
    w83  w180  -0.012173770086774085
    w83  w181  0.040991463291984394
    w83  w182  -0.08596378229402142
    w83  w183  0.03164656787101414
    w83  w184  0.04354330585114893
    w83  w185  0.034475774459197146
    w83  w186  0.12528654598470007
    w83  w187  -0.08469025306395767
    w83  w188  -0.00784944334809029
    w83  w189  -0.06841796320144981
    w83  w190  -0.11728639365861632
    w83  w191  -0.05420789798768482
    w83  w192  0.007944316761026278
    w83  w193  0.06737291321620512
    w83  w194  0.045266463303755555
    w83  w195  -0.00020776224060335623
    w83  w196  -0.10036076447132052
    w83  w197  -0.05903369815083211
    w83  w198  0.06911407203307907
    w83  w199  -0.09223043052925352
    w84  w84  0.35724945396110264
    w84  w85  0.09581431258314027
    w84  w86  0.027873284704476305
    w84  w87  0.0742859633392007
    w84  w88  -0.03341737115941172
    w84  w89  -0.05312368351508989
    w84  w90  -0.08862529143745607
    w84  w91  -0.04963290913822267
    w84  w92  0.053321834709076706
    w84  w93  -0.02548417411980075
    w84  w94  -0.03280414144045572
    w84  w95  -0.10499107685725856
    w84  w96  0.00893088233753494
    w84  w97  -0.0149531415776985
    w84  w98  0.08241991226207351
    w84  w99  -0.07317348706532699
    w84  w100  -0.12506431160284529
    w84  w101  0.009704880535777833
    w84  w102  -0.03591371811704892
    w84  w103  0.05179883580590103
    w84  w104  0.1206162717672563
    w84  w105  0.019642328631842416
    w84  w106  0.04753682852193745
    w84  w107  -0.08289396630288182
    w84  w108  0.015322282782749838
    w84  w109  -0.1488479788433637
    w84  w110  -0.07856087624268883
    w84  w111  -0.01509028344821117
    w84  w112  0.15462811848643365
    w84  w113  -0.10230061249043708
    w84  w114  0.05669963755923262
    w84  w115  0.10534409247524164
    w84  w116  0.09191016481068266
    w84  w117  -0.057998731590567884
    w84  w118  -0.09515193448658475
    w84  w119  0.07308649900939641
    w84  w120  0.016326083942128384
    w84  w121  -0.10002162837063658
    w84  w122  0.15773066267398772
    w84  w123  -0.05010357188256043
    w84  w124  0.026588826519317914
    w84  w125  0.011104936801766305
    w84  w126  -0.0042801568499197425
    w84  w127  -0.09472387082154546
    w84  w128  0.10079951265291798
    w84  w129  0.08327314587393893
    w84  w130  -0.10846694893165572
    w84  w131  -0.030829372928764597
    w84  w132  0.00881247578858434
    w84  w133  0.03634421901780634
    w84  w134  -0.05048827157854866
    w84  w135  -0.020265977735507115
    w84  w136  0.009817796606151272
    w84  w137  0.0268946598682133
    w84  w138  -0.03956856282948819
    w84  w139  -0.11741380903169242
    w84  w140  -0.1250865936506233
    w84  w141  -0.029184123017224194
    w84  w142  0.08953028503204455
    w84  w143  -0.014539922823373195
    w84  w144  0.12356445821766478
    w84  w145  0.002502752007842216
    w84  w146  0.1927926267649837
    w84  w147  0.0207274447399859
    w84  w148  0.00027241927436985754
    w84  w149  -0.090366563901861
    w84  w150  0.06544392510507886
    w84  w151  -0.016195824210798408
    w84  w152  0.0888642221739481
    w84  w153  -0.0028798766655616986
    w84  w154  0.14821027999600855
    w84  w155  0.1872764527156598
    w84  w156  -0.0296427079841507
    w84  w157  0.08582015475670986
    w84  w158  -0.04543492098956166
    w84  w159  -0.12909672893814236
    w84  w160  0.0811267528034544
    w84  w161  -0.06814016506243652
    w84  w162  0.08523613209450051
    w84  w163  9.437224126401084e-05
    w84  w164  -0.1735252352259
    w84  w165  -0.016413158032778142
    w84  w166  -0.1269922963422322
    w84  w167  -0.05496147281903483
    w84  w168  0.06529632979302391
    w84  w169  -0.08330442874211919
    w84  w170  -0.10371219603181846
    w84  w171  -0.019393975285908662
    w84  w172  0.033855304216383074
    w84  w173  -0.012805645839212388
    w84  w174  0.013388148053912209
    w84  w175  0.06574918239736419
    w84  w176  -0.07849865833783612
    w84  w177  -0.01939171690898917
    w84  w178  -0.02430929280782334
    w84  w179  -0.06561946961914233
    w84  w180  0.016952085208242703
    w84  w181  0.12947230900553822
    w84  w182  -0.09289422365364405
    w84  w183  -0.0689140098082757
    w84  w184  0.023451355576674934
    w84  w185  0.045054854833160206
    w84  w186  -0.0010992023127950725
    w84  w187  0.05160163348251669
    w84  w188  -0.04295023297220639
    w84  w189  -0.01697821464452873
    w84  w190  -0.09709238965957749
    w84  w191  -0.17693646275566696
    w84  w192  0.07707240454819195
    w84  w193  -0.15101312740469985
    w84  w194  0.061667252303935736
    w84  w195  0.031934628010947486
    w84  w196  0.004770274420030649
    w84  w197  0.006446464674161308
    w84  w198  -0.07832943243306045
    w84  w199  0.05530941992496848
    w85  w85  0.25428241168451193
    w85  w86  0.08925880265517754
    w85  w87  -0.03931427274708135
    w85  w88  -0.11165153474091974
    w85  w89  0.0914369874969266
    w85  w90  -0.062197123992420715
    w85  w91  0.03432312434361354
    w85  w92  0.046273646785283055
    w85  w93  0.06310285911171695
    w85  w94  -0.003084594299111755
    w85  w95  -0.06326578023639894
    w85  w96  0.07179391017295834
    w85  w97  0.040342829775333745
    w85  w98  0.05733637717068806
    w85  w99  -0.020168778010383165
    w85  w100  0.015238474704389372
    w85  w101  -0.0246682006189368
    w85  w102  -0.10969767215543055
    w85  w103  -0.05818755509628481
    w85  w104  0.01262539148198832
    w85  w105  -0.08032608644474928
    w85  w106  0.0080340954709852
    w85  w107  -0.07395928096640374
    w85  w108  0.1356297668250113
    w85  w109  -0.01967267702979104
    w85  w110  0.01092498744535395
    w85  w111  -0.14157321192343272
    w85  w112  0.07434906866898695
    w85  w113  -0.07185304207683132
    w85  w114  0.09300594596063398
    w85  w115  0.040612830615964476
    w85  w116  -0.006646734745739466
    w85  w117  -0.05085490767472926
    w85  w118  0.036228161866274644
    w85  w119  -0.0038260157761174406
    w85  w120  0.05544306670144609
    w85  w121  -0.08292124435333163
    w85  w122  0.05650681099240662
    w85  w123  0.07512885101138428
    w85  w124  0.009763936920491961
    w85  w125  -0.02268060911585011
    w85  w126  0.02707356764255745
    w85  w127  0.008732938998282733
    w85  w128  -0.0022694079896303987
    w85  w129  0.02561959516632485
    w85  w130  -0.043522899787269496
    w85  w131  0.07848312903166806
    w85  w132  0.08757711664815984
    w85  w133  0.04304431856171059
    w85  w134  0.13154191099168214
    w85  w135  0.01739196393690604
    w85  w136  -0.06681051130857846
    w85  w137  -0.03365421127567268
    w85  w138  -0.013836164255942644
    w85  w139  -0.08037317316779377
    w85  w140  0.06408445696588068
    w85  w141  0.06901269673558628
    w85  w142  0.07307503216229279
    w85  w143  -0.004482407427756389
    w85  w144  0.11456990112749431
    w85  w145  0.053956462711779465
    w85  w146  0.07280750125440512
    w85  w147  -0.0036175285234771614
    w85  w148  -0.08200122582029226
    w85  w149  -0.17883452392120872
    w85  w150  -0.0024579164338634305
    w85  w151  -0.028042180830115233
    w85  w152  0.006889743826841036
    w85  w153  -0.08657076252261332
    w85  w154  0.024710261376717876
    w85  w155  0.07989672213552146
    w85  w156  0.04941655558137376
    w85  w157  0.07163476428738873
    w85  w158  -0.03703579535875581
    w85  w159  -0.1102703026405961
    w85  w160  -0.07922941647250223
    w85  w161  0.07353631980125679
    w85  w162  0.06174255896528258
    w85  w163  0.004328739681028311
    w85  w164  -0.02221294629001167
    w85  w165  -0.023714764158488656
    w85  w166  0.06749452216973437
    w85  w167  0.07450539417752831
    w85  w168  -0.08413705025363574
    w85  w169  -0.08044681047369288
    w85  w170  -0.08534840069196159
    w85  w171  -0.07168451264672383
    w85  w172  0.09365697515110365
    w85  w173  0.137228616741383
    w85  w174  0.02010510053523843
    w85  w175  0.029115700345879555
    w85  w176  -0.0306773324060735
    w85  w177  4.753955149921098e-05
    w85  w178  -0.08014629617624967
    w85  w179  0.06050819317480921
    w85  w180  0.031223331069508434
    w85  w181  0.11143287534914317
    w85  w182  -0.07228542093816105
    w85  w183  -0.08375525692223353
    w85  w184  0.04073207230528676
    w85  w185  0.025675809427839244
    w85  w186  0.03262588641576616
    w85  w187  -0.01465903417061281
    w85  w188  -0.01993566242149684
    w85  w189  0.04995761591208901
    w85  w190  -0.02135810118022713
    w85  w191  -0.131303134523312
    w85  w192  0.08283489179629402
    w85  w193  -0.05667149976328986
    w85  w194  0.08961459012681491
    w85  w195  0.024219927114291755
    w85  w196  -0.08028756428776095
    w85  w197  -0.018044413720517922
    w85  w198  0.03542903061744122
    w85  w199  -0.084122157321058
    w86  w86  0.3765033330078382
    w86  w87  -0.11692756577032562
    w86  w88  -0.07903716419602494
    w86  w89  0.14648519084891376
    w86  w90  -0.023702208764572304
    w86  w91  0.03430562771163762
    w86  w92  0.036349483454473475
    w86  w93  -0.0046742615694583675
    w86  w94  0.020580560217275733
    w86  w95  0.13742393745982978
    w86  w96  0.10833080666785326
    w86  w97  0.048638185417592676
    w86  w98  0.03166396767050129
    w86  w99  -0.04763945242970456
    w86  w100  0.003497772979954072
    w86  w101  0.015259021699298252
    w86  w102  0.028741211231292363
    w86  w103  0.02319447931911229
    w86  w104  -0.20017414931642621
    w86  w105  -0.019006272949275847
    w86  w106  0.12010094057793166
    w86  w107  -0.20052667419016162
    w86  w108  -0.05967280812047797
    w86  w109  -0.10957464719247699
    w86  w110  -0.08096867260860197
    w86  w111  -0.08770200081242506
    w86  w112  -0.008148493032937725
    w86  w113  -0.03165918102988652
    w86  w114  0.02233246250196341
    w86  w115  0.09415074711648119
    w86  w116  -0.006624684563174162
    w86  w117  -0.08789847028055518
    w86  w118  0.05582714507905884
    w86  w119  0.04908442207688183
    w86  w120  0.14640649747757395
    w86  w121  0.046918886347554804
    w86  w122  -0.0030410687977383633
    w86  w123  0.012260405862175083
    w86  w124  0.07431358509824046
    w86  w125  0.10278928172426062
    w86  w126  -0.00026424465650598094
    w86  w127  -0.07720831519664567
    w86  w128  -0.054298568683287016
    w86  w129  -0.006661613330797702
    w86  w130  0.010146630947756887
    w86  w131  -0.020316999119146622
    w86  w132  0.06146426323929443
    w86  w133  0.0013020887645487098
    w86  w134  0.08855520865390912
    w86  w135  -0.06762545491817455
    w86  w136  -0.07206077711642542
    w86  w137  -0.06352945598471897
    w86  w138  0.037423094807484424
    w86  w139  0.06111254016027829
    w86  w140  -0.03583544511194257
    w86  w141  -0.027496856209602842
    w86  w142  0.009566285847706217
    w86  w143  0.13314708685979323
    w86  w144  0.1535668800225301
    w86  w145  0.0628139285844527
    w86  w146  0.05189653194996557
    w86  w147  -0.043279991776640804
    w86  w148  -0.17728862027146614
    w86  w149  -0.10096358849537466
    w86  w150  0.00452455012013106
    w86  w151  0.06990439649319871
    w86  w152  -0.060973450811843986
    w86  w153  -0.122627264649376
    w86  w154  -0.03779219123333486
    w86  w155  0.0013996520037218884
    w86  w156  -0.03976558033303676
    w86  w157  -0.0006168168804596374
    w86  w158  -0.05712699865527733
    w86  w159  -0.06461202141439736
    w86  w160  -0.09995567203705338
    w86  w161  0.10682669797464535
    w86  w162  -0.006039508452710764
    w86  w163  -0.051437110492699493
    w86  w164  -0.006802781347177415
    w86  w165  0.047197360464477964
    w86  w166  0.04770865111888247
    w86  w167  0.13864123708081288
    w86  w168  0.04201652718616353
    w86  w169  -0.0880620822358067
    w86  w170  0.051702233960608024
    w86  w171  -0.13791572840079225
    w86  w172  -0.06752414453573984
    w86  w173  0.11759188597397445
    w86  w174  -0.0015847059760859328
    w86  w175  0.0748438473271126
    w86  w176  -0.0583353334182115
    w86  w177  0.1221479331680608
    w86  w178  0.034563527840698126
    w86  w179  -0.00468750271427893
    w86  w180  0.025232255348357956
    w86  w181  -0.036978481654359685
    w86  w182  -0.007060088100044593
    w86  w183  -0.12026292723753727
    w86  w184  -0.07979307658064752
    w86  w185  0.02209032803014509
    w86  w186  -0.07634839393539058
    w86  w187  -0.08468042131927778
    w86  w188  0.0343157213030682
    w86  w189  0.10771395743263025
    w86  w190  -0.01093504129425801
    w86  w191  0.028799206699891992
    w86  w192  -0.0007836766235531214
    w86  w193  0.0041317238410650175
    w86  w194  0.048645920451161936
    w86  w195  0.08757689333219484
    w86  w196  0.036150726764644675
    w86  w197  0.04614799513605908
    w86  w198  0.10657837116289005
    w86  w199  -0.14892391801670818
    w87  w87  0.282674470734677
    w87  w88  0.003739079416607912
    w87  w89  -0.13649583526633757
    w87  w90  0.08452797557854846
    w87  w91  -0.06305678238396102
    w87  w92  -0.037892320584672366
    w87  w93  -0.04654006239287033
    w87  w94  -0.04040078272863298
    w87  w95  -0.15930651974597237
    w87  w96  -0.10602374100660039
    w87  w97  -0.06210733667331617
    w87  w98  0.09311812512291005
    w87  w99  0.020329693653491625
    w87  w100  -0.05999860963124771
    w87  w101  0.009774510042311557
    w87  w102  -0.000711549943804724
    w87  w103  -0.04475473189185641
    w87  w104  0.14215356232752824
    w87  w105  -0.030282634284794198
    w87  w106  -0.051866275804989974
    w87  w107  0.1045155659647259
    w87  w108  -0.031767801963650234
    w87  w109  -0.03122540887067433
    w87  w110  -0.0029231502483343503
    w87  w111  0.0726202021917773
    w87  w112  0.08335168167411568
    w87  w113  0.013469441442943098
    w87  w114  -0.004983620821477796
    w87  w115  0.025845096857824615
    w87  w116  0.13043782531687695
    w87  w117  0.07117785599631342
    w87  w118  -0.09764647310325404
    w87  w119  -0.005095591430397003
    w87  w120  -0.10577487947796559
    w87  w121  0.03249652526577004
    w87  w122  0.00026288651723840867
    w87  w123  -0.02629167526918002
    w87  w124  -0.02361090313951254
    w87  w125  -0.09989812547307496
    w87  w126  -0.04745992330978084
    w87  w127  -0.03917556073207121
    w87  w128  0.05677916590435514
    w87  w129  -0.015540745581784556
    w87  w130  -0.04687728071526584
    w87  w131  -0.12000882904468743
    w87  w132  -0.06661029359512728
    w87  w133  -0.02995664920715349
    w87  w134  -0.03140065370141465
    w87  w135  0.04273445391051881
    w87  w136  0.05852541533830487
    w87  w137  0.04327965234872006
    w87  w138  -0.02814240047244763
    w87  w139  -0.14475724443517665
    w87  w140  -0.055589186495595154
    w87  w141  0.025239987706262262
    w87  w142  0.027026206300461347
    w87  w143  0.030046535551725675
    w87  w144  0.04943174474074166
    w87  w145  0.015701085628926324
    w87  w146  0.05558860737900722
    w87  w147  -0.020167478234973633
    w87  w148  0.04957058023384117
    w87  w149  -0.0591331277216078
    w87  w150  0.0020118718396232695
    w87  w151  -0.06578503771819876
    w87  w152  0.007326235273651327
    w87  w153  0.12081766122556524
    w87  w154  0.010770403818308334
    w87  w155  0.07270835815700072
    w87  w156  0.0002843370414124171
    w87  w157  -0.020663495923485865
    w87  w158  -0.06409914810490838
    w87  w159  -0.05580947751054764
    w87  w160  0.1439518352648439
    w87  w161  -0.15751404909011055
    w87  w162  -0.09946962570348043
    w87  w163  0.03657208682815472
    w87  w164  -0.1162435107640129
    w87  w165  0.09831670093941254
    w87  w166  -0.05024050925956019
    w87  w167  -0.05467593638579397
    w87  w168  0.03414131147428151
    w87  w169  0.010179567276158402
    w87  w170  -0.03843533008014982
    w87  w171  0.06007774692131743
    w87  w172  0.09301529027725984
    w87  w173  -0.05736272467966796
    w87  w174  0.01718624136214211
    w87  w175  0.02101946308813593
    w87  w176  0.027630808433121164
    w87  w177  -0.08244871969257199
    w87  w178  -0.07236214460789438
    w87  w179  -0.02818813531485384
    w87  w180  0.008469518466314411
    w87  w181  0.02125258010202824
    w87  w182  0.01169072472246357
    w87  w183  0.05671598718457517
    w87  w184  0.056334102246235286
    w87  w185  0.01956318698210197
    w87  w186  0.14436382558950275
    w87  w187  0.023179380059179914
    w87  w188  -0.10550325614848853
    w87  w189  0.04562842729555084
    w87  w190  0.023469597965923
    w87  w191  -0.04572007462726908
    w87  w192  -0.00664553152721629
    w87  w193  0.0649925937793313
    w87  w194  0.019405321201341412
    w87  w195  -0.11502894332731992
    w87  w196  0.04216835613839904
    w87  w197  0.06858658952874246
    w87  w198  -0.09498698973599934
    w87  w199  0.11910778251292788
    w88  w88  0.30221743333586737
    w88  w89  -0.09729985750528955
    w88  w90  0.03928147945395036
    w88  w91  -0.00403052611478052
    w88  w92  0.007766023307995406
    w88  w93  0.017821563803586505
    w88  w94  0.11018256531074858
    w88  w95  0.06236831221487123
    w88  w96  -0.026968055695140505
    w88  w97  -0.047877677674949555
    w88  w98  -0.06024670195505997
    w88  w99  -0.008256105364649147
    w88  w100  0.10947054668707601
    w88  w101  0.10780661992620054
    w88  w102  0.06579138316644662
    w88  w103  0.1181686284102012
    w88  w104  0.07785719675361923
    w88  w105  -0.011280132569690512
    w88  w106  0.03089610927914724
    w88  w107  0.07261141291372268
    w88  w108  0.0318445824969763
    w88  w109  0.05026334972851016
    w88  w110  -0.07856696677550433
    w88  w111  0.09860559951556001
    w88  w112  0.066744485955832
    w88  w113  0.030570847253008054
    w88  w114  -0.03683773588103437
    w88  w115  0.02688273636577232
    w88  w116  0.0811078673763117
    w88  w117  -0.0030367504444897835
    w88  w118  0.12647570964063154
    w88  w119  0.07868482264702117
    w88  w120  -0.020361962338816566
    w88  w121  -0.017674441977541235
    w88  w122  0.007810058512346629
    w88  w123  -0.0874621992993125
    w88  w124  0.04109369857262888
    w88  w125  0.00020294022314642962
    w88  w126  -0.01802060954676705
    w88  w127  0.018644589950904875
    w88  w128  -0.04649938147253439
    w88  w129  -0.12241517540416948
    w88  w130  0.07428556597068868
    w88  w131  0.009183739288966002
    w88  w132  -0.03797013884397902
    w88  w133  -0.0416002065658219
    w88  w134  -0.06014076773953756
    w88  w135  0.0339489316140482
    w88  w136  0.088076046760608
    w88  w137  -0.04394621171537686
    w88  w138  -0.012061769948997537
    w88  w139  0.04818415910927463
    w88  w140  -0.030869871221991047
    w88  w141  -0.011058806006231455
    w88  w142  -0.06222260613849409
    w88  w143  -0.13243965626136037
    w88  w144  -0.13058912705160758
    w88  w145  -0.013082405728205399
    w88  w146  -0.06350061189603255
    w88  w147  0.05770280533722416
    w88  w148  -0.00494513250272873
    w88  w149  0.08991340072832742
    w88  w150  0.05983449692977026
    w88  w151  0.03547889067378238
    w88  w152  0.035828019430046605
    w88  w153  -0.08164471918841182
    w88  w154  0.009770675302568194
    w88  w155  -0.04068134593679225
    w88  w156  0.026522632530738624
    w88  w157  0.016426150023443525
    w88  w158  0.03980840618384396
    w88  w159  0.002458076004176948
    w88  w160  0.03752352826565737
    w88  w161  -0.0508972743777462
    w88  w162  -0.00032884783159680954
    w88  w163  -0.1482890025948152
    w88  w164  -0.0037241540078944684
    w88  w165  -0.015328433663073118
    w88  w166  -0.02802075597351439
    w88  w167  -0.11132278622750105
    w88  w168  0.11577103276733296
    w88  w169  0.08863413585624559
    w88  w170  -0.06647554687054351
    w88  w171  0.11589666466685099
    w88  w172  -0.039533887077950254
    w88  w173  -0.08893410211324923
    w88  w174  -0.10340203280305171
    w88  w175  -0.07992155240913736
    w88  w176  -0.00977629272288102
    w88  w177  -0.041546006644250955
    w88  w178  0.04183264343873504
    w88  w179  -0.24432212618253019
    w88  w180  0.036864952780290054
    w88  w181  -0.12658488942362614
    w88  w182  0.007560741380878743
    w88  w183  0.04262068835105192
    w88  w184  -0.10867614489219675
    w88  w185  -0.030935878524868298
    w88  w186  -0.013567332475797023
    w88  w187  0.11662825767187639
    w88  w188  0.045188072960236796
    w88  w189  -0.04228756819433791
    w88  w190  0.01660858083588708
    w88  w191  0.08236260482556863
    w88  w192  -0.021214448444053083
    w88  w193  -0.06362793401733215
    w88  w194  -0.10367451238028931
    w88  w195  -0.019745037608941612
    w88  w196  -0.07878378869424156
    w88  w197  0.03913995670396097
    w88  w198  -0.1298526598693719
    w88  w199  -0.02019866421898215
    w89  w89  0.24861391141526198
    w89  w90  -0.07605756248759832
    w89  w91  0.1442243274167746
    w89  w92  0.01743162354101385
    w89  w93  0.03524910517987269
    w89  w94  -0.01779107672996317
    w89  w95  0.08186707330200473
    w89  w96  0.08732271038262548
    w89  w97  0.08665131682613264
    w89  w98  0.027883117727647982
    w89  w99  -0.0055304267634985515
    w89  w100  0.03534864697823703
    w89  w101  -0.0243878418897292
    w89  w102  -0.055438340592368664
    w89  w103  -0.04175700821692247
    w89  w104  -0.1415173261091952
    w89  w105  -0.02862871817483338
    w89  w106  0.04228135368347398
    w89  w107  -0.10347781142783884
    w89  w108  0.10146586840172557
    w89  w109  -0.07702359671431833
    w89  w110  0.055920980981698884
    w89  w111  -0.05045542425102358
    w89  w112  -0.07589127821456637
    w89  w113  -0.05015672217695282
    w89  w114  0.10713030659887751
    w89  w115  -0.041586735957632966
    w89  w116  -0.06153093505563039
    w89  w117  0.052558733991514506
    w89  w118  0.09263226135968784
    w89  w119  0.026487986823033795
    w89  w120  0.1813958272868123
    w89  w121  -0.036568190697302015
    w89  w122  0.029456440836441014
    w89  w123  0.09233470098266151
    w89  w124  0.04734448373853093
    w89  w125  0.03693730352521946
    w89  w126  0.09357945684367684
    w89  w127  0.05852983913644078
    w89  w128  -0.05286263354873087
    w89  w129  0.011721909879966921
    w89  w130  -0.027129119495121718
    w89  w131  0.07028959539240018
    w89  w132  0.026326932988331282
    w89  w133  0.0046366292180052456
    w89  w134  0.09186472535994239
    w89  w135  -0.013576478618986336
    w89  w136  -0.13154562173317189
    w89  w137  0.0424138273063898
    w89  w138  0.024928788883071092
    w89  w139  0.067189717574953
    w89  w140  0.09819528637785602
    w89  w141  -0.003566191907886695
    w89  w142  0.1339218679725167
    w89  w143  -0.004809118336590599
    w89  w144  0.06418951493849982
    w89  w145  -0.00808555965920223
    w89  w146  -0.03275507782955803
    w89  w147  -0.011608243068937285
    w89  w148  -0.1387094881936395
    w89  w149  -0.05503751246801409
    w89  w150  -0.020802655050630125
    w89  w151  0.024368774879527294
    w89  w152  -0.01342194232733913
    w89  w153  -0.1821259327727936
    w89  w154  0.04909435683147439
    w89  w155  -0.023739986973963748
    w89  w156  0.022158328768816883
    w89  w157  -0.004998622792642234
    w89  w158  0.03825930166040206
    w89  w159  -0.0006313062960885976
    w89  w160  -0.1901433123337923
    w89  w161  0.16380340653473305
    w89  w162  0.10073337813980335
    w89  w163  -0.0005606268981010067
    w89  w164  0.08991221170823775
    w89  w165  -0.016098202972493054
    w89  w166  0.02178836698167524
    w89  w167  0.12397932660366617
    w89  w168  -0.0449285958959407
    w89  w169  -0.0035438214873133745
    w89  w170  0.037705088401630046
    w89  w171  -0.20867893337511415
    w89  w172  -0.008456282741979347
    w89  w173  0.06706161583936894
    w89  w174  0.016862367999861648
    w89  w175  0.048475470935666995
    w89  w176  0.007823154335279489
    w89  w177  0.08045089885171597
    w89  w178  -0.018285651456010462
    w89  w179  0.13566850139417236
    w89  w180  0.052966250016168254
    w89  w181  -0.04534756589279023
    w89  w182  -0.06023945293143623
    w89  w183  -0.09096441390762958
    w89  w184  0.04312579836902581
    w89  w185  0.014560770991269855
    w89  w186  -0.10083071365884906
    w89  w187  -0.03828051046482443
    w89  w188  0.06062465633653188
    w89  w189  0.009316411592068181
    w89  w190  0.11032316401589755
    w89  w191  0.04524085364971563
    w89  w192  0.022435759684532975
    w89  w193  -0.028128742949083796
    w89  w194  -0.01630826226615504
    w89  w195  0.09424595669455982
    w89  w196  -0.06120115000064035
    w89  w197  -0.02053480780560622
    w89  w198  0.11970757780423018
    w89  w199  -0.0891241824737075
    w90  w90  0.4237474669074705
    w90  w91  -0.004808009087931641
    w90  w92  -0.013659700775316128
    w90  w93  -0.016413925786164376
    w90  w94  0.0033452095357113785
    w90  w95  -0.05073562409868817
    w90  w96  0.002839926604303848
    w90  w97  -0.1558455450490544
    w90  w98  0.07718086084941882
    w90  w99  0.04293383592791981
    w90  w100  0.04344247975205465
    w90  w101  0.0029699517593097745
    w90  w102  0.07156074916155929
    w90  w103  0.20055122283781074
    w90  w104  -0.09175191581960193
    w90  w105  0.03662415403216856
    w90  w106  -0.07327668358448708
    w90  w107  0.07334500204839361
    w90  w108  -0.11143751639639493
    w90  w109  0.15433650006923202
    w90  w110  0.0628434759371275
    w90  w111  -0.050229428823362565
    w90  w112  0.006821536485441487
    w90  w113  0.14200080104526897
    w90  w114  0.07150158373166028
    w90  w115  -0.05386180401329636
    w90  w116  0.07767387393570818
    w90  w117  0.08485318328367551
    w90  w118  -0.06583767116021852
    w90  w119  -0.02499532962100547
    w90  w120  -0.046288398238151174
    w90  w121  0.10230939565496266
    w90  w122  -0.16656298055572505
    w90  w123  -0.09156985512579224
    w90  w124  -0.03876544810388114
    w90  w125  -0.07430312712386632
    w90  w126  -0.07453992773630223
    w90  w127  -0.05830260708805322
    w90  w128  0.026011670059569943
    w90  w129  -0.01541963832503753
    w90  w130  0.051543668706958985
    w90  w131  -0.02292244301867199
    w90  w132  0.0007450533741290009
    w90  w133  -0.1270695565541808
    w90  w134  0.13597754435414952
    w90  w135  0.0847118857243323
    w90  w136  0.051668896820304115
    w90  w137  -0.07795974246513028
    w90  w138  -0.0627389327826275
    w90  w139  0.08010179124767303
    w90  w140  0.03445428372314259
    w90  w141  -0.03568030340340385
    w90  w142  -0.0381402934431037
    w90  w143  -0.0030699459945690076
    w90  w144  0.05975244106138458
    w90  w145  0.019426618210412052
    w90  w146  -0.037442353256298855
    w90  w147  -0.13253417421519711
    w90  w148  0.02899605492731144
    w90  w149  -0.06110762368835554
    w90  w150  -0.022114443733377526
    w90  w151  -0.02275037604901192
    w90  w152  -0.09021378369123122
    w90  w153  0.18145053998142582
    w90  w154  0.043853005166445046
    w90  w155  -0.17921494911341682
    w90  w156  -0.02059010342487007
    w90  w157  0.0019417489129993516
    w90  w158  -0.1122607651896776
    w90  w159  0.07142261562536509
    w90  w160  0.16946172738571338
    w90  w161  -0.03445709110395654
    w90  w162  -0.050059082998815944
    w90  w163  0.01878959012379161
    w90  w164  -0.04749389791476645
    w90  w165  -0.027839974629037745
    w90  w166  0.08528425020564934
    w90  w167  0.0014162002176915356
    w90  w168  0.03047252993661446
    w90  w169  0.07199790769093975
    w90  w170  0.01586305014762865
    w90  w171  -0.0019366712275159024
    w90  w172  0.0013083835040125426
    w90  w173  0.0032044007663037362
    w90  w174  -0.08854172908246126
    w90  w175  0.04480088180291882
    w90  w176  0.05134890978677146
    w90  w177  -0.009698061016805471
    w90  w178  0.032093078063655515
    w90  w179  -0.08626880437189732
    w90  w180  -0.13917697539648122
    w90  w181  -0.015238173273840664
    w90  w182  -0.0218724331238087
    w90  w183  0.09007878771675615
    w90  w184  0.0012728706650905332
    w90  w185  -0.06029806325400879
    w90  w186  0.2831749516823439
    w90  w187  -0.04722714885502529
    w90  w188  0.010147455356971705
    w90  w189  -0.06837674090943256
    w90  w190  -0.04121913185554111
    w90  w191  -0.014325345951865489
    w90  w192  0.035979344348390785
    w90  w193  0.16828506326937637
    w90  w194  0.050059860606616775
    w90  w195  0.003458104586333587
    w90  w196  0.07324173611498698
    w90  w197  0.07306057990476454
    w90  w198  -0.07552167429985733
    w90  w199  -0.0191507938828783
    w91  w91  0.1975529480586854
    w91  w92  0.015204013972036651
    w91  w93  0.04625295249907914
    w91  w94  0.004429937480505993
    w91  w95  0.02178103575732343
    w91  w96  0.046025009093940895
    w91  w97  0.05988018844301917
    w91  w98  0.0785178389388064
    w91  w99  0.0019289354025665124
    w91  w100  0.07103579619043618
    w91  w101  0.008584883513390774
    w91  w102  -0.055848105855441255
    w91  w103  0.008150989294623335
    w91  w104  -0.05952624831788347
    w91  w105  -0.045415474519071325
    w91  w106  0.01083593523934842
    w91  w107  -0.03925752873970852
    w91  w108  0.15471219443685474
    w91  w109  -0.07185899197805298
    w91  w110  0.08305497190106287
    w91  w111  -0.005381033170286707
    w91  w112  -0.05036174480920399
    w91  w113  -0.046548297876610134
    w91  w114  0.15449615541920378
    w91  w115  -0.08717722028722974
    w91  w116  -5.381969075386444e-05
    w91  w117  0.12105831159449698
    w91  w118  0.07979871248949565
    w91  w119  0.03992311047118737
    w91  w120  0.1354366699895335
    w91  w121  -0.034924140532827316
    w91  w122  0.05561003966652543
    w91  w123  0.041176332523367616
    w91  w124  0.038421528086670716
    w91  w125  -0.012108777915092647
    w91  w126  0.09231237345113653
    w91  w127  0.0746814532587665
    w91  w128  -0.0508102642834818
    w91  w129  -0.03757103014094413
    w91  w130  -0.026932826279833757
    w91  w131  0.07712116836358773
    w91  w132  -0.034677699183397574
    w91  w133  -0.061874880592021037
    w91  w134  0.061330729163740584
    w91  w135  0.032782411764047406
    w91  w136  -0.0799131399813836
    w91  w137  0.09067379999740868
    w91  w138  0.017040341149116626
    w91  w139  0.04698481072132217
    w91  w140  0.10105124204287264
    w91  w141  -0.019536853300373656
    w91  w142  0.1910952650516509
    w91  w143  -0.13906627021032864
    w91  w144  0.0052379107877984915
    w91  w145  -0.02737911478056246
    w91  w146  -0.059152992340855644
    w91  w147  -0.010915798753898557
    w91  w148  -0.09386460447155083
    w91  w149  -0.025275855237044963
    w91  w150  0.032817158317601555
    w91  w151  -0.01691437643413212
    w91  w152  0.010169007707939201
    w91  w153  -0.1696088379527614
    w91  w154  0.1250969380761916
    w91  w155  -0.06249757110965795
    w91  w156  0.024706090335067044
    w91  w157  0.004628657280752392
    w91  w158  0.03889574550719478
    w91  w159  0.025706752067779483
    w91  w160  -0.12333808019948027
    w91  w161  0.10290279921821166
    w91  w162  0.12110539335745335
    w91  w163  -0.03869408714117039
    w91  w164  0.0602666773090699
    w91  w165  -0.03501067637108071
    w91  w166  -0.03092983592067466
    w91  w167  0.0377955466700744
    w91  w168  -0.00420268770475913
    w91  w169  0.0932277937241445
    w91  w170  0.004552497572322466
    w91  w171  -0.19621534978895364
    w91  w172  0.043285553989680405
    w91  w173  0.00325459196432822
    w91  w174  -0.031324498505511014
    w91  w175  0.045549851675369166
    w91  w176  0.028435967507190487
    w91  w177  0.021079492139926322
    w91  w178  -0.021715205340896087
    w91  w179  0.05314616270223412
    w91  w180  0.03931168562441083
    w91  w181  -0.08938959762542935
    w91  w182  -0.060577845334670005
    w91  w183  -0.043439498458489594
    w91  w184  0.038393637845227015
    w91  w185  -0.011138337824422428
    w91  w186  -0.050449909012592185
    w91  w187  0.032232201899993575
    w91  w188  0.06443676325312128
    w91  w189  -0.036910069631934904
    w91  w190  0.16291122479157433
    w91  w191  0.06806397509229768
    w91  w192  0.054872162576155306
    w91  w193  -0.03161917884384199
    w91  w194  -0.06577248271439515
    w91  w195  0.07629326515192143
    w91  w196  -0.06567378156651278
    w91  w197  0.009122762572321546
    w91  w198  0.013671106878485453
    w91  w199  -0.011827002431381359
    w92  w92  0.07898433344487593
    w92  w93  0.02278201502282332
    w92  w94  0.012532891428882599
    w92  w95  0.005298176494602102
    w92  w96  0.06480501719791255
    w92  w97  0.020658503843024072
    w92  w98  0.02457354075898169
    w92  w99  -0.0027143958178947195
    w92  w100  0.029525043057348228
    w92  w101  0.01358009298807099
    w92  w102  -0.0333277466787566
    w92  w103  0.06367244015040323
    w92  w104  -0.00931181600061621
    w92  w105  -0.047754661968682284
    w92  w106  0.010634767044336108
    w92  w107  -0.0864577413161816
    w92  w108  0.038408769397343306
    w92  w109  -0.010790209395415907
    w92  w110  -0.0276988682579159
    w92  w111  -0.04401522717402322
    w92  w112  0.04297612627193657
    w92  w113  -0.030262674229969456
    w92  w114  0.038168514554379376
    w92  w115  0.022756843354980946
    w92  w116  -0.015744336132692275
    w92  w117  -0.035873134222120295
    w92  w118  0.00854377325005147
    w92  w119  0.021854540997712373
    w92  w120  0.017563174364967845
    w92  w121  -0.020922091495959208
    w92  w122  0.046373346145591965
    w92  w123  -0.0006577478752899183
    w92  w124  -0.0012327925683838672
    w92  w125  0.02484373730968475
    w92  w126  0.01290087659005696
    w92  w127  0.0024505192726284905
    w92  w128  0.00035255298139739646
    w92  w129  0.003351370447724866
    w92  w130  -0.03464883985093913
    w92  w131  0.054568455057404965
    w92  w132  0.018993629499507093
    w92  w133  -0.022707448237559824
    w92  w134  0.003556702480836691
    w92  w135  0.011502621441085964
    w92  w136  0.0285297620768165
    w92  w137  -0.002548381708017061
    w92  w138  -0.020031312507270284
    w92  w139  0.021601709884373644
    w92  w140  -0.01976383167302971
    w92  w141  -0.024551856023142547
    w92  w142  0.06482648876068768
    w92  w143  -0.051972444171237274
    w92  w144  -0.0047975770038937385
    w92  w145  0.0060669511033949386
    w92  w146  0.01835232798688979
    w92  w147  0.015328555521807858
    w92  w148  -0.022248074477724557
    w92  w149  -0.03553005690603715
    w92  w150  0.041485712369731705
    w92  w151  -0.02570119636923266
    w92  w152  0.03037632874008066
    w92  w153  -0.06527157887354981
    w92  w154  0.040208400968463516
    w92  w155  0.0032135976160592174
    w92  w156  -0.0017206271883040418
    w92  w157  0.0438372287135228
    w92  w158  -0.0016040914971431907
    w92  w159  -0.0024010833048199926
    w92  w160  0.0017222738076175348
    w92  w161  0.0017400683872778727
    w92  w162  0.04283551045165142
    w92  w163  -0.014035019029288458
    w92  w164  0.010162815548682721
    w92  w165  -0.052140445799486596
    w92  w166  -0.012040613131150032
    w92  w167  -0.0004668824420131572
    w92  w168  -0.026528015238381688
    w92  w169  0.04139961737284419
    w92  w170  -0.04100080425424848
    w92  w171  -0.023968042675907665
    w92  w172  0.009881657011579285
    w92  w173  0.024858741913928704
    w92  w174  0.0027618954164831126
    w92  w175  0.021906103081035057
    w92  w176  -0.05786692811977026
    w92  w177  -0.020110710762595966
    w92  w178  0.009141989239128621
    w92  w179  -0.04234128349189927
    w92  w180  -0.014430902848615134
    w92  w181  0.01487955041095317
    w92  w182  -0.028443449370562073
    w92  w183  -0.033044289645640795
    w92  w184  -0.04307518222842244
    w92  w185  0.005307833063026414
    w92  w186  -0.02610336258579098
    w92  w187  -0.004180684491409417
    w92  w188  0.030150006463712777
    w92  w189  -0.026039272862859036
    w92  w190  -0.04429418874385304
    w92  w191  -0.020481028698150217
    w92  w192  0.06622690958044197
    w92  w193  -0.038263186727684514
    w92  w194  0.009364229137321859
    w92  w195  0.06205212938994058
    w92  w196  -0.01808047272869605
    w92  w197  -0.021450643010000058
    w92  w198  -0.0024376646646103797
    w92  w199  -0.02002647901785523
    w93  w93  0.17371433111873835
    w93  w94  0.059355882345776566
    w93  w95  -0.01987627707545104
    w93  w96  0.02977246309138924
    w93  w97  0.03132306335530957
    w93  w98  0.01568717105022139
    w93  w99  -0.02668597861504042
    w93  w100  0.08903748130449193
    w93  w101  0.004795082720856189
    w93  w102  -0.05509149081515644
    w93  w103  -0.040211671040174125
    w93  w104  0.027934110384650025
    w93  w105  -0.04500942397109936
    w93  w106  0.0013620666641418842
    w93  w107  0.006181675369399142
    w93  w108  0.1414317945027023
    w93  w109  0.024436761661990655
    w93  w110  0.041271887309774664
    w93  w111  -0.09408620922926145
    w93  w112  0.0008776654846983003
    w93  w113  -0.030079822099562586
    w93  w114  0.05643082621477096
    w93  w115  -0.043679570154471166
    w93  w116  -0.02884371070350708
    w93  w117  -0.033547262913171644
    w93  w118  0.06002739246146135
    w93  w119  -0.021126278250384756
    w93  w120  -0.009728572939402472
    w93  w121  -0.0384718760344648
    w93  w122  0.03216966869073632
    w93  w123  0.011540907179794021
    w93  w124  -0.013439404003520871
    w93  w125  -0.004107759452719595
    w93  w126  0.0223414176421593
    w93  w127  0.029396714008942625
    w93  w128  -0.05716533137274472
    w93  w129  -0.04967013209782445
    w93  w130  0.041548339974725484
    w93  w131  0.09764071056332681
    w93  w132  0.028444230022601345
    w93  w133  -0.003190016004405594
    w93  w134  0.05165159956976916
    w93  w135  0.00883144153915952
    w93  w136  -0.015264984461511717
    w93  w137  -0.012593447159838992
    w93  w138  0.03232859266400343
    w93  w139  -0.021750045948177144
    w93  w140  0.08706397226871833
    w93  w141  0.054015395171196204
    w93  w142  0.012772927996244129
    w93  w143  -0.13292768722915707
    w93  w144  -0.029312465390537112
    w93  w145  0.025558049290445792
    w93  w146  -0.027132761163874388
    w93  w147  -0.00021306274612126674
    w93  w148  -0.01263256091479966
    w93  w149  -0.024105252414877137
    w93  w150  0.04657549637237339
    w93  w151  -0.009116307598281123
    w93  w152  -0.013940456773206355
    w93  w153  -0.06612783259975005
    w93  w154  0.008207933471709719
    w93  w155  -0.04307094023735307
    w93  w156  0.027576664000991992
    w93  w157  0.05124134912405491
    w93  w158  0.004540898483863137
    w93  w159  -0.000831639716234297
    w93  w160  -0.06349575773888538
    w93  w161  0.055128596759705197
    w93  w162  0.05124081745503008
    w93  w163  -0.06983119752516709
    w93  w164  0.024442311985605442
    w93  w165  -0.05745516479040372
    w93  w166  0.05414842518798458
    w93  w167  -0.016424883388557573
    w93  w168  -0.03606979006859168
    w93  w169  0.022465832321386665
    w93  w170  -0.021945986384052162
    w93  w171  -0.020374988803952575
    w93  w172  0.07373462002036367
    w93  w173  0.06604673106021763
    w93  w174  -0.056125136571241206
    w93  w175  -0.02809008022967768
    w93  w176  0.006351914190302915
    w93  w177  -0.0045373252207496495
    w93  w178  -0.004590584691972997
    w93  w179  -0.022043697929146674
    w93  w180  0.0004467139601656905
    w93  w181  -0.0019403855564853075
    w93  w182  0.013921739997667791
    w93  w183  -0.011045289269586556
    w93  w184  -0.027242410701642746
    w93  w185  -0.03224612463730599
    w93  w186  -0.010588172103974086
    w93  w187  0.050034076800968566
    w93  w188  0.02227697128379162
    w93  w189  0.006234525382756804
    w93  w190  0.045894172375718516
    w93  w191  -0.011921583931448773
    w93  w192  0.06146345159899758
    w93  w193  -0.041147183147285375
    w93  w194  0.001881551557182976
    w93  w195  0.005918604891076555
    w93  w196  -0.04146429967053954
    w93  w197  -0.005668625795331998
    w93  w198  -0.028248306232602164
    w93  w199  -0.0372071197083777
    w94  w94  0.16368185310297964
    w94  w95  0.07036926847403026
    w94  w96  -0.0085047490443187
    w94  w97  0.03712020775795172
    w94  w98  -0.021145347606523788
    w94  w99  -0.039210164891987594
    w94  w100  0.08532827541118967
    w94  w101  0.06035122409314074
    w94  w102  0.02395696213931629
    w94  w103  0.01152724269313512
    w94  w104  0.012093584450747687
    w94  w105  -0.021975583846149255
    w94  w106  0.05310999510214126
    w94  w107  -0.01063534856526028
    w94  w108  0.06971999892649156
    w94  w109  0.02031034365832952
    w94  w110  -0.0339100305834171
    w94  w111  -0.04646834408413789
    w94  w112  0.001422836956477675
    w94  w113  -0.03298888548776043
    w94  w114  -0.002351762962974591
    w94  w115  0.011761381871039358
    w94  w116  0.026974219122691153
    w94  w117  -0.0768094412611404
    w94  w118  0.08236021697449548
    w94  w119  -0.005644242524844329
    w94  w120  -0.01831676010555955
    w94  w121  0.01908758520990918
    w94  w122  0.01730260699461088
    w94  w123  -0.0667057621714906
    w94  w124  0.05599112364053567
    w94  w125  0.010250294441045901
    w94  w126  -0.040159642634557284
    w94  w127  -0.004562856411716151
    w94  w128  -0.0834165491305777
    w94  w129  -0.11108487546912477
    w94  w130  0.11290899598681997
    w94  w131  0.05633259703661367
    w94  w132  0.017722395335602017
    w94  w133  -0.023193356660503834
    w94  w134  0.045015594094278036
    w94  w135  -0.008772895958907869
    w94  w136  0.011505964482497312
    w94  w137  -0.0559146387482979
    w94  w138  0.07386620480080754
    w94  w139  -0.0077481623314800616
    w94  w140  0.01644107845309881
    w94  w141  0.018078248320586784
    w94  w142  -0.08109488316651546
    w94  w143  -0.10460818424627377
    w94  w144  -0.05730962774807736
    w94  w145  0.04779194731447665
    w94  w146  -0.0319754386069951
    w94  w147  0.015252112447624054
    w94  w148  -0.00886431933079637
    w94  w149  0.02185052465509768
    w94  w150  0.06779129632527237
    w94  w151  0.02871351030355275
    w94  w152  -0.02464627456800863
    w94  w153  -0.04464643062216273
    w94  w154  -0.029186938591048574
    w94  w155  -0.05599622003235178
    w94  w156  0.0035115085877323393
    w94  w157  0.010030656363248132
    w94  w158  -0.014608082142272378
    w94  w159  -0.042230480817030694
    w94  w160  -0.0347056725010877
    w94  w161  0.051051581016728284
    w94  w162  0.02176279548757646
    w94  w163  -0.14155780923203842
    w94  w164  -0.02449632294661522
    w94  w165  -0.007730424132171959
    w94  w166  0.039653041150434026
    w94  w167  -0.05357032611534443
    w94  w168  0.07972884682378825
    w94  w169  -0.025416505546444354
    w94  w170  -0.0396141129323328
    w94  w171  0.051689265478025964
    w94  w172  0.0198162721051084
    w94  w173  0.06156378678243669
    w94  w174  -0.08453273488906839
    w94  w175  -0.04013070108954375
    w94  w176  0.011868779937094813
    w94  w177  0.010068388436134189
    w94  w178  0.019948836369227483
    w94  w179  -0.14267244878493188
    w94  w180  0.01407892553390659
    w94  w181  -0.032465677809257854
    w94  w182  0.056285757970725984
    w94  w183  -0.015254467372177042
    w94  w184  -0.10388275805688828
    w94  w185  -0.04651144698188571
    w94  w186  -0.02511608541694511
    w94  w187  0.07647358638046817
    w94  w188  0.033433987110415925
    w94  w189  0.06876952688496851
    w94  w190  0.024910848266081663
    w94  w191  0.03857479143304333
    w94  w192  -0.014439877904287484
    w94  w193  -0.04369334007394123
    w94  w194  -0.02757852053165695
    w94  w195  -0.013024467787856644
    w94  w196  -0.02679255941958654
    w94  w197  0.047272994027067174
    w94  w198  -0.08406655936546674
    w94  w199  -0.04715457157898786
    w95  w95  0.31480559579909023
    w95  w96  0.024264569451161774
    w95  w97  0.11097627098924935
    w95  w98  -0.10922067538059228
    w95  w99  0.003547332553801127
    w95  w100  0.00994073454460991
    w95  w101  0.05126749571787938
    w95  w102  0.09874485145360741
    w95  w103  0.08961128569421478
    w95  w104  -0.18469114750949056
    w95  w105  0.04084633638653437
    w95  w106  0.09970699888390339
    w95  w107  -0.14828602448023914
    w95  w108  -0.08785762738727303
    w95  w109  -0.001050156413692125
    w95  w110  -0.07599205747591245
    w95  w111  0.03158997802175794
    w95  w112  -0.12077039637147956
    w95  w113  -0.037700983121337885
    w95  w114  -0.060700283372090894
    w95  w115  0.038484639662763005
    w95  w116  -0.04297135858762968
    w95  w117  -0.06704055132818983
    w95  w118  0.08340810993027103
    w95  w119  0.0017758361825695695
    w95  w120  0.10655073922801214
    w95  w121  0.09071234800144615
    w95  w122  -0.02490084095240123
    w95  w123  -0.05884337906475443
    w95  w124  0.14206171015184219
    w95  w125  0.0812279542937299
    w95  w126  -0.042825066607169365
    w95  w127  0.020531727431332338
    w95  w128  -0.07823645533650064
    w95  w129  -0.05843744982372759
    w95  w130  0.11226630224507943
    w95  w131  0.035124851843294586
    w95  w132  0.02199954136204949
    w95  w133  -0.02473737856247348
    w95  w134  0.04059998610785553
    w95  w135  -0.049280768342626693
    w95  w136  -0.04069999593938491
    w95  w137  -0.047376535463068
    w95  w138  0.0968390747844028
    w95  w139  0.14587157900139375
    w95  w140  -0.052310717196360414
    w95  w141  -0.1052626824578681
    w95  w142  -0.09451132263289512
    w95  w143  0.056633610954086144
    w95  w144  -0.07796015894143708
    w95  w145  0.009060895862514164
    w95  w146  -0.07189887914572954
    w95  w147  0.040037057354696474
    w95  w148  -0.033986273409435615
    w95  w149  0.10675582269438717
    w95  w150  0.003448825657138093
    w95  w151  0.07643806775084822
    w95  w152  -0.016453549919535577
    w95  w153  -0.06379166704328142
    w95  w154  -0.05376134936494073
    w95  w155  -0.08271933390403338
    w95  w156  -0.037935406380945585
    w95  w157  -0.09418227636344659
    w95  w158  0.03220224236425203
    w95  w159  -0.01056306762487694
    w95  w160  -0.10310334841251327
    w95  w161  0.15189082531937625
    w95  w162  0.04987661703805395
    w95  w163  -0.07464172544934576
    w95  w164  0.05092539855834779
    w95  w165  0.01897849755540835
    w95  w166  -0.00020691246557477167
    w95  w167  0.029988546611811086
    w95  w168  0.1164503452545018
    w95  w169  -0.08002985766170277
    w95  w170  0.012586611207705703
    w95  w171  0.0016871188186277286
    w95  w172  -0.15128040396671968
    w95  w173  0.05050121554662542
    w95  w174  0.006222748821684832
    w95  w175  0.004488018412014262
    w95  w176  0.0053363935555014
    w95  w177  0.08359510393245388
    w95  w178  0.060054061856825415
    w95  w179  -0.05941783746331396
    w95  w180  0.018894403924209137
    w95  w181  -0.046066102442071946
    w95  w182  0.04587487590063549
    w95  w183  -0.06932511095362544
    w95  w184  -0.11392135773710631
    w95  w185  -0.022672369134300697
    w95  w186  -0.15310192550270252
    w95  w187  -0.02299969119674793
    w95  w188  0.10523792550093714
    w95  w189  0.07617594195924646
    w95  w190  -0.020279583044497368
    w95  w191  0.1390594278340603
    w95  w192  -0.13158476236228805
    w95  w193  -0.016536303410363436
    w95  w194  -0.06654297573258076
    w95  w195  0.08280704992328135
    w95  w196  -0.009228019766326619
    w95  w197  0.012041003817638014
    w95  w198  0.04018354163663923
    w95  w199  -0.07940243075170743
    w96  w96  0.19749027097730804
    w96  w97  -0.012328637314958311
    w96  w98  0.011116906957633238
    w96  w99  0.0026716402438446284
    w96  w100  0.06634640171117208
    w96  w101  -0.010790969988347505
    w96  w102  -0.04174076400425903
    w96  w103  0.08674544526944682
    w96  w104  -0.09426639334701492
    w96  w105  -0.0471138870691063
    w96  w106  0.00811359683681702
    w96  w107  -0.11025056885889013
    w96  w108  0.021248996538956223
    w96  w109  0.012704706445034705
    w96  w110  -0.01464429396447916
    w96  w111  -0.0796321586056098
    w96  w112  0.03294235020930486
    w96  w113  0.02078869828507255
    w96  w114  0.04790546144979934
    w96  w115  0.010235960336471155
    w96  w116  -0.07550077354515651
    w96  w117  -0.03395454464179856
    w96  w118  0.044024262768216874
    w96  w119  0.043283755206821255
    w96  w120  0.06895779257523117
    w96  w121  -0.03906892314546605
    w96  w122  0.004194014884601467
    w96  w123  0.050798235803834454
    w96  w124  -0.04573209958653018
    w96  w125  0.07062994194566144
    w96  w126  0.057733399897530194
    w96  w127  0.0034053237403900063
    w96  w128  -0.0038991397470012784
    w96  w129  0.03989463005993781
    w96  w130  -0.060803155661750194
    w96  w131  0.07102333965713348
    w96  w132  0.04867198776752272
    w96  w133  -0.009558340138698928
    w96  w134  0.012593808094221455
    w96  w135  0.0044288271697898556
    w96  w136  0.013615442668173222
    w96  w137  -0.02798759031193441
    w96  w138  -0.06488155736350242
    w96  w139  0.10148870857946247
    w96  w140  0.01936671837138347
    w96  w141  -0.01469056825793764
    w96  w142  0.08371088991740201
    w96  w143  -0.014259515857247175
    w96  w144  0.028006781003751098
    w96  w145  -0.006290454565488042
    w96  w146  -0.0002589318407782161
    w96  w147  -0.010419868866636598
    w96  w148  -0.08457331314199948
    w96  w149  -0.055175803668146804
    w96  w150  0.008565323999975217
    w96  w151  -0.0011381452503681745
    w96  w152  0.008247661023721408
    w96  w153  -0.12002819542001661
    w96  w154  0.024288017453010312
    w96  w155  -0.030095040474254566
    w96  w156  0.004914613499268931
    w96  w157  0.07308699564771176
    w96  w158  0.013521794604720241
    w96  w159  0.05779746605073443
    w96  w160  -0.036734607328706814
    w96  w161  0.027589080871680122
    w96  w162  0.03377142322069265
    w96  w163  0.013635692976477095
    w96  w164  0.0854420613160557
    w96  w165  -0.09053913273482589
    w96  w166  0.03635793092615681
    w96  w167  0.07091001270574773
    w96  w168  -0.09569105702247604
    w96  w169  0.08673559872599002
    w96  w170  0.016088814815432367
    w96  w171  -0.08415452346763591
    w96  w172  -0.03055401369205616
    w96  w173  0.028448384349895068
    w96  w174  0.0007169269642851737
    w96  w175  0.023909045353548278
    w96  w176  -0.08744635106166421
    w96  w177  0.018569619116476827
    w96  w178  0.04492070922415891
    w96  w179  0.005172714702320738
    w96  w180  -0.031795015716374816
    w96  w181  -0.026404058645355655
    w96  w182  -0.057385589139433986
    w96  w183  -0.03803302651532851
    w96  w184  -0.04200362412010525
    w96  w185  0.014234745459847674
    w96  w186  -0.03803840225854669
    w96  w187  -0.06138000932110681
    w96  w188  0.05586928907194211
    w96  w189  -0.0824225278435982
    w96  w190  -0.05589586603184085
    w96  w191  -0.009255803945940133
    w96  w192  0.1074123727243046
    w96  w193  -0.014839400862911092
    w96  w194  0.026153905521769435
    w96  w195  0.11157002224917914
    w96  w196  -0.019142985688373318
    w96  w197  -0.05542598965918341
    w96  w198  0.08601502554607905
    w96  w199  -0.09477589159880828
    w97  w97  0.28136056261308195
    w97  w98  0.034762480527145576
    w97  w99  0.011225189391487866
    w97  w100  -4.267932101404473e-05
    w97  w101  0.02700159001738843
    w97  w102  -0.054452050993559264
    w97  w103  -0.09928379943703226
    w97  w104  -0.025908137807805327
    w97  w105  -0.10717633210574386
    w97  w106  0.055224281034648846
    w97  w107  -0.17632773004886396
    w97  w108  0.10992463265249956
    w97  w109  -0.1192631642542621
    w97  w110  -0.014930799444009098
    w97  w111  -0.01083613453897094
    w97  w112  -0.08859926832459279
    w97  w113  -0.1725890390716217
    w97  w114  0.029150650973072217
    w97  w115  0.004093258246878794
    w97  w116  -0.031029293580147017
    w97  w117  -0.032686769255389
    w97  w118  0.011709273218656105
    w97  w119  -0.052864030958613265
    w97  w120  0.03641951969292785
    w97  w121  0.06733598803644979
    w97  w122  0.12219740798399831
    w97  w123  0.011599297906888906
    w97  w124  0.11615798352994232
    w97  w125  0.004823089358238181
    w97  w126  -0.007074879507040665
    w97  w127  0.07626021192932675
    w97  w128  -0.08369487506570962
    w97  w129  -0.08192502870471388
    w97  w130  0.017707541988880467
    w97  w131  0.07267987069512849
    w97  w132  -0.026741379699767566
    w97  w133  -0.04501197815855915
    w97  w134  0.025911898252806813
    w97  w135  -0.02260897931773633
    w97  w136  -0.03941161222732157
    w97  w137  0.09812847103055038
    w97  w138  0.14370707884594403
    w97  w139  -0.05253744453867626
    w97  w140  -0.024800822134077572
    w97  w141  -0.054771260437307276
    w97  w142  0.1030762047440961
    w97  w143  -0.06514663071924381
    w97  w144  -0.07894153877109758
    w97  w145  0.036430101903743226
    w97  w146  -0.03146391478707988
    w97  w147  0.07222557856850018
    w97  w148  -0.0034298105950739508
    w97  w149  0.013541804581342007
    w97  w150  0.07719894651700863
    w97  w151  -0.06136056709974984
    w97  w152  0.03253288742899105
    w97  w153  -0.11001179878306022
    w97  w154  -0.007046789147883453
    w97  w155  0.008696084537696143
    w97  w156  -0.017515264326820615
    w97  w157  -0.0804772329352706
    w97  w158  0.021703825692878344
    w97  w159  -0.07227031966473922
    w97  w160  -0.12641457019515748
    w97  w161  0.09684263905605152
    w97  w162  0.07190943105227442
    w97  w163  -0.04491587271499274
    w97  w164  0.019906638340259547
    w97  w165  0.04911671696438444
    w97  w166  -0.06326321619709181
    w97  w167  -0.0009989717093632645
    w97  w168  0.025085272000695297
    w97  w169  -0.037705884711372546
    w97  w170  -0.05034171203156581
    w97  w171  -0.06164115067483278
    w97  w172  0.060141590782240094
    w97  w173  0.10092917962014195
    w97  w174  0.078398900430945
    w97  w175  0.048357817701514295
    w97  w176  0.002007119230877259
    w97  w177  -0.01964905198818745
    w97  w178  -0.05996382444253456
    w97  w179  0.04139251057859019
    w97  w180  0.06326835653887716
    w97  w181  0.02201865420830823
    w97  w182  0.07321509714559121
    w97  w183  -0.10045602877165849
    w97  w184  -0.056846625099682385
    w97  w185  0.002545419100735599
    w97  w186  -0.17926000656302263
    w97  w187  0.016055089917123015
    w97  w188  0.034699664032972095
    w97  w189  0.16306144947171536
    w97  w190  0.08507591838044726
    w97  w191  0.09515032834809002
    w97  w192  -0.04607462652922811
    w97  w193  -0.03806982686947986
    w97  w194  -0.05514762141933785
    w97  w195  0.035188465508333266
    w97  w196  -0.015303294504954093
    w97  w197  0.010718753903301986
    w97  w198  0.002579745118287735
    w97  w199  0.05930763090805128
    w98  w98  0.2607339837808475
    w98  w99  -0.007437279567804959
    w98  w100  0.007476208238315019
    w98  w101  0.011036163921290329
    w98  w102  -0.06442100314699038
    w98  w103  -0.0038859113623812337
    w98  w104  0.012696825266275013
    w98  w105  -0.09899775166551683
    w98  w106  -0.003069783299396407
    w98  w107  -0.07605274528370057
    w98  w108  0.09126602760493362
    w98  w109  -0.13693911241616313
    w98  w110  0.04162653785678877
    w98  w111  -0.04031690783431019
    w98  w112  0.038640177520776205
    w98  w113  -0.06610703314160069
    w98  w114  0.15629784194187266
    w98  w115  -0.023992775626577666
    w98  w116  0.08780288008464286
    w98  w117  0.08512891893321
    w98  w118  -0.06895324006394672
    w98  w119  0.015012456210162516
    w98  w120  0.01839033790274954
    w98  w121  0.03903234879844519
    w98  w122  0.08073466944236517
    w98  w123  -0.009112236508740391
    w98  w124  0.007143393444490842
    w98  w125  -0.04734407020019542
    w98  w126  0.01833104748698782
    w98  w127  -0.02450971791443314
    w98  w128  -0.005448245997386235
    w98  w129  -0.03733777849955314
    w98  w130  -0.07720377069802306
    w98  w131  -0.01207041335564064
    w98  w132  -0.062229976955830615
    w98  w133  -0.1098715131641303
    w98  w134  0.04433229375694083
    w98  w135  0.03651875214349469
    w98  w136  0.0008888314483496556
    w98  w137  0.1058633110163446
    w98  w138  0.015381459792498204
    w98  w139  -0.0850701423652326
    w98  w140  -0.0024043535129148774
    w98  w141  -0.024587181710377815
    w98  w142  0.22104574375648325
    w98  w143  -0.09643906851840267
    w98  w144  0.09604238443141432
    w98  w145  0.030260975820220703
    w98  w146  0.04477402391976851
    w98  w147  -0.05563339689853473
    w98  w148  -0.055419470292844296
    w98  w149  -0.1244097993002392
    w98  w150  0.08518641761055597
    w98  w151  -0.09167209491358323
    w98  w152  -0.004426022526881088
    w98  w153  -0.04492777508236885
    w98  w154  0.12203276855247383
    w98  w155  -0.0074680067653174
    w98  w156  -0.02589384972148494
    w98  w157  0.015511365788667093
    w98  w158  -0.0752273985222949
    w98  w159  -0.031050639106437
    w98  w160  0.034468474182592586
    w98  w161  -0.04026691010257235
    w98  w162  0.02407450927068272
    w98  w163  -0.012823847023682137
    w98  w164  -0.07379373202139929
    w98  w165  0.031031857677937667
    w98  w166  -0.06413417248866674
    w98  w167  0.0057746875955617385
    w98  w168  0.012540212391448615
    w98  w169  0.08538723609672316
    w98  w170  -0.0159326654726036
    w98  w171  -0.16445916756177267
    w98  w172  0.13626005124717666
    w98  w173  0.028848396521610413
    w98  w174  -0.007697465671263134
    w98  w175  0.11334480597224579
    w98  w176  -0.007769762430360024
    w98  w177  -0.03624327827920289
    w98  w178  -0.051947826180380366
    w98  w179  0.0008210283037885447
    w98  w180  -0.00625602267122666
    w98  w181  -0.02463960219418162
    w98  w182  -0.01595958389099174
    w98  w183  -0.034326324021768606
    w98  w184  0.014195336482204078
    w98  w185  0.0030358089641423216
    w98  w186  0.05930093561680967
    w98  w187  0.007921409302158658
    w98  w188  -0.02368444055648085
    w98  w189  0.04582640135280337
    w98  w190  0.1095815227244369
    w98  w191  -0.0013521894861212972
    w98  w192  0.10294247780197112
    w98  w193  0.03525746971370857
    w98  w194  0.01056734264070067
    w98  w195  0.023036577543804445
    w98  w196  0.05181782102099612
    w98  w197  0.07532047431341346
    w98  w198  -0.05667832280440681
    w98  w199  0.07906323156265362
    w99  w99  0.14584923305975955
    w99  w100  0.014735829621245944
    w99  w101  0.0014177529465507824
    w99  w102  -0.022051733759344327
    w99  w103  0.031058462181990855
    w99  w104  -0.014726639028180583
    w99  w105  -0.07649011050985373
    w99  w106  -0.06157305503688829
    w99  w107  -0.005540318767581408
    w99  w108  -0.023197087094960902
    w99  w109  0.07490555968460269
    w99  w110  -0.0022282885868924536
    w99  w111  0.0522899860707708
    w99  w112  0.006449467679421845
    w99  w113  0.025383084273273515
    w99  w114  -0.012433159454544826
    w99  w115  0.011956561841135195
    w99  w116  -0.001615714797973594
    w99  w117  0.06384175682074382
    w99  w118  0.00926131489559281
    w99  w119  -0.01530337645307275
    w99  w120  -0.004669976290681041
    w99  w121  0.03497566702149236
    w99  w122  -0.05057752864911937
    w99  w123  0.05264132283694711
    w99  w124  0.0026463800231236174
    w99  w125  -0.058572057568816595
    w99  w126  -0.007333201840819127
    w99  w127  0.07362099212254221
    w99  w128  0.016536983053921286
    w99  w129  -0.004010098580333366
    w99  w130  -0.04347184229133879
    w99  w131  -0.0020152471301588177
    w99  w132  -0.006178441354949385
    w99  w133  -0.03485538085587099
    w99  w134  0.03420309827762825
    w99  w135  0.0683885849312617
    w99  w136  0.03370564408918597
    w99  w137  0.00792167365964717
    w99  w138  -0.049033477034852
    w99  w139  0.02433365670562647
    w99  w140  -0.0024570405288215414
    w99  w141  -0.020137259944232846
    w99  w142  0.04853083308666539
    w99  w143  0.06105753298479999
    w99  w144  -0.041338173108543506
    w99  w145  -0.006961047074417946
    w99  w146  -0.051989868800205154
    w99  w147  0.02757456916086503
    w99  w148  0.0021299019970650803
    w99  w149  -0.03663417548433535
    w99  w150  -0.054068900022992736
    w99  w151  -0.06412861411407875
    w99  w152  0.024989358358920064
    w99  w153  0.00026036329607193433
    w99  w154  -0.03467903897455762
    w99  w155  -0.004855892631084254
    w99  w156  0.03932914259729983
    w99  w157  -0.04775066565559069
    w99  w158  0.01287267618253689
    w99  w159  0.00553858560129063
    w99  w160  0.022882254151924103
    w99  w161  -0.029439872340952335
    w99  w162  -0.04418596198351712
    w99  w163  0.078277537750302
    w99  w164  0.06242443822134899
    w99  w165  0.029005613293401667
    w99  w166  0.01562699947843
    w99  w167  0.03899954607806432
    w99  w168  -0.06814248968464214
    w99  w169  0.051128827514386924
    w99  w170  -0.051621701741030514
    w99  w171  0.03163866600296829
    w99  w172  0.002233296978020032
    w99  w173  -0.007251487073579574
    w99  w174  0.07998504900735175
    w99  w175  0.007564263819259099
    w99  w176  -0.0023238542517827233
    w99  w177  -0.07066137754545575
    w99  w178  -0.061494721838256355
    w99  w179  0.04088153151013879
    w99  w180  0.006492464215293376
    w99  w181  0.008421859200287311
    w99  w182  -0.026235982513213164
    w99  w183  0.01584902079105742
    w99  w184  0.028605060047169405
    w99  w185  0.026843455542754503
    w99  w186  0.05255660934962012
    w99  w187  -0.06078185517193744
    w99  w188  -0.004935205607414335
    w99  w189  0.0005908843712985386
    w99  w190  -0.024595953077894982
    w99  w191  0.029428096902946302
    w99  w192  -0.023542383599137563
    w99  w193  0.07943281477653955
    w99  w194  -0.009874714950218265
    w99  w195  -0.004299157618020925
    w99  w196  -0.052635349483866126
    w99  w197  -0.02292911305081319
    w99  w198  0.035728539744532495
    w99  w199  0.008656292496212697
    w100  w100  0.28063805514867207
    w100  w101  0.04784764140849453
    w100  w102  -0.04432341958049283
    w100  w103  0.0015992909200214802
    w100  w104  0.000671546453597533
    w100  w105  -0.1223272239033172
    w100  w106  -0.007067163358576643
    w100  w107  0.018830225643034208
    w100  w108  0.14176162264216235
    w100  w109  0.06693016529499804
    w100  w110  0.007010801937101965
    w100  w111  -0.047488329526386396
    w100  w112  0.03045746327922678
    w100  w113  0.03206308350744161
    w100  w114  0.03694367346976032
    w100  w115  -0.030800291239122504
    w100  w116  -0.018846965332732973
    w100  w117  -0.0005604705729516967
    w100  w118  0.15296651268224234
    w100  w119  0.02360937258901763
    w100  w120  -0.0010381315177991313
    w100  w121  -0.013835131446423279
    w100  w122  -0.01688166619349075
    w100  w123  0.03996554248275117
    w100  w124  -0.0324704147378856
    w100  w125  0.0019834208017591535
    w100  w126  0.04202786267158306
    w100  w127  0.063716286859038
    w100  w128  -0.0995322298111952
    w100  w129  -0.1177913754592934
    w100  w130  0.03741088479604647
    w100  w131  0.0855311346321403
    w100  w132  0.00866380922754976
    w100  w133  -0.04577971625506631
    w100  w134  0.03501838337793738
    w100  w135  0.045514975039637015
    w100  w136  0.04279028324669982
    w100  w137  -0.033315407968326945
    w100  w138  -0.011473257063705085
    w100  w139  0.042093264017056715
    w100  w140  0.0977968217744835
    w100  w141  0.06320946478556588
    w100  w142  0.036024048876728006
    w100  w143  -0.1371654142087066
    w100  w144  -0.07559485166800298
    w100  w145  0.026303705045673153
    w100  w146  -0.10049315548024429
    w100  w147  0.011298393428202881
    w100  w148  -0.08397653580978467
    w100  w149  -0.029115934785212093
    w100  w150  0.04197329508112534
    w100  w151  -0.014780053273967097
    w100  w152  -0.021249482000728497
    w100  w153  -0.1624467467384067
    w100  w154  -0.04469839798918855
    w100  w155  -0.09320546510756819
    w100  w156  0.05779467149038353
    w100  w157  0.04887072585545278
    w100  w158  0.024721155266148837
    w100  w159  0.04484185607148759
    w100  w160  -0.06446420867158374
    w100  w161  0.008662228457499175
    w100  w162  -0.022466429729389326
    w100  w163  -0.10164502023592804
    w100  w164  0.10520052049101677
    w100  w165  -0.04094957149702697
    w100  w166  0.08765747919473679
    w100  w167  0.008916841185269007
    w100  w168  -0.06306237357648159
    w100  w169  0.14538131919282576
    w100  w170  -0.0123387681467862
    w100  w171  -0.008944865184237217
    w100  w172  0.05724479284512543
    w100  w173  0.029282229399435648
    w100  w174  -0.07251407212010287
    w100  w175  -0.05488651713755609
    w100  w176  -0.022729643401154756
    w100  w177  -0.0327954431921337
    w100  w178  0.006094475220988068
    w100  w179  -0.09063348339708828
    w100  w180  0.021765939615242928
    w100  w181  -0.12993095120610795
    w100  w182  0.019025768415510257
    w100  w183  0.014158089446524892
    w100  w184  -0.08446609861138228
    w100  w185  -0.025539116437941052
    w100  w186  -0.005210206826763724
    w100  w187  0.03225284623556088
    w100  w188  0.04076661962658301
    w100  w189  -0.010083608861314658
    w100  w190  0.07753097910919297
    w100  w191  0.08329138006184449
    w100  w192  0.07527382524553884
    w100  w193  0.013567583066985682
    w100  w194  -0.044806615718529084
    w100  w195  0.006237770465581312
    w100  w196  -0.07920213340221198
    w100  w197  0.005993030584981594
    w100  w198  -0.008424282095159025
    w100  w199  -0.08805086386829883
    w101  w101  0.1469783336542837
    w101  w102  0.019872263626852543
    w101  w103  0.04455593729516389
    w101  w104  0.022701140106149136
    w101  w105  -0.05978234872328925
    w101  w106  0.04204418860285718
    w101  w107  -0.03328270724927174
    w101  w108  0.029407821027645616
    w101  w109  -0.028068235491079417
    w101  w110  -0.07134213033761283
    w101  w111  0.04547355245288632
    w101  w112  0.04894402987675454
    w101  w113  -0.032531351433173455
    w101  w114  0.0011580609074350891
    w101  w115  0.056377995705373087
    w101  w116  0.07614324902287224
    w101  w117  -0.007563450570057242
    w101  w118  0.0699820961488175
    w101  w119  0.045329114122835065
    w101  w120  0.01782097905914009
    w101  w121  0.01970671347821356
    w101  w122  0.032102706524228544
    w101  w123  -0.03892114790908752
    w101  w124  0.07034652481586119
    w101  w125  -0.010598416627170088
    w101  w126  -0.023570402573707037
    w101  w127  0.008307911906389564
    w101  w128  -0.04020383438233258
    w101  w129  -0.09117036079749151
    w101  w130  0.02590542344818869
    w101  w131  -0.007416012361588712
    w101  w132  -0.02034714861905198
    w101  w133  -0.0422617600802118
    w101  w134  0.00854307284400699
    w101  w135  0.02082131707216429
    w101  w136  0.033080364506746486
    w101  w137  -0.011320854204905596
    w101  w138  0.018581194508563496
    w101  w139  -0.010673366145651368
    w101  w140  -0.04324757117090777
    w101  w141  -0.01825079231908689
    w101  w142  0.013095701540711916
    w101  w143  -0.03920401888296995
    w101  w144  -0.030436695704805297
    w101  w145  0.025053622726078178
    w101  w146  -0.012129177131493146
    w101  w147  0.03719873167198044
    w101  w148  -0.04644106811235567
    w101  w149  -0.012920837194217364
    w101  w150  0.04498329218670838
    w101  w151  -0.0031128731890903475
    w101  w152  0.020813412097548917
    w101  w153  -0.08157644255129921
    w101  w154  0.0012507542149904443
    w101  w155  0.008877953549664065
    w101  w156  0.012117921945615156
    w101  w157  -0.014097498520235974
    w101  w158  -0.006615074452397574
    w101  w159  -0.06269446879748636
    w101  w160  -7.498782258267729e-05
    w101  w161  -0.014038532945369313
    w101  w162  -0.005497816715322115
    w101  w163  -0.0883830291272429
    w101  w164  -0.028398273676688245
    w101  w165  0.042350741740246625
    w101  w166  -0.02527429010552399
    w101  w167  -0.029545704288110007
    w101  w168  0.07986792636390505
    w101  w169  0.01568949516869951
    w101  w170  -0.06785942489760478
    w101  w171  0.0278793421352364
    w101  w172  0.005185042026187437
    w101  w173  0.0001787607304021779
    w101  w174  -0.024502069711226013
    w101  w175  -0.0035906885999484888
    w101  w176  -0.01573575585521373
    w101  w177  -0.02712831060580912
    w101  w178  -0.018375457582855866
    w101  w179  -0.13015898587207148
    w101  w180  0.050175196802843235
    w101  w181  -0.0555871524582725
    w101  w182  0.005018313551735073
    w101  w183  -0.02393260344729289
    w101  w184  -0.07053895867602383
    w101  w185  0.0008134035851807604
    w101  w186  -0.017559159261334653
    w101  w187  0.04647068421630601
    w101  w188  0.01359462661949618
    w101  w189  0.05710926256050888
    w101  w190  0.02460748915000047
    w101  w191  0.05128353694768978
    w101  w192  -0.02143587268558202
    w101  w193  -0.026070225644449906
    w101  w194  -0.04653496275478742
    w101  w195  -0.006579834182008463
    w101  w196  -0.04793478781085494
    w101  w197  0.05118305295346153
    w101  w198  -0.06542523252370161
    w101  w199  -0.014094524334202744
    w102  w102  0.17662003182095054
    w102  w103  0.08452914193734629
    w102  w104  -0.07324994508007042
    w102  w105  0.12062770545101993
    w102  w106  0.04030054934125427
    w102  w107  0.02397174210386248
    w102  w108  -0.1646506527561387
    w102  w109  0.023206263115406914
    w102  w110  -0.04006730849327528
    w102  w111  0.05267836389179231
    w102  w112  -0.05110619476306387
    w102  w113  0.05968179214044114
    w102  w114  -0.07915747761508515
    w102  w115  0.01611209242630995
    w102  w116  0.02482714968039371
    w102  w117  -0.025751641028997675
    w102  w118  -0.026016183554028207
    w102  w119  0.005619080849957682
    w102  w120  -0.007013056106652431
    w102  w121  0.07116095944847615
    w102  w122  -0.07492108300058879
    w102  w123  -0.09790152708740778
    w102  w124  0.03396502459116489
    w102  w125  0.04075384669870103
    w102  w126  -0.06272433980071901
    w102  w127  -0.07056827988755834
    w102  w128  0.0040630036110193505
    w102  w129  -0.0029286312732480814
    w102  w130  0.08429310046787884
    w102  w131  -0.07159130124266574
    w102  w132  -0.011256247127110907
    w102  w133  -0.006981357799571609
    w102  w134  -0.027556013261043892
    w102  w135  -0.042868457810310547
    w102  w136  0.010522703738237401
    w102  w137  -0.05550614392993823
    w102  w138  0.026189298186322815
    w102  w139  0.07436813121273
    w102  w140  -0.06472593737351369
    w102  w141  -0.05479705290385434
    w102  w142  -0.1493115017063983
    w102  w143  0.07613252101833881
    w102  w144  -0.00639659085124065
    w102  w145  -0.008294354168085445
    w102  w146  -0.007781304482899752
    w102  w147  -0.030663439242529445
    w102  w148  0.036169202847185465
    w102  w149  0.10123926216495072
    w102  w150  -0.015178999433759475
    w102  w151  0.07934908569465761
    w102  w152  -0.04361283034732672
    w102  w153  0.10892686609136605
    w102  w154  -0.031665568180069936
    w102  w155  -0.057858394225718354
    w102  w156  -0.05583033310634508
    w102  w157  -0.047603631436896686
    w102  w158  -0.019781667161600913
    w102  w159  0.02857588881375414
    w102  w160  0.058239290732105146
    w102  w161  0.003168757501960343
    w102  w162  -0.03650391856536563
    w102  w163  -0.030034891011049395
    w102  w164  -0.042748800724686134
    w102  w165  0.025889043811288984
    w102  w166  -0.007125664283328086
    w102  w167  -0.027792314933518553
    w102  w168  0.12291039755268977
    w102  w169  -0.055784382533459326
    w102  w170  0.06294954923754756
    w102  w171  0.059782330738291076
    w102  w172  -0.117609650619259
    w102  w173  -0.043975108749631495
    w102  w174  -0.04578355081431241
    w102  w175  -0.010199187772069967
    w102  w176  0.028405648413255043
    w102  w177  0.06491315850114172
    w102  w178  0.08166076943295189
    w102  w179  -0.07794895580440098
    w102  w180  -0.03853798786474271
    w102  w181  -0.03588043350578057
    w102  w182  0.0432624673510846
    w102  w183  0.0318425475512765
    w102  w184  -0.04784252641251807
    w102  w185  -0.029047576876050994
    w102  w186  0.009803001906099063
    w102  w187  -0.0037009525336111795
    w102  w188  0.01963772440050249
    w102  w189  -0.0007252444569940239
    w102  w190  -0.04306560454626136
    w102  w191  0.04859169918661502
    w102  w192  -0.09242929221033591
    w102  w193  0.030909860277876424
    w102  w194  -0.01653217947952319
    w102  w195  -0.006975529328142289
    w102  w196  0.07741925626587871
    w102  w197  0.04105268078084856
    w102  w198  -0.025207361417414625
    w102  w199  -0.008838594633131578
    w103  w103  0.4702195400465965
    w103  w104  -0.12165323870945612
    w103  w105  0.07196103483260904
    w103  w106  -0.007453962944392513
    w103  w107  -0.09341179306196078
    w103  w108  -0.12463531972321282
    w103  w109  0.10934117979306954
    w103  w110  -0.04170050114951333
    w103  w111  0.00430959810163449
    w103  w112  0.045949660121836475
    w103  w113  0.06176916408656659
    w103  w114  0.0748374715080719
    w103  w115  0.018813058111225668
    w103  w116  0.041864992676609876
    w103  w117  0.02562221969079129
    w103  w118  -0.03018967535686966
    w103  w119  0.06639040322845753
    w103  w120  0.0688423609097057
    w103  w121  0.016942088830608073
    w103  w122  -0.0488356800911847
    w103  w123  -0.13237110740803915
    w103  w124  0.04282103147471859
    w103  w125  0.013412637381755667
    w103  w126  -0.043991842409673014
    w103  w127  -0.034204145239459624
    w103  w128  0.07178808180997526
    w103  w129  0.04595133603300208
    w103  w130  -0.005292824502129884
    w103  w131  0.05823082387263702
    w103  w132  0.023378853301139955
    w103  w133  -0.113322491219517
    w103  w134  0.061022716306893196
    w103  w135  0.07076777654812286
    w103  w136  0.06833146073707151
    w103  w137  -0.07059645934540124
    w103  w138  -0.09864418153072463
    w103  w139  0.19834585124541476
    w103  w140  -0.07891154836376
    w103  w141  -0.1642281814338919
    w103  w142  0.02488000428462818
    w103  w143  -0.04881036217644449
    w103  w144  -0.012452362684944103
    w103  w145  -0.042690080374439957
    w103  w146  0.0020204705890951432
    w103  w147  -0.030454368005508416
    w103  w148  0.02578938405727202
    w103  w149  0.012662679071429732
    w103  w150  0.01945656933595702
    w103  w151  0.003483018035622845
    w103  w152  0.03937810539975784
    w103  w153  0.05193203595455388
    w103  w154  0.16698979004386863
    w103  w155  -0.11194082647359814
    w103  w156  -0.036324873762656106
    w103  w157  0.035345267553026444
    w103  w158  -0.03025533386690893
    w103  w159  0.053932758889761054
    w103  w160  0.14174895948985286
    w103  w161  0.018481751492567894
    w103  w162  0.11657766678413067
    w103  w163  0.002896606577607613
    w103  w164  -0.03200772286861461
    w103  w165  -0.1321898522858104
    w103  w166  -0.040401550559836165
    w103  w167  -0.037238733858157895
    w103  w168  0.08459271820663283
    w103  w169  0.06901143618199815
    w103  w170  -0.08081145870428726
    w103  w171  -0.0022244506831264163
    w103  w172  -0.13128264406595422
    w103  w173  -0.046711563685544404
    w103  w174  -0.0536388080433133
    w103  w175  0.061985633826243544
    w103  w176  -0.04720909914694522
    w103  w177  -0.007538654454615532
    w103  w178  0.0837439409198506
    w103  w179  -0.1731771810819313
    w103  w180  -0.12249505854536563
    w103  w181  0.026851251046163323
    w103  w182  -0.12357256248404103
    w103  w183  0.00894388663441284
    w103  w184  -0.05594393584902554
    w103  w185  -0.03302260706124145
    w103  w186  0.11266531366351237
    w103  w187  -0.021318564536331266
    w103  w188  0.1146734368028447
    w103  w189  -0.177428531166449
    w103  w190  -0.17192971558202907
    w103  w191  -0.03320884027533672
    w103  w192  0.04616492512535841
    w103  w193  -0.010321605831467013
    w103  w194  -0.0017770577272169426
    w103  w195  0.1587675997144834
    w103  w196  -0.009026426994719299
    w103  w197  -0.00883307057546707
    w103  w198  -0.07429036233191783
    w103  w199  -0.039923604838565656
    w104  w104  0.3366905140562537
    w104  w105  -0.05898072084896064
    w104  w106  -0.0453640882989867
    w104  w107  0.15294342353733464
    w104  w108  0.1364854490825362
    w104  w109  -0.014273110332782848
    w104  w110  -0.01597193090237107
    w104  w111  0.05858617662949251
    w104  w112  0.13718987196601268
    w104  w113  -0.04248718986181878
    w104  w114  -0.026049792028825708
    w104  w115  0.02458306504106895
    w104  w116  0.07780090196250475
    w104  w117  0.0003435055922224042
    w104  w118  0.0018110097209402636
    w104  w119  0.01338768887474966
    w104  w120  -0.12876299738065244
    w104  w121  -0.10897947864143993
    w104  w122  0.10001617080609322
    w104  w123  0.015019426633624112
    w104  w124  -0.0453439706926631
    w104  w125  -0.08209952577498582
    w104  w126  0.008004836944784639
    w104  w127  0.025605162063244192
    w104  w128  0.0347576256821575
    w104  w129  -0.0304947443155841
    w104  w130  -0.043867773210429
    w104  w131  -0.019883045296750584
    w104  w132  -0.036613840359021876
    w104  w133  0.056795087080559525
    w104  w134  -0.09931602178163634
    w104  w135  0.03482985557523844
    w104  w136  0.06567899794410896
    w104  w137  0.039826750114206076
    w104  w138  -0.02959628930860339
    w104  w139  -0.19079355945161966
    w104  w140  -0.008156734550799103
    w104  w141  0.10100088539518597
    w104  w142  0.010702279236863815
    w104  w143  -0.1074677961105144
    w104  w144  -0.05463896323303588
    w104  w145  -0.0026969754651265617
    w104  w146  0.051344979684971565
    w104  w147  0.075324647061439
    w104  w148  0.06958093372485162
    w104  w149  -0.014981530402912516
    w104  w150  0.03715646624223475
    w104  w151  -0.05500641337519633
    w104  w152  0.08000842909579137
    w104  w153  -0.0004479659778185196
    w104  w154  0.009105411742418888
    w104  w155  0.14996638275289276
    w104  w156  0.06112699746802069
    w104  w157  0.055849815190682744
    w104  w158  0.025254440433222794
    w104  w159  -0.07801474394812141
    w104  w160  0.060674545716905844
    w104  w161  -0.14505434816374602
    w104  w162  -0.027552918257234774
    w104  w163  -0.026552528667583425
    w104  w164  -0.07221185586202562
    w104  w165  0.021244152423560442
    w104  w166  -0.053400880656448706
    w104  w167  -0.12200581482647309
    w104  w168  -0.017412418553141764
    w104  w169  0.017085133042767448
    w104  w170  -0.10897270169687741
    w104  w171  0.13691999233536575
    w104  w172  0.1307842111912727
    w104  w173  -0.0665537357290458
    w104  w174  -0.004129001334284673
    w104  w175  -0.07667453159869936
    w104  w176  -0.0032150987181150253
    w104  w177  -0.12019853462375191
    w104  w178  -0.08259683302961202
    w104  w179  -0.06171375074409263
    w104  w180  0.0715418423404485
    w104  w181  0.04172756683904737
    w104  w182  -0.0019360511860794583
    w104  w183  0.04681345834492259
    w104  w184  0.04304652946991661
    w104  w185  0.023143581391458518
    w104  w186  0.03129120246805761
    w104  w187  0.12422402850429504
    w104  w188  -0.09350370190660885
    w104  w189  0.0011891816053622754
    w104  w190  0.02179430274412019
    w104  w191  -0.09105775003079027
    w104  w192  0.03448347090252306
    w104  w193  -0.09176590207077749
    w104  w194  -0.013609214558795895
    w104  w195  -0.128915260060401
    w104  w196  -0.07709047132384111
    w104  w197  -0.004779339363254948
    w104  w198  -0.12116287880653769
    w104  w199  0.0997459892278446
    w105  w105  0.33610115973330973
    w105  w106  0.016343118794929806
    w105  w107  0.10473412884820789
    w105  w108  -0.15318645224455385
    w105  w109  0.0390199996421197
    w105  w110  0.06282812281741518
    w105  w111  0.0016407879785820772
    w105  w112  -0.10449853846840396
    w105  w113  0.07380018249020301
    w105  w114  -0.04143626892916225
    w105  w115  -0.07513961128549662
    w105  w116  -0.042795315120469635
    w105  w117  -0.014647985194824466
    w105  w118  -0.09381165270214885
    w105  w119  -0.018533068027280476
    w105  w120  0.007833179881786525
    w105  w121  -0.026347228241296986
    w105  w122  -0.06522675615560772
    w105  w123  -0.10285613181207702
    w105  w124  -0.021160626556607255
    w105  w125  0.05927769153179385
    w105  w126  -0.01957926999437072
    w105  w127  -0.0935278458226013
    w105  w128  0.06725837302726917
    w105  w129  0.12215227362924917
    w105  w130  0.08220831862655893
    w105  w131  -0.028999610076007157
    w105  w132  0.016743094287652045
    w105  w133  0.06863195710708304
    w105  w134  -0.043013073031867834
    w105  w135  -0.0803272580424801
    w105  w136  -0.06870846391387268
    w105  w137  -0.041826075278765563
    w105  w138  0.01357359055058061
    w105  w139  0.09011504134889509
    w105  w140  0.003272841129212128
    w105  w141  -0.03933302032510711
    w105  w142  -0.1838373701428073
    w105  w143  0.03376861374103336
    w105  w144  0.027249550174437056
    w105  w145  -0.06674721097386518
    w105  w146  0.03305828753765164
    w105  w147  -0.06894592995044063
    w105  w148  0.1147494778739302
    w105  w149  0.16249619196299733
    w105  w150  -0.04446054097245229
    w105  w151  0.12899854046900916
    w105  w152  -0.0435636533007801
    w105  w153  0.20213517421635857
    w105  w154  0.06190631617226299
    w105  w155  -0.05595446780931669
    w105  w156  -0.07126724721143489
    w105  w157  0.004816558606005939
    w105  w158  0.00971488636667626
    w105  w159  0.08573127959976383
    w105  w160  0.04211818355376813
    w105  w161  0.06785199061632509
    w105  w162  0.07540813621850447
    w105  w163  0.023927873397978652
    w105  w164  -0.05997679869468545
    w105  w165  -0.07869160019341462
    w105  w166  -0.017082735340956872
    w105  w167  -0.051419039645536485
    w105  w168  0.10132527449288897
    w105  w169  -0.11691860022100832
    w105  w170  0.11879898471471925
    w105  w171  0.017039484989207408
    w105  w172  -0.1425106550936506
    w105  w173  -0.07354102256584952
    w105  w174  -0.08043540278753783
    w105  w175  -0.022798355082017926
    w105  w176  0.07202221546880473
    w105  w177  0.12820010104768498
    w105  w178  0.1283443635389108
    w105  w179  0.03451323927364406
    w105  w180  -0.09251260474490211
    w105  w181  0.0516347422679657
    w105  w182  -0.006006496132687159
    w105  w183  0.05537203495949253
    w105  w184  0.05882480489787772
    w105  w185  -0.052790261511310194
    w105  w186  0.014811674581843197
    w105  w187  0.023330362166658597
    w105  w188  0.030743824486848134
    w105  w189  -0.12882507723107384
    w105  w190  -0.06282961388449505
    w105  w191  -0.0603332678918922
    w105  w192  -0.06390541856748817
    w105  w193  -0.04299322971771015
    w105  w194  0.019565160033215154
    w105  w195  0.018913843046901916
    w105  w196  0.1021623465785197
    w105  w197  -0.021912830894697942
    w105  w198  -0.010896079900411552
    w105  w199  0.011434543126619737
    w106  w106  0.1439253036536192
    w106  w107  -0.08793555623162537
    w106  w108  -0.004201767591489505
    w106  w109  -0.10885857675162988
    w106  w110  -0.06868279529385755
    w106  w111  -0.0009015809535728212
    w106  w112  -0.00837256894501442
    w106  w113  -0.06027336857222037
    w106  w114  -0.009034298985333087
    w106  w115  0.05498122088698687
    w106  w116  0.028100769875184874
    w106  w117  -0.06595496345319607
    w106  w118  0.04505493194057115
    w106  w119  0.04119587331734763
    w106  w120  0.06545893388444814
    w106  w121  0.014064863766865382
    w106  w122  0.055606460859744467
    w106  w123  -0.043673192853984945
    w106  w124  0.08003151085480188
    w106  w125  0.06508715874809747
    w106  w126  -0.00956775726268971
    w106  w127  -0.04676550967697114
    w106  w128  -0.0480363782250555
    w106  w129  -0.04454878111278897
    w106  w130  0.04348057945995226
    w106  w131  -0.017285950653249307
    w106  w132  0.0013067873990116167
    w106  w133  0.008047740658342501
    w106  w134  -0.008352939625271187
    w106  w135  -0.06156224369668227
    w106  w136  -0.03474600804889291
    w106  w137  -0.010943819074483436
    w106  w138  0.06919161969586363
    w106  w139  0.0008838467926071945
    w106  w140  -0.049627767287127
    w106  w141  -0.02307273047599204
    w106  w142  -0.023847803735997073
    w106  w143  0.006568632651971712
    w106  w144  0.0316364222021809
    w106  w145  0.026882092432160432
    w106  w146  0.03201055192333811
    w106  w147  0.011846163284975324
    w106  w148  -0.06694197502813012
    w106  w149  0.016029119275678873
    w106  w150  0.048701999371483735
    w106  w151  0.06033766553737129
    w106  w152  -0.009960087443431277
    w106  w153  -0.081576385563424
    w106  w154  -0.0018829871741716704
    w106  w155  0.022594943031023447
    w106  w156  -0.03365140118397477
    w106  w157  -0.009881998816536081
    w106  w158  -0.008844907762726159
    w106  w159  -0.0611230348115077
    w106  w160  -0.06314563254237951
    w106  w161  0.05399329111478917
    w106  w162  0.025617824271772113
    w106  w163  -0.09691297024389074
    w106  w164  -0.04453127307467173
    w106  w165  0.03797247414917209
    w106  w166  -0.031243506256766706
    w106  w167  0.002833647607238222
    w106  w168  0.10663082382662062
    w106  w169  -0.06868945815435774
    w106  w170  0.01284033049411491
    w106  w171  -0.03828797526803199
    w106  w172  -0.03904658755214825
    w106  w173  0.03092892290813407
    w106  w174  -0.03266847366974936
    w106  w175  0.015435083915211228
    w106  w176  -0.017696550572879076
    w106  w177  0.06716568653345575
    w106  w178  0.03175818574675161
    w106  w179  -0.07039909583568293
    w106  w180  0.04726007852983001
    w106  w181  -0.041844782204161726
    w106  w182  0.02715567225337879
    w106  w183  -0.06716177530863736
    w106  w184  -0.0734162657908015
    w106  w185  -0.0013404567167638792
    w106  w186  -0.10708410157135552
    w106  w187  0.03170024626154708
    w106  w188  0.023595846282354938
    w106  w189  0.07996170316865828
    w106  w190  0.02961414408826983
    w106  w191  0.04135661026432054
    w106  w192  -0.03502865533546042
    w106  w193  -0.06581931785442346
    w106  w194  -0.022379181327801517
    w106  w195  0.02439655709637588
    w106  w196  0.014983199487555793
    w106  w197  0.04652927941262614
    w106  w198  -0.009596616032697434
    w106  w199  -0.03929865548806827
    w107  w107  0.39874969205485866
    w107  w108  0.015749696914125616
    w107  w109  0.13740615613500085
    w107  w110  0.09329506443453824
    w107  w111  0.06360879645536087
    w107  w112  0.02106642839474831
    w107  w113  0.13926189854546533
    w107  w114  -0.054756898182536304
    w107  w115  -0.08196688622439198
    w107  w116  0.03410578439434991
    w107  w117  0.08643388784722851
    w107  w118  0.03585934307046225
    w107  w119  -0.008699968254796424
    w107  w120  -0.09293570548283242
    w107  w121  -0.09094686747088976
    w107  w122  -0.10786041265032122
    w107  w123  0.02162115336935799
    w107  w124  -0.10336914246786873
    w107  w125  -0.08264273740749
    w107  w126  0.018661421094744116
    w107  w127  0.010327941589177088
    w107  w128  0.03499717959125352
    w107  w129  0.014670057495475508
    w107  w130  0.05063755425790272
    w107  w131  -0.060127280066252876
    w107  w132  -0.011455264642726077
    w107  w133  0.08759024474960954
    w107  w134  -0.032351536450593375
    w107  w135  0.029184903764186202
    w107  w136  -0.009845572575906788
    w107  w137  -0.0445315057128695
    w107  w138  -0.0668819233731371
    w107  w139  -0.051827911525867826
    w107  w140  0.12143470398075239
    w107  w141  0.14013285613630053
    w107  w142  -0.1520196886085469
    w107  w143  -0.011533376283210042
    w107  w144  -0.017166210681564726
    w107  w145  -0.04288114634014014
    w107  w146  -0.03868999525893145
    w107  w147  -0.029517859821013903
    w107  w148  0.06779322301020496
    w107  w149  0.05633370958044794
    w107  w150  -0.09239805828238026
    w107  w151  0.054506547366770186
    w107  w152  -0.034560025808454825
    w107  w153  0.12360867663158918
    w107  w154  -0.042434029284706756
    w107  w155  0.0027706661091219053
    w107  w156  0.06960784128485754
    w107  w157  0.02842138906306059
    w107  w158  0.03290143652137719
    w107  w159  0.049024372669288795
    w107  w160  0.046599444133409516
    w107  w161  -0.07063669352755436
    w107  w162  -0.07347454264624224
    w107  w163  0.015385729276537816
    w107  w164  -0.001980753354274043
    w107  w165  0.0018792278949361944
    w107  w166  0.07323732000029867
    w107  w167  -0.05509831799978868
    w107  w168  -0.022017817808134468
    w107  w169  0.0019905748025793877
    w107  w170  0.04152983816821878
    w107  w171  0.12008991882929743
    w107  w172  0.021975369775470415
    w107  w173  -0.11235097361145907
    w107  w174  -0.08469345503790855
    w107  w175  -0.1279813071258928
    w107  w176  0.10425114022816441
    w107  w177  -0.010101340598229026
    w107  w178  -0.008886539343029222
    w107  w179  0.02581066248516378
    w107  w180  0.010044188219145605
    w107  w181  -0.031952868312753464
    w107  w182  -0.01094541843477956
    w107  w183  0.14156718178022876
    w107  w184  0.1243676174923826
    w107  w185  -0.022977822061050847
    w107  w186  0.15421188002024505
    w107  w187  0.07466640990059326
    w107  w188  -0.07377846892615043
    w107  w189  -0.09956474586131155
    w107  w190  0.05699064887354529
    w107  w191  -0.05624172551082899
    w107  w192  -0.03276710785755289
    w107  w193  0.02273996968069635
    w107  w194  -0.004383469374393516
    w107  w195  -0.15596423428839884
    w107  w196  -0.04505949666511023
    w107  w197  -0.003495176493101604
    w107  w198  -0.047806420090529225
    w107  w199  0.007367162907521418
    w108  w108  0.45365489192611785
    w108  w109  -0.05840350287992893
    w108  w110  0.08237211313262413
    w108  w111  -0.07513418348493998
    w108  w112  0.04529268340345212
    w108  w113  -0.12987203754694918
    w108  w114  0.17439888942305554
    w108  w115  -0.07134136774733837
    w108  w116  0.018747404514204723
    w108  w117  0.05267568675056257
    w108  w118  0.14342741334252124
    w108  w119  0.015220399508025721
    w108  w120  0.052023871769230894
    w108  w121  -0.1288640526780532
    w108  w122  0.15352167001808814
    w108  w123  0.0761017709895603
    w108  w124  0.025987505270314782
    w108  w125  -0.07043398243506986
    w108  w126  0.09854369031332681
    w108  w127  0.1231385574020301
    w108  w128  -0.08766184476420186
    w108  w129  -0.10571244981232825
    w108  w130  -0.014105546547079798
    w108  w131  0.16097361485262934
    w108  w132  -0.00441060393309376
    w108  w133  -0.01541943293312695
    w108  w134  0.08125429480203349
    w108  w135  0.06034322292237457
    w108  w136  -0.06181139625727371
    w108  w137  0.0831041244542004
    w108  w138  0.041828386609511464
    w108  w139  -0.11374999582754867
    w108  w140  0.16008826997975253
    w108  w141  0.09665263369937767
    w108  w142  0.19542019253587298
    w108  w143  -0.28203597580788287
    w108  w144  -0.04262046767749712
    w108  w145  0.019945918142547227
    w108  w146  -0.03671181899715226
    w108  w147  0.053357933285674675
    w108  w148  -0.07475995414088057
    w108  w149  -0.09381084015889694
    w108  w150  0.08916643253958977
    w108  w151  -0.06761714781739868
    w108  w152  0.05076096087808788
    w108  w153  -0.2395177765233362
    w108  w154  0.10353602089920476
    w108  w155  0.023283110014274723
    w108  w156  0.09604364236077176
    w108  w157  0.07399668637866519
    w108  w158  0.047177032377032954
    w108  w159  -0.07356603713972829
    w108  w160  -0.1634064175217968
    w108  w161  0.08311951689508512
    w108  w162  0.1434169769707134
    w108  w163  -0.11329273566423312
    w108  w164  0.031822594935158884
    w108  w165  -0.050999976277764626
    w108  w166  0.0036342046764952685
    w108  w167  -0.028904237821002876
    w108  w168  -0.05751116981440355
    w108  w169  0.07175161776817678
    w108  w170  -0.11727552416243125
    w108  w171  -0.1113266872174989
    w108  w172  0.19712240323552488
    w108  w173  0.07231286227263421
    w108  w174  -0.05141450920349559
    w108  w175  -0.022010223652894245
    w108  w176  0.020764374642988373
    w108  w177  -0.06245295705556067
    w108  w178  -0.10633552576884343
    w108  w179  0.004222390080967502
    w108  w180  0.10148012566152396
    w108  w181  -0.022507627335237132
    w108  w182  -0.04606439635490921
    w108  w183  -0.056013127867560915
    w108  w184  0.030659166047303062
    w108  w185  -0.012584932681860905
    w108  w186  -0.05087603606825552
    w108  w187  0.1351632229655659
    w108  w188  0.018347750643701626
    w108  w189  0.025027703611814986
    w108  w190  0.1881389974547536
    w108  w191  -0.01614836173782998
    w108  w192  0.11354593327449981
    w108  w193  -0.12816831412991178
    w108  w194  -0.05077157316264522
    w108  w195  -0.0009518539088016973
    w108  w196  -0.170039365887841
    w108  w197  -0.0011142932532195425
    w108  w198  -0.06988801081843105
    w108  w199  -0.0057500104684481195
    w109  w109  0.35323257500274563
    w109  w110  0.0408133653344757
    w109  w111  -0.06350620599400851
    w109  w112  0.0048254016908423295
    w109  w113  0.14248448424061674
    w109  w114  -0.06532661783301463
    w109  w115  -0.029082156386811397
    w109  w116  -0.06137308840979296
    w109  w117  -0.029311608522236788
    w109  w118  0.03612847825019539
    w109  w119  -0.07526111172316517
    w109  w120  -0.08964855000791623
    w109  w121  -0.009529700546894771
    w109  w122  -0.18446618744209642
    w109  w123  0.0033481160330835146
    w109  w124  -0.06517515267255083
    w109  w125  -0.06464799330738964
    w109  w126  -0.06083528698572952
    w109  w127  0.047709446444223765
    w109  w128  0.02578347722808075
    w109  w129  0.026523726685835598
    w109  w130  0.08696887024827206
    w109  w131  0.07899355641391026
    w109  w132  0.1016287578770771
    w109  w133  0.025524209506013973
    w109  w134  0.11753811297842792
    w109  w135  0.07899404917661734
    w109  w136  0.04506874390116894
    w109  w137  -0.1667121489570129
    w109  w138  -0.08471744432584472
    w109  w139  0.08999099720566042
    w109  w140  0.09058979866467906
    w109  w141  0.04957597119565103
    w109  w142  -0.2022471755605835
    w109  w143  0.03925339350222163
    w109  w144  -0.07863808319938441
    w109  w145  0.0021839553375483664
    w109  w146  -0.08183220720297776
    w109  w147  -0.015363082996246183
    w109  w148  0.09679008749292857
    w109  w149  0.00270111502833607
    w109  w150  -0.10761343366981531
    w109  w151  0.005758022781208588
    w109  w152  -0.035409126842310144
    w109  w153  0.15781192614104447
    w109  w154  -0.09597554018239418
    w109  w155  -0.10307449251829728
    w109  w156  0.06714454643363915
    w109  w157  0.02030655778340682
    w109  w158  -0.0020144463559341715
    w109  w159  0.05719014797239057
    w109  w160  0.07191006516671533
    w109  w161  0.02188961082330635
    w109  w162  -0.03808789526485427
    w109  w163  0.059369956242448604
    w109  w164  0.07241863152735599
    w109  w165  -0.09071033893276187
    w109  w166  0.1768510800687191
    w109  w167  0.0016196401563657132
    w109  w168  -0.09994725280875599
    w109  w169  -0.01795975024956726
    w109  w170  -0.05466552463172741
    w109  w171  0.18873097559533403
    w109  w172  -0.04435162098490208
    w109  w173  0.03596791576645868
    w109  w174  -0.022720433768069922
    w109  w175  -0.09698697885742517
    w109  w176  0.03811561601935223
    w109  w177  -0.04132072521555489
    w109  w178  0.004772565984088253
    w109  w179  -0.0199687110143681
    w109  w180  -0.09473637047593055
    w109  w181  0.09341589947653733
    w109  w182  -0.025940896265631005
    w109  w183  0.09683093713149521
    w109  w184  0.01986716834900149
    w109  w185  -0.040823901592677965
    w109  w186  0.19383263679819598
    w109  w187  -0.04355268615189971
    w109  w188  0.016709171887468278
    w109  w189  -0.09580130853467812
    w109  w190  -0.16132858695730715
    w109  w191  -0.07517196076344158
    w109  w192  -0.02118489546582227
    w109  w193  0.08220815568899964
    w109  w194  0.06013916083312823
    w109  w195  -0.031275559663695794
    w109  w196  -0.07302129701679738
    w109  w197  -0.0657697923972544
    w109  w198  0.0016082762848768195
    w109  w199  -0.09887576335858118
    w110  w110  0.24895577524262824
    w110  w111  -0.06154012396170288
    w110  w112  -0.10500997528198666
    w110  w113  0.023287769406967914
    w110  w114  0.1028547193835574
    w110  w115  -0.1648798999782722
    w110  w116  -0.058012821309869865
    w110  w117  0.10113963837249287
    w110  w118  -0.04958707995948244
    w110  w119  -0.06504100265002662
    w110  w120  -0.00019743330017497914
    w110  w121  -0.022124980406542285
    w110  w122  -0.025544047450680153
    w110  w123  0.019039077176632897
    w110  w124  -0.06036642281412305
    w110  w125  -0.04182597026746095
    w110  w126  0.049318185068021346
    w110  w127  0.03818660928311059
    w110  w128  0.0037081328796633034
    w110  w129  0.04247962474200671
    w110  w130  0.013574383967362416
    w110  w131  0.06874138121673293
    w110  w132  -0.014566348332612054
    w110  w133  -0.017836137222908235
    w110  w134  0.05094481957471641
    w110  w135  0.017487404036860416
    w110  w136  -0.07201650682090285
    w110  w137  0.06329844301641195
    w110  w138  0.01593162483077115
    w110  w139  0.01505530100595556
    w110  w140  0.14175400317350634
    w110  w141  0.02114582429583088
    w110  w142  0.05322953325932536
    w110  w143  -0.11380782528796654
    w110  w144  -0.0036759557239755
    w110  w145  -0.03930741605092052
    w110  w146  -0.050319774593153246
    w110  w147  -0.06742585685992594
    w110  w148  0.06212147008977108
    w110  w149  0.030644715920651818
    w110  w150  -0.012971136783753393
    w110  w151  -0.017327453311314207
    w110  w152  -0.038368315710120546
    w110  w153  0.07018075377049396
    w110  w154  0.08478671007435663
    w110  w155  -0.10374549849282277
    w110  w156  0.001428016123464016
    w110  w157  0.01114511293020566
    w110  w158  0.013382251643030682
    w110  w159  0.09808874684514016
    w110  w160  -0.03309927194141178
    w110  w161  0.07205021306787986
    w110  w162  0.08344340920899439
    w110  w163  0.0466089013537147
    w110  w164  0.03629347985019222
    w110  w165  -0.07864875005312118
    w110  w166  0.024059848305210522
    w110  w167  -0.00487001348686969
    w110  w168  -0.05865577527928656
    w110  w169  0.042636649509588814
    w110  w170  0.06867670924138113
    w110  w171  -0.10411226847068177
    w110  w172  0.058199874772814054
    w110  w173  -0.0011148813696006316
    w110  w174  -0.03951453816797876
    w110  w175  0.009866065258167505
    w110  w176  0.08772676431757452
    w110  w177  0.022728078248878843
    w110  w178  0.0067371842053750445
    w110  w179  0.13875557050250897
    w110  w180  -0.06259505002928255
    w110  w181  0.016402261319861965
    w110  w182  -0.010446434431751658
    w110  w183  0.04729969663679779
    w110  w184  0.10559574537428967
    w110  w185  -0.048155066991862935
    w110  w186  0.05770405305200716
    w110  w187  0.014807848665632672
    w110  w188  0.018280091447001386
    w110  w189  -0.08760150931501444
    w110  w190  0.09620000594764525
    w110  w191  -0.017185865213578164
    w110  w192  0.04601908863117302
    w110  w193  0.029981645438729523
    w110  w194  0.0028830852637860456
    w110  w195  0.010824284285569667
    w110  w196  0.02710383448004616
    w110  w197  -0.02505903657292939
    w110  w198  0.0033134848997979052
    w110  w199  0.04801425181249313
    w111  w111  0.29222249204855405
    w111  w112  0.014198355057899976
    w111  w113  0.018308674680724404
    w111  w114  -0.07629102672877307
    w111  w115  0.038275329199654665
    w111  w116  0.07283708576585052
    w111  w117  0.11882273415369521
    w111  w118  0.02970304965552845
    w111  w119  0.07998296951770659
    w111  w120  0.03070511391762359
    w111  w121  0.005119226977876114
    w111  w122  0.011455477063860771
    w111  w123  0.01358328028634481
    w111  w124  0.04087326049688147
    w111  w125  -0.020758875472600836
    w111  w126  0.02410693978051863
    w111  w127  0.04659689338184948
    w111  w128  0.033666007841931675
    w111  w129  -0.016688994912782626
    w111  w130  -0.0620955027357397
    w111  w131  -0.12513619361949235
    w111  w132  -0.10232393165641082
    w111  w133  -0.0028041361432141086
    w111  w134  -0.1405352565548876
    w111  w135  0.017490554430178426
    w111  w136  0.03547770892077803
    w111  w137  0.08104772603086215
    w111  w138  -0.04046872174064555
    w111  w139  0.0124310025214423
    w111  w140  -0.0895831461820912
    w111  w141  -0.04853956442065645
    w111  w142  0.047727781843946784
    w111  w143  0.07287163483980581
    w111  w144  -0.06592423288279176
    w111  w145  -0.06736793074479205
    w111  w146  -0.032683586418099646
    w111  w147  0.07378806964921455
    w111  w148  -0.012258100060892752
    w111  w149  0.0900488633925809
    w111  w150  -0.03866542823723003
    w111  w151  0.003112299938259102
    w111  w152  0.07236908759062233
    w111  w153  -0.051163853394151866
    w111  w154  0.0013549869025239576
    w111  w155  0.08058811147161825
    w111  w156  0.014882536955869299
    w111  w157  -0.08349567104321691
    w111  w158  0.07497459989500468
    w111  w159  0.0011672698475058184
    w111  w160  0.025322821535680766
    w111  w161  -0.10194712148565642
    w111  w162  -0.05884088689521686
    w111  w163  0.030164709881563875
    w111  w164  0.01894960630594062
    w111  w165  0.10248295762767987
    w111  w166  -0.12689146384862446
    w111  w167  -0.026351539125860742
    w111  w168  0.06873600434927815
    w111  w169  0.06297857795103497
    w111  w170  -0.005528606679177006
    w111  w171  0.039937494494906876
    w111  w172  -0.07229488591590559
    w111  w173  -0.17171223281822348
    w111  w174  0.06078196631955144
    w111  w175  -0.01697815068360498
    w111  w176  0.005620112275385558
    w111  w177  -0.043614163960501946
    w111  w178  -0.026282531005792958
    w111  w179  -0.015558639058727388
    w111  w180  0.09425091321383085
    w111  w181  -0.11214581816913845
    w111  w182  -0.020748206082645885
    w111  w183  0.030302962039388124
    w111  w184  0.03447250627624676
    w111  w185  0.05249771641081029
    w111  w186  -0.06412719100492668
    w111  w187  0.018797335119714306
    w111  w188  -0.020468553966366303
    w111  w189  -0.019195311618659408
    w111  w190  0.05983278685810296
    w111  w191  0.10714850855555859
    w111  w192  -0.10086258971521019
    w111  w193  0.002153648677387633
    w111  w194  -0.11203185566638156
    w111  w195  -0.04412197954189701
    w111  w196  -0.04258522853160013
    w111  w197  0.01144612316867236
    w111  w198  -0.002114650144937349
    w111  w199  0.08156242288347938
    w112  w112  0.3196692297586828
    w112  w113  0.008946526641449445
    w112  w114  0.007417326605508814
    w112  w115  0.13423529850480986
    w112  w116  0.11132874856447238
    w112  w117  -0.023459277626682182
    w112  w118  0.05824047805610151
    w112  w119  0.09554191866864759
    w112  w120  -0.013620746037023722
    w112  w121  -0.09654314965815529
    w112  w122  0.037987945871939426
    w112  w123  0.03218395865355065
    w112  w124  -0.017937144473587095
    w112  w125  -0.043674067758343295
    w112  w126  0.001731063410132755
    w112  w127  -0.02349879475691959
    w112  w128  0.05050609974182277
    w112  w129  -0.007744454438578719
    w112  w130  -0.09177678024178071
    w112  w131  -0.039097750427966836
    w112  w132  0.0314366267579908
    w112  w133  0.027152723543302143
    w112  w134  0.0021345809552364174
    w112  w135  0.06234019723990724
    w112  w136  0.07371274089648128
    w112  w137  -0.06258156874942075
    w112  w138  -0.12241189744100797
    w112  w139  -0.08899884466141807
    w112  w140  -0.05172010836650023
    w112  w141  0.06378233609061841
    w112  w142  0.04626341612891459
    w112  w143  0.026903668406490253
    w112  w144  0.07826042810336623
    w112  w145  0.030784114162177068
    w112  w146  0.09164306342431627
    w112  w147  0.03793022644880607
    w112  w148  -0.08389280238672915
    w112  w149  -0.16120581644904372
    w112  w150  -0.0010222866231626093
    w112  w151  -0.031993653723251546
    w112  w152  0.06262033283678631
    w112  w153  -0.08426268845952968
    w112  w154  0.010037023071289059
    w112  w155  0.15037019993478282
    w112  w156  0.06813026029025424
    w112  w157  0.0898574172361844
    w112  w158  -0.03244142262927377
    w112  w159  -0.11671641263182606
    w112  w160  0.07778086385914933
    w112  w161  -0.12781291734806133
    w112  w162  -0.055103430677285195
    w112  w163  -0.015952682331400073
    w112  w164  -0.06502816454163997
    w112  w165  0.024443948339407603
    w112  w166  0.0068564250065810085
    w112  w167  0.0005727366832979888
    w112  w168  -0.02788325507612715
    w112  w169  0.01914445158930559
    w112  w170  -0.13922302713465945
    w112  w171  0.07280482567516634
    w112  w172  0.05486793550164114
    w112  w173  -0.015035444972923728
    w112  w174  0.0022458048697667106
    w112  w175  -0.01591724706738006
    w112  w176  -0.08598140808860401
    w112  w177  -0.08460795195353693
    w112  w178  -0.0718314329819239
    w112  w179  -0.12355024349316501
    w112  w180  0.05995065144890807
    w112  w181  0.023881421664373147
    w112  w182  -0.09845768555308293
    w112  w183  -0.013083188337949015
    w112  w184  -0.0026707888404618376
    w112  w185  0.05925878854634624
    w112  w186  0.1026690563496258
    w112  w187  0.021208997494664653
    w112  w188  -0.06363010146462764
    w112  w189  -0.009493492438739174
    w112  w190  -0.0814291757293702
    w112  w191  -0.11796184662958575
    w112  w192  0.07758130470757396
    w112  w193  -0.05131381305263847
    w112  w194  0.04668248353722399
    w112  w195  -0.03827446592879242
    w112  w196  -0.10659449631641743
    w112  w197  0.012348997253176256
    w112  w198  -0.04752131350770452
    w112  w199  -0.05386107080309341
    w113  w113  0.2677696238873074
    w113  w114  -0.06960895306065254
    w113  w115  -0.02807964601606451
    w113  w116  -0.03276412535601967
    w113  w117  0.029308496354435668
    w113  w118  0.005538871891691752
    w113  w119  0.012281164103260765
    w113  w120  -0.0423783035310989
    w113  w121  -0.001611403826115327
    w113  w122  -0.1574291043139884
    w113  w123  0.01792286365265603
    w113  w124  -0.11432030728993989
    w113  w125  0.01420109922689704
    w113  w126  0.005853993266382371
    w113  w127  -0.032631867246388384
    w113  w128  0.037840332796712346
    w113  w129  0.052659246500034354
    w113  w130  0.007229207987551988
    w113  w131  -0.05780755145609525
    w113  w132  0.018281513654122016
    w113  w133  0.02609991877764578
    w113  w134  -0.03027056853770654
    w113  w135  0.012952926506680349
    w113  w136  0.043863132997221256
    w113  w137  -0.0848705269511947
    w113  w138  -0.10555135442610106
    w113  w139  0.09915814910566775
    w113  w140  0.03803816574196766
    w113  w141  0.039498254038048755
    w113  w142  -0.11428912592501017
    w113  w143  0.09260454751867774
    w113  w144  0.013640774001826861
    w113  w145  -0.032768831808463475
    w113  w146  -0.040565920452832194
    w113  w147  -0.060049637301095686
    w113  w148  0.006576282509995378
    w113  w149  0.03158105822373345
    w113  w150  -0.08948428622459473
    w113  w151  0.05050039633683864
    w113  w152  -0.054823492304371745
    w113  w153  0.0934449554108502
    w113  w154  -0.06992379426824628
    w113  w155  -0.06845803141970445
    w113  w156  0.01130977221064668
    w113  w157  0.026767938197730694
    w113  w158  0.002670243181058626
    w113  w159  0.12129255274517171
    w113  w160  0.08017247137695961
    w113  w161  -0.06884851478836684
    w113  w162  -0.10915718643548604
    w113  w163  0.05981222486847719
    w113  w164  0.06366635516908298
    w113  w165  -0.031188486310105294
    w113  w166  0.08970057538379081
    w113  w167  0.03294187466601377
    w113  w168  -0.06304086693706745
    w113  w169  0.0686391976013937
    w113  w170  0.09573340658002759
    w113  w171  0.06175444627769473
    w113  w172  -0.07983174673117358
    w113  w173  -0.08004990630706814
    w113  w174  -0.04054634221381756
    w113  w175  -0.05539175093273859
    w113  w176  0.004406962778075442
    w113  w177  0.02264898071634168
    w113  w178  0.06922012870630627
    w113  w179  0.005713164851311114
    w113  w180  -0.06590400376188157
    w113  w181  -0.06304115928257119
    w113  w182  -0.013043498328107129
    w113  w183  0.10183827614545964
    w113  w184  0.023279006751223214
    w113  w185  -0.0077802808931136235
    w113  w186  0.11769235530409809
    w113  w187  -0.06088189919721691
    w113  w188  -0.01229735907635005
    w113  w189  -0.12391538152679415
    w113  w190  -0.06002617486908066
    w113  w191  -0.0015299001691417022
    w113  w192  0.00808497261631249
    w113  w193  0.0984980615962507
    w113  w194  0.027081015481903697
    w113  w195  -0.027474608775557807
    w113  w196  0.03372717693742626
    w113  w197  -0.02571683569634577
    w113  w198  0.0559001787395442
    w113  w199  -0.06303006680952139
    w114  w114  0.2649407917601939
    w114  w115  -0.0811617911693023
    w114  w116  0.055150205041632566
    w114  w117  0.11902546715353056
    w114  w118  0.006087723465267304
    w114  w119  0.02756005166801939
    w114  w120  0.11412240060873735
    w114  w121  -0.0473680256021584
    w114  w122  0.07805075487381918
    w114  w123  -0.005550570445175163
    w114  w124  0.04082856726568321
    w114  w125  -0.059004023572295984
    w114  w126  0.05876804804357193
    w114  w127  0.03232036689975724
    w114  w128  -0.0058932430531270265
    w114  w129  -0.010405390874722725
    w114  w130  -0.04448158877527633
    w114  w131  0.09890753805785141
    w114  w132  -0.01391126444410678
    w114  w133  -0.093111424139444
    w114  w134  0.13463631844342466
    w114  w135  0.06548705652808781
    w114  w136  -0.07588468032430422
    w114  w137  0.07880142151301663
    w114  w138  -0.001091776603325085
    w114  w139  -0.005830771158485474
    w114  w140  0.09269219426594587
    w114  w141  -0.030614996559466638
    w114  w142  0.22680901975005738
    w114  w143  -0.18193964138118682
    w114  w144  0.07637863865095365
    w114  w145  -0.004999553660688485
    w114  w146  0.010071834986813298
    w114  w147  -0.050165014143259704
    w114  w148  -0.0626296846083369
    w114  w149  -0.11113835082553605
    w114  w150  0.060593055763224296
    w114  w151  -0.05576415042302504
    w114  w152  0.014385294332316187
    w114  w153  -0.09330772258057435
    w114  w154  0.21383759492062646
    w114  w155  -0.05194682914241029
    w114  w156  0.014928952140503672
    w114  w157  0.046845036446120675
    w114  w158  -0.02977276780819937
    w114  w159  -0.023613279951304886
    w114  w160  -0.046173236583503405
    w114  w161  0.09408629907068893
    w114  w162  0.17107817045870094
    w114  w163  -0.029027020733955834
    w114  w164  -0.036861001512221804
    w114  w165  -0.06757716267269305
    w114  w166  -0.03607690413306934
    w114  w167  0.011550256790330803
    w114  w168  0.01208998190612549
    w114  w169  0.059589932705995094
    w114  w170  -0.06188468212544982
    w114  w171  -0.2110467993174689
    w114  w172  0.10278250678622405
    w114  w173  0.04600974832708109
    w114  w174  -0.05214853307560401
    w114  w175  0.09393750444755268
    w114  w176  0.02927440004654802
    w114  w177  -0.0031152273172593116
    w114  w178  -0.04793587638644477
    w114  w179  0.02152568425025661
    w114  w180  -0.010353219521219467
    w114  w181  0.010131443254984844
    w114  w182  -0.10631362560054439
    w114  w183  -0.050931643448756815
    w114  w184  0.0648016594891093
    w114  w185  -0.023536426791358606
    w114  w186  0.06593425182348205
    w114  w187  0.04567804341131678
    w114  w188  0.0482090514370417
    w114  w189  -0.048603894211586965
    w114  w190  0.11158610004579293
    w114  w191  -0.04225263991529213
    w114  w192  0.11338720631456324
    w114  w193  -0.042454613809696715
    w114  w194  -0.003688597249735888
    w114  w195  0.08880658739060225
    w114  w196  -0.05138793304446357
    w114  w197  0.03153688683622711
    w114  w198  -0.058649422271640356
    w114  w199  0.011941493190480539
    w115  w115  0.2310301310133014
    w115  w116  0.08370558569359501
    w115  w117  -0.08949235217818984
    w115  w118  0.04746003963645896
    w115  w119  0.058442606293796016
    w115  w120  0.01643042652111769
    w115  w121  0.003113651868800897
    w115  w122  0.012289091865673474
    w115  w123  0.00937659205095108
    w115  w124  0.07074963203410664
    w115  w125  0.002295060747095815
    w115  w126  -0.0562189796765702
    w115  w127  -0.03819972256714569
    w115  w128  0.01654961994257596
    w115  w129  -0.022172813627355698
    w115  w130  -0.029945902588734606
    w115  w131  -0.07782803157739594
    w115  w132  0.04331502928769623
    w115  w133  0.03835528193153422
    w115  w134  0.01631887941315764
    w115  w135  0.0021684083012593236
    w115  w136  0.0392638360794419
    w115  w137  -0.08386301472231039
    w115  w138  -0.03475048477738416
    w115  w139  -0.05743461436314997
    w115  w140  -0.1221987286423882
    w115  w141  0.0073917650900468205
    w115  w142  -0.04869235451482414
    w115  w143  0.1661862850472607
    w115  w144  0.06868553624742786
    w115  w145  0.05787959059032311
    w115  w146  0.08139701793040219
    w115  w147  0.05616661769523945
    w115  w148  -0.08381320554116882
    w115  w149  -0.1090759329485386
    w115  w150  -0.02361031932531665
    w115  w151  0.00772446671487561
    w115  w152  0.03375538040354419
    w115  w153  -0.05305251040612847
    w115  w154  -0.0855020674650453
    w115  w155  0.14613275947753787
    w115  w156  0.023832105060925056
    w115  w157  -0.00865063927922499
    w115  w158  -0.03968668934592875
    w115  w159  -0.15536867815865232
    w115  w160  0.02893085862415547
    w115  w161  -0.05798702420091846
    w115  w162  -0.08667415111655255
    w115  w163  -0.01592420802825101
    w115  w164  -0.06405905844895486
    w115  w165  0.1033651518130882
    w115  w166  0.0064009113749332325
    w115  w167  0.04197004295640977
    w115  w168  0.039037015719191034
    w115  w169  -0.10067608099541682
    w115  w170  -0.10575704743468324
    w115  w171  0.09638720637232116
    w115  w172  -0.03068093242297263
    w115  w173  0.03967404050473991
    w115  w174  0.0604619144691124
    w115  w175  0.0029206429082205103
    w115  w176  -0.074462477020128
    w115  w177  -0.026527815644983254
    w115  w178  -0.058392075776944816
    w115  w179  -0.09783550652495956
    w115  w180  0.07757455928908503
    w115  w181  0.03986320570712119
    w115  w182  -0.02722468954849027
    w115  w183  -0.06269403539380532
    w115  w184  -0.0543840554517419
    w115  w185  0.06466876504675818
    w115  w186  0.006597814263077575
    w115  w187  -0.033121646190002074
    w115  w188  -0.04828527004236006
    w115  w189  0.1151380161529148
    w115  w190  -0.10869727799408486
    w115  w191  -0.04373007758619286
    w115  w192  -0.04906303768863298
    w115  w193  -0.019561084754409312
    w115  w194  0.03961791062184066
    w115  w195  -0.03127998801073062
    w115  w196  -0.05831348825307422
    w115  w197  0.03124088147570073
    w115  w198  0.008248547341796404
    w115  w199  -0.07083918989816684
    w116  w116  0.24727477247278848
    w116  w117  0.06716596947878058
    w116  w118  0.028162200136705368
    w116  w119  0.0644094723870588
    w116  w120  0.029833422024908473
    w116  w121  0.010069675574393694
    w116  w122  0.024336562507847482
    w116  w123  -0.05857316747932038
    w116  w124  0.1029213623141049
    w116  w125  -0.09677047847461295
    w116  w126  -0.05103955179738706
    w116  w127  -0.03126974511002732
    w116  w128  0.009679540793554283
    w116  w129  -0.08114913903703787
    w116  w130  0.002635231654465623
    w116  w131  -0.08617314508375941
    w116  w132  -0.03462303224797848
    w116  w133  -0.049308980362798474
    w116  w134  0.07846885922979928
    w116  w135  0.05691351387465142
    w116  w136  -0.0016724582081256451
    w116  w137  -0.007605206548583718
    w116  w138  -0.006559191554589464
    w116  w139  -0.10514199470887649
    w116  w140  -0.050666435450779375
    w116  w141  0.0008121442807618161
    w116  w142  0.037885260177194444
    w116  w143  0.010477079694644263
    w116  w144  0.08932591608985273
    w116  w145  0.041790161179973896
    w116  w146  0.056025854493932103
    w116  w147  -0.002744956611819263
    w116  w148  -0.06371170825135626
    w116  w149  -0.11193877912783608
    w116  w150  0.017079356525573755
    w116  w151  -0.015120763589124033
    w116  w152  0.014182356694161001
    w116  w153  -0.01086102749811563
    w116  w154  0.06134591799348079
    w116  w155  0.0740946375411747
    w116  w156  0.026085043378015878
    w116  w157  -0.02351008627897907
    w116  w158  -0.07170929323438537
    w116  w159  -0.15844410057658795
    w116  w160  0.06108316979277073
    w116  w161  -0.04681278389526889
    w116  w162  -0.016797784633244314
    w116  w163  -0.06938659686014959
    w116  w164  -0.14821429552700352
    w116  w165  0.11532778170746114
    w116  w166  -0.042879041116847504
    w116  w167  -0.026186871145195516
    w116  w168  0.1425910955520373
    w116  w169  -0.055196169080616656
    w116  w170  -0.11926865642758733
    w116  w171  0.007360710431673113
    w116  w172  0.055803786902882145
    w116  w173  -0.005488786567207865
    w116  w174  -0.03245519611469596
    w116  w175  0.0363998302724021
    w116  w176  0.03167417161169322
    w116  w177  -0.03796644285794611
    w116  w178  -0.09096009580550546
    w116  w179  -0.12883926330239803
    w116  w180  0.07340484364373945
    w116  w181  -0.008606825284857565
    w116  w182  -0.0521902364031265
    w116  w183  -0.02043405989706471
    w116  w184  0.017778713104353052
    w116  w185  0.016040287365613845
    w116  w186  0.1263627047889646
    w116  w187  0.06463871061303458
    w116  w188  -0.050970846338492616
    w116  w189  0.09280774774595295
    w116  w190  0.05145626887364733
    w116  w191  -0.029446965011076447
    w116  w192  -0.0385745914816137
    w116  w193  -0.006461555222877715
    w116  w194  -0.008920458285865072
    w116  w195  -0.066719235072734
    w116  w196  -0.05805394057348092
    w116  w197  0.11884852843546385
    w116  w198  -0.12695033296959526
    w116  w199  0.01538954321502826
    w117  w117  0.311005800455082
    w117  w118  0.010058849527696725
    w117  w119  0.045177499027622525
    w117  w120  0.08917286352264227
    w117  w121  -0.01811879439945649
    w117  w122  -0.01288517036611093
    w117  w123  0.04924538058314276
    w117  w124  0.005825617740608588
    w117  w125  -0.09268188898871767
    w117  w126  0.07500501443402091
    w117  w127  0.07929207670313616
    w117  w128  0.03200915688863194
    w117  w129  0.0064277407829597955
    w117  w130  -0.08294970268729607
    w117  w131  -0.0338025393974886
    w117  w132  -0.08708670875088234
    w117  w133  -0.06872321100705596
    w117  w134  0.02317821674577654
    w117  w135  0.08345536441711113
    w117  w136  -0.04602762794037667
    w117  w137  0.11882451915305352
    w117  w138  -0.059699599448714544
    w117  w139  0.022021263041245524
    w117  w140  0.06855797831348538
    w117  w141  -0.027182865521048385
    w117  w142  0.19320941023860772
    w117  w143  -0.04184319051103294
    w117  w144  0.0199955460811896
    w117  w145  -0.06735232196325532
    w117  w146  -0.05713251571469069
    w117  w147  -0.02275713531112083
    w117  w148  -0.041487114810596276
    w117  w149  -0.02225544851520066
    w117  w150  -0.043290800933236534
    w117  w151  -0.04781577591417125
    w117  w152  0.026751673078413318
    w117  w153  -0.04664315448445288
    w117  w154  0.13047446583933078
    w117  w155  -0.024259234868248603
    w117  w156  0.03906706770479836
    w117  w157  -0.04203170330691578
    w117  w158  0.03335186696207679
    w117  w159  0.041185639595094706
    w117  w160  -0.007948364265764845
    w117  w161  -0.010204058978498076
    w117  w162  0.040616526554558365
    w117  w163  0.06572395295194162
    w117  w164  0.032725560099230666
    w117  w165  0.027795438410462944
    w117  w166  -0.06793872999754956
    w117  w167  0.02696063824518553
    w117  w168  -0.005655016564581933
    w117  w169  0.11909729391207526
    w117  w170  0.0010498232822212363
    w117  w171  -0.1399406345500663
    w117  w172  0.03240558974260177
    w117  w173  -0.10521200313791912
    w117  w174  0.0151882014420633
    w117  w175  0.047787662009644495
    w117  w176  0.06717193945734504
    w117  w177  -0.03353431210937264
    w117  w178  -0.06485917141095675
    w117  w179  0.0946983603214494
    w117  w180  0.03480109617449803
    w117  w181  -0.08480352842824183
    w117  w182  -0.09505038415511817
    w117  w183  0.03307372243298334
    w117  w184  0.1374153026551112
    w117  w185  0.016400139930188955
    w117  w186  0.07601646333108257
    w117  w187  0.0056056139468717665
    w117  w188  0.0019226510000249527
    w117  w189  -0.0830659342943827
    w117  w190  0.15276922006622126
    w117  w191  0.051940735994105765
    w117  w192  0.00681923527920792
    w117  w193  0.05219504697067366
    w117  w194  -0.0692307357477117
    w117  w195  0.004748790650378218
    w117  w196  -0.05622418845612612
    w117  w197  0.018875360035960548
    w117  w198  -0.0010541967200049629
    w117  w199  0.0687524225029934
    w118  w118  0.31084811333172047
    w118  w119  0.08571918389221875
    w118  w120  0.11485667508499466
    w118  w121  -0.08473824285810685
    w118  w122  -0.00775979595713208
    w118  w123  0.07984383691412132
    w118  w124  0.06150542071273707
    w118  w125  -0.006225517504209228
    w118  w126  0.058663137497430885
    w118  w127  0.08888247023033397
    w118  w128  -0.09371845292588023
    w118  w129  -0.11095552250295153
    w118  w130  0.04170986087966348
    w118  w131  0.047675711714200944
    w118  w132  0.040474837197889885
    w118  w133  0.037515449500642166
    w118  w134  0.07261206389038413
    w118  w135  0.03671292130810901
    w118  w136  -0.042530045658826246
    w118  w137  -0.07030033131860522
    w118  w138  -0.021874867101259153
    w118  w139  0.03181826500400816
    w118  w140  0.09329062149125873
    w118  w141  0.08651162830182697
    w118  w142  -0.005609791719874893
    w118  w143  -0.027137301578471537
    w118  w144  -0.026512980587874962
    w118  w145  0.02013552678523357
    w118  w146  -0.075697962212966
    w118  w147  0.0645594846590314
    w118  w148  -0.16900651874211287
    w118  w149  -0.054781368100690654
    w118  w150  -0.029557770288282003
    w118  w151  0.054624200553817885
    w118  w152  0.010587931141015144
    w118  w153  -0.2508031457608089
    w118  w154  -0.05994855094475252
    w118  w155  0.021211625845569997
    w118  w156  0.10973041651152471
    w118  w157  0.019583208771897714
    w118  w158  0.06321983056681164
    w118  w159  -0.07167648392750607
    w118  w160  -0.1602616820598787
    w118  w161  0.076932015957714
    w118  w162  0.003307054163682275
    w118  w163  -0.11640662941420181
    w118  w164  0.09058389178469742
    w118  w165  0.028052514814416347
    w118  w166  0.08392235416723587
    w118  w167  0.05993380238420218
    w118  w168  -0.004288783898423655
    w118  w169  0.015054670000740898
    w118  w170  -0.07072934034080332
    w118  w171  -0.00016926547982573173
    w118  w172  -0.007174202061100257
    w118  w173  0.02529639115046501
    w118  w174  -0.04661768212552841
    w118  w175  -0.08188170078474652
    w118  w176  -0.004039076842222536
    w118  w177  0.00856146518788967
    w118  w178  -0.048526474738840863
    w118  w179  -0.07239821078945086
    w118  w180  0.13642793126574665
    w118  w181  -0.12026137450106304
    w118  w182  -0.053921932075596306
    w118  w183  -0.04130103899717637
    w118  w184  -0.03079321883673166
    w118  w185  0.018205044255289453
    w118  w186  -0.04803558861176258
    w118  w187  0.05007200875311397
    w118  w188  0.03259523809157549
    w118  w189  0.03390803807253002
    w118  w190  0.0885553614978024
    w118  w191  0.06255557782756001
    w118  w192  -0.020728956957784934
    w118  w193  -0.06239668111756584
    w118  w194  -0.062235615555745805
    w118  w195  -0.015109238985452975
    w118  w196  -0.1989729850716835
    w118  w197  0.009461806045533181
    w118  w198  0.027979353637582312
    w118  w199  -0.16552959515721852
    w119  w119  0.19725769732025408
    w119  w120  0.09817263177498944
    w119  w121  -0.07451005273207464
    w119  w122  0.04229188924758615
    w119  w123  0.019087721037070148
    w119  w124  0.01643790837146921
    w119  w125  0.029035768109892855
    w119  w126  0.06037747844350699
    w119  w127  -0.009369114095828903
    w119  w128  0.016019300643537137
    w119  w129  -0.002307614185224868
    w119  w130  -0.07078416461600477
    w119  w131  -0.04347792629868183
    w119  w132  -0.021275957238597144
    w119  w133  0.0064500355555081375
    w119  w134  -0.052374307590908435
    w119  w135  0.01102600696948913
    w119  w136  0.006552264848016483
    w119  w137  0.007755408777991891
    w119  w138  -0.07531272657790031
    w119  w139  0.032627510658775886
    w119  w140  -0.033799395106250255
    w119  w141  -0.0066430528845370105
    w119  w142  0.08784026992018296
    w119  w143  0.001841138015821922
    w119  w144  0.047796127762884534
    w119  w145  -0.029258006334182844
    w119  w146  0.029182825113297704
    w119  w147  0.02418891652184039
    w119  w148  -0.11791228071147804
    w119  w149  -0.032652431746329764
    w119  w150  0.0042657032744939805
    w119  w151  0.03355859570391152
    w119  w152  0.047761232118883196
    w119  w153  -0.15321371074509013
    w119  w154  0.064082866714186
    w119  w155  0.06982022753413086
    w119  w156  0.024255400172076412
    w119  w157  0.041629181440909185
    w119  w158  0.03029361108001698
    w119  w159  -0.023275854993418207
    w119  w160  -0.0146013865673158
    w119  w161  -0.04048939409818336
    w119  w162  0.011495328798063715
    w119  w163  -0.03752825348404791
    w119  w164  -0.00029140704782903824
    w119  w165  0.01055141643868002
    w119  w166  -0.056171457057618314
    w119  w167  0.019548136913979965
    w119  w168  0.03663314634414876
    w119  w169  0.062261943479081816
    w119  w170  -0.021481696772932764
    w119  w171  -0.056169253063794417
    w119  w172  -0.04174092597941276
    w119  w173  -0.08222079666899919
    w119  w174  -0.02328317375942102
    w119  w175  0.004925621645781912
    w119  w176  -0.053913299866940205
    w119  w177  0.0077160212222088615
    w119  w178  0.006395288965310015
    w119  w179  -0.07118035308028074
    w119  w180  0.06896834285349958
    w119  w181  -0.09730468989239693
    w119  w182  -0.08858473520938794
    w119  w183  -0.025926311774162193
    w119  w184  -0.003303317304210468
    w119  w185  0.040997399483232486
    w119  w186  -0.033251669190553286
    w119  w187  0.02455391882468661
    w119  w188  0.011179004227605333
    w119  w189  -0.059703560225556764
    w119  w190  0.026175450156252243
    w119  w191  0.011593462841626002
    w119  w192  0.03431659719071557
    w119  w193  -0.06646165284394558
    w119  w194  -0.04058504886639229
    w119  w195  0.03357340315470612
    w119  w196  -0.06789799642594427
    w119  w197  0.011333000871291764
    w119  w198  0.0062882095593186855
    w119  w199  -0.04714191130714437
    w120  w120  0.2830721029861315
    w120  w121  -0.06194803944978299
    w120  w122  0.03375909007258766
    w120  w123  0.04566733024620855
    w120  w124  0.10802306621849185
    w120  w125  0.018474653882203894
    w120  w126  0.0777739912363305
    w120  w127  0.03865626086003167
    w120  w128  -0.012100830469463981
    w120  w129  0.01576246025753954
    w120  w130  -0.040144717294405434
    w120  w131  0.023995299050436902
    w120  w132  0.016098933187186467
    w120  w133  -0.003491680461327831
    w120  w134  0.0963467573943513
    w120  w135  0.010883747635656
    w120  w136  -0.1279089422446348
    w120  w137  0.02128057116565803
    w120  w138  -0.018930368542451954
    w120  w139  0.08651944279012953
    w120  w140  0.03881802525747994
    w120  w141  -0.04556671973620203
    w120  w142  0.1342887055931714
    w120  w143  0.02596268758233904
    w120  w144  0.09508654151019781
    w120  w145  -0.02645410318897707
    w120  w146  0.0011532959867428722
    w120  w147  0.003664785930693417
    w120  w148  -0.1653107668194926
    w120  w149  -0.06472760413757758
    w120  w150  -0.03386784760778619
    w120  w151  0.05120348129232099
    w120  w152  0.02437867524264969
    w120  w153  -0.19109440879131373
    w120  w154  0.11394944498992247
    w120  w155  0.023209390312677162
    w120  w156  0.02971857102834316
    w120  w157  -0.01012766472704038
    w120  w158  0.03378611479237517
    w120  w159  -0.0573933679372847
    w120  w160  -0.14525426220549106
    w120  w161  0.14625693921084357
    w120  w162  0.12674914678992072
    w120  w163  -0.01840959846826964
    w120  w164  0.026863596898616525
    w120  w165  0.0064047991793080026
    w120  w166  -0.03053093664781047
    w120  w167  0.10504672307479626
    w120  w168  0.049702056275045085
    w120  w169  -0.03161279709509815
    w120  w170  -0.02575160943121038
    w120  w171  -0.19032857371096296
    w120  w172  -0.0646057619142456
    w120  w173  0.010795344367234207
    w120  w174  0.001857663240044284
    w120  w175  0.05992740417581232
    w120  w176  0.004585241152631348
    w120  w177  0.07854952427540907
    w120  w178  -0.02694618574634212
    w120  w179  0.049923615871649354
    w120  w180  0.08158420925613817
    w120  w181  -0.05034344793209112
    w120  w182  -0.13326345695725292
    w120  w183  -0.09924576688882467
    w120  w184  0.0551878512485891
    w120  w185  0.030668674632009275
    w120  w186  -0.060375427171752094
    w120  w187  -0.010530899869484998
    w120  w188  0.0670930509895821
    w120  w189  -0.019935475905510796
    w120  w190  0.07851241406298716
    w120  w191  0.023025999750268637
    w120  w192  -0.011942836106551079
    w120  w193  -0.06854256724905167
    w120  w194  -0.036532121338548225
    w120  w195  0.10358227176678723
    w120  w196  -0.10874346292717978
    w120  w197  0.008423751152123474
    w120  w198  0.06923933339036553
    w120  w199  -0.09926975166076447
    w121  w121  0.24893146957173776
    w121  w122  -0.06009117169104035
    w121  w123  -0.07089305577391304
    w121  w124  0.04373493833691235
    w121  w125  0.0031665559246650786
    w121  w126  -0.09500909567409702
    w121  w127  -0.032397505350267086
    w121  w128  -0.04765188090573963
    w121  w129  -0.07007855834605842
    w121  w130  0.06615554573230707
    w121  w131  -0.05245501671032508
    w121  w132  -0.043109896666965145
    w121  w133  -0.10246331796649664
    w121  w134  0.021063097835965737
    w121  w135  -0.01681042267485149
    w121  w136  0.04587413401649452
    w121  w137  0.011962305199704825
    w121  w138  0.09280861944596605
    w121  w139  0.01982391630913184
    w121  w140  -0.07470960108027765
    w121  w141  -0.08014451958707933
    w121  w142  -0.04197719813226483
    w121  w143  0.06487627463728447
    w121  w144  -0.032030320598280315
    w121  w145  0.04799153569707223
    w121  w146  -0.04589220001464713
    w121  w147  -0.03753195460756046
    w121  w148  0.04352728490084125
    w121  w149  0.036835084246122494
    w121  w150  0.030708341889431293
    w121  w151  -0.034656379162230154
    w121  w152  -0.06693846416956316
    w121  w153  0.10947316622858334
    w121  w154  -0.08252126780472188
    w121  w155  -0.1089223718848055
    w121  w156  -0.07559860766884688
    w121  w157  -0.10837364006627088
    w121  w158  -0.06808428009481561
    w121  w159  0.024323536092009365
    w121  w160  0.060452077435588114
    w121  w161  -0.013397867248253132
    w121  w162  -0.09176654878205248
    w121  w163  -0.0033311424175885428
    w121  w164  -0.016495621982305954
    w121  w165  0.08326648678540205
    w121  w166  0.000644364683033511
    w121  w167  0.002147330992860293
    w121  w168  0.06250909662787349
    w121  w169  0.0013399200325390865
    w121  w170  0.05588458123801222
    w121  w171  0.016230571074288505
    w121  w172  -0.011787568063738813
    w121  w173  0.04825949599907314
    w121  w174  0.029635998900815485
    w121  w175  0.056555413677662016
    w121  w176  0.021694122365799692
    w121  w177  0.0015243918127383072
    w121  w178  0.02190058307660025
    w121  w179  -0.02900429919661411
    w121  w180  -0.056278202820622104
    w121  w181  -0.02925318128224642
    w121  w182  0.12811868160490525
    w121  w183  0.007237450281771512
    w121  w184  -0.09140714803192238
    w121  w185  -0.02899509737722896
    w121  w186  0.007467973454524992
    w121  w187  -0.06422007187794473
    w121  w188  0.003940216847700796
    w121  w189  0.12954150627500927
    w121  w190  0.006038196328951924
    w121  w191  0.12242024847820739
    w121  w192  -0.07464600197318005
    w121  w193  0.14374623430045508
    w121  w194  -0.009133518188833322
    w121  w195  -0.009511769348822346
    w121  w196  0.13510149986449405
    w121  w197  0.07099222617794224
    w121  w198  -0.012153630952918177
    w121  w199  0.0571981666914648
    w122  w122  0.28029417442814963
    w122  w123  -0.00902390599787815
    w122  w124  0.04938116786197403
    w122  w125  0.022465314135199907
    w122  w126  0.04992386158166152
    w122  w127  0.01794021401662572
    w122  w128  -0.012811360645786002
    w122  w129  -0.02532497498288974
    w122  w130  -0.0675860376328683
    w122  w131  0.04724858721883753
    w122  w132  -0.05047784795231083
    w122  w133  -0.014783631087950139
    w122  w134  -0.07990773987093364
    w122  w135  -0.022473505700941157
    w122  w136  -0.005011879299710945
    w122  w137  0.12327170152197019
    w122  w138  0.05488474401997584
    w122  w139  -0.08901478936789849
    w122  w140  -0.04916797846818563
    w122  w141  -0.031632745024707774
    w122  w142  0.17348236568999895
    w122  w143  -0.15699271341786775
    w122  w144  -0.024892953984343692
    w122  w145  -0.008339352025808074
    w122  w146  0.05866529639459391
    w122  w147  0.06724977766800337
    w122  w148  -0.013642675148842421
    w122  w149  0.0013170725231467588
    w122  w150  0.1197174841021136
    w122  w151  -0.04629065271675313
    w122  w152  0.08863883967256235
    w122  w153  -0.14556967639014523
    w122  w154  0.12027165320753622
    w122  w155  0.09412840891107369
    w122  w156  -0.01623054100502841
    w122  w157  0.03251024194198571
    w122  w158  0.03243063676913437
    w122  w159  -0.062323242379300536
    w122  w160  -0.05491145419337938
    w122  w161  -0.0036020801007447998
    w122  w162  0.11484512265671935
    w122  w163  -0.06412087551519516
    w122  w164  -0.04816786591570293
    w122  w165  -0.015211633699279466
    w122  w166  -0.141894913696646
    w122  w167  -0.06689910715145839
    w122  w168  0.03992990353956778
    w122  w169  0.02888573362901253
    w122  w170  -0.06305775249294655
    w122  w171  -0.08264262544733782
    w122  w172  0.07869090453573307
    w122  w173  -0.006970094467019061
    w122  w174  0.0143419310000119
    w122  w175  0.04156464707744435
    w122  w176  -0.04776647611423319
    w122  w177  -0.033805904901639316
    w122  w178  -0.02729220158520574
    w122  w179  -0.029538676698583264
    w122  w180  0.06517492246421545
    w122  w181  0.0046501250882759705
    w122  w182  -0.009708099383037514
    w122  w183  -0.07753943222882852
    w122  w184  -0.024682104893363088
    w122  w185  0.0186731944368525
    w122  w186  -0.15636638611596537
    w122  w187  0.09057053669372025
    w122  w188  0.012529311791868024
    w122  w189  0.02758669727096744
    w122  w190  0.07201553254553521
    w122  w191  -0.002885314596973436
    w122  w192  0.0629963693859532
    w122  w193  -0.14614616391678095
    w122  w194  -0.05068531584661416
    w122  w195  0.04428043635733169
    w122  w196  -0.023829038251795467
    w122  w197  -0.0002582409053424194
    w122  w198  -0.06072137426605534
    w122  w199  0.08936290143630911
    w123  w123  0.24475984412551363
    w123  w124  -0.05942108687334456
    w123  w125  -0.014156873009953384
    w123  w126  0.09033643550389939
    w123  w127  0.08293371738649688
    w123  w128  -0.00010550345076493452
    w123  w129  0.03251803325678597
    w123  w130  -0.10161173405409446
    w123  w131  -0.0016147886821207815
    w123  w132  0.020742228009451302
    w123  w133  0.06509763236508889
    w123  w134  -0.0032620494911574168
    w123  w135  0.025361551957576424
    w123  w136  -0.030203070892326968
    w123  w137  0.023799062914295545
    w123  w138  -0.07166751360779669
    w123  w139  -0.02094340118599948
    w123  w140  0.07408637602859028
    w123  w141  0.08599021521971828
    w123  w142  0.09379021957789363
    w123  w143  0.08254027380549993
    w123  w144  0.028697599729625458
    w123  w145  -0.010900697864636719
    w123  w146  -0.023480079599070846
    w123  w147  0.03426008507667795
    w123  w148  -0.09735932913805931
    w123  w149  -0.08758121916584934
    w123  w150  -0.08086325730143622
    w123  w151  -0.029374246680249322
    w123  w152  0.02141162431833788
    w123  w153  -0.13459660889636274
    w123  w154  -0.07023018845821348
    w123  w155  0.0819351791356054
    w123  w156  0.0795776542855461
    w123  w157  0.013469936032503535
    w123  w158  0.056342549584008556
    w123  w159  0.0021507307179292104
    w123  w160  -0.09842910394768087
    w123  w161  -0.014676052071198313
    w123  w162  -0.05732237508791544
    w123  w163  0.08516705138797269
    w123  w164  0.12155528562384031
    w123  w165  0.029555472043351686
    w123  w166  0.0516756388164759
    w123  w167  0.11264817191819938
    w123  w168  -0.1685031852796509
    w123  w169  0.050593124655714194
    w123  w170  0.00709333532618678
    w123  w171  -0.04747328315656666
    w123  w172  0.03791797681702408
    w123  w173  0.0016578320779526612
    w123  w174  0.0867923881034947
    w123  w175  -0.023824712190161624
    w123  w176  -0.029738182021287897
    w123  w177  -0.027867376943116133
    w123  w178  -0.07545039248985784
    w123  w179  0.15376528145190801
    w123  w180  0.07826032880909732
    w123  w181  -0.028456226556046748
    w123  w182  -0.04935946919514209
    w123  w183  -0.015575654120363517
    w123  w184  0.07918252774413431
    w123  w185  0.0663718041332422
    w123  w186  -0.03023169000014925
    w123  w187  -0.06560156978142732
    w123  w188  -0.03836229131287064
    w123  w189  -0.004960251390066513
    w123  w190  0.04511385088761625
    w123  w191  -0.0016097929837152853
    w123  w192  0.03265279931294607
    w123  w193  0.024888866805679196
    w123  w194  0.011141135988720848
    w123  w195  -0.019818922287409488
    w123  w196  -0.09305507523607272
    w123  w197  -0.06345461282052017
    w123  w198  0.13989411357899428
    w123  w199  -0.05500330154156447
    w124  w124  0.2262593864756883
    w124  w125  -0.04272884048867482
    w124  w126  -0.05706532773194139
    w124  w127  0.025250564657230853
    w124  w128  -0.043030069816507005
    w124  w129  -0.08365798899500836
    w124  w130  0.06543891810735412
    w124  w131  0.0091863613153166
    w124  w132  0.003282766470125002
    w124  w133  -0.040389299714084344
    w124  w134  0.12619601208990805
    w124  w135  0.01430581730472966
    w124  w136  -0.07182524878045636
    w124  w137  -0.004604454052324766
    w124  w138  0.08937991317247636
    w124  w139  -0.024555019600213866
    w124  w140  -0.04557044362742107
    w124  w141  -0.06591770933502983
    w124  w142  0.009050184327234076
    w124  w143  0.015090805283102146
    w124  w144  0.01461215338798594
    w124  w145  0.041387988081430675
    w124  w146  0.006816629173399622
    w124  w147  0.04255561375323888
    w124  w148  -0.050276211642378714
    w124  w149  -0.036865339655087495
    w124  w150  0.019667908222291555
    w124  w151  0.010796352286776154
    w124  w152  0.02066309563887628
    w124  w153  -0.05921741830931947
    w124  w154  0.0409856246934265
    w124  w155  0.02860168898541375
    w124  w156  0.006275220843941399
    w124  w157  -0.08435383551523903
    w124  w158  -0.02453225862669887
    w124  w159  -0.1638541136528353
    w124  w160  -0.07012201799561121
    w124  w161  0.11928719492105334
    w124  w162  0.08432194068506854
    w124  w163  -0.08193951644281643
    w124  w164  -0.08284128008019584
    w124  w165  0.08657382986754673
    w124  w166  -0.042063327450847905
    w124  w167  0.0035519430238419433
    w124  w168  0.15943705247621195
    w124  w169  -0.14061606310865107
    w124  w170  -0.12095625608997486
    w124  w171  -0.022299010319804705
    w124  w172  -0.014674172424890409
    w124  w173  0.0775940970931474
    w124  w174  0.013222283841564457
    w124  w175  0.04609839981577152
    w124  w176  0.043093263994768885
    w124  w177  0.016572960724752544
    w124  w178  -0.0727320035929905
    w124  w179  -0.06972371593017526
    w124  w180  0.08070315397808821
    w124  w181  0.0354268369129011
    w124  w182  -0.022361162325198025
    w124  w183  -0.09485117029939935
    w124  w184  -0.022753184204294407
    w124  w185  -9.24885925845508e-05
    w124  w186  -0.030209110605838384
    w124  w187  0.04276233009519351
    w124  w188  0.03218755178318086
    w124  w189  0.145699050335203
    w124  w190  0.0377489188296802
    w124  w191  0.032444287541275534
    w124  w192  -0.11260037041332073
    w124  w193  -0.050661845851378465
    w124  w194  -0.03878771536913148
    w124  w195  0.015006687503942712
    w124  w196  -0.07900048507399868
    w124  w197  0.07599144339320936
    w124  w198  -0.06534845121227689
    w124  w199  -0.019146163001003896
    w125  w125  0.19079825143012397
    w125  w126  0.033647631843693224
    w125  w127  -0.05841515578171872
    w125  w128  -0.018739135770833498
    w125  w129  0.037261138167616684
    w125  w130  0.0004601083960612118
    w125  w131  -0.0015508212931427557
    w125  w132  0.0023302489823207695
    w125  w133  0.03053598881078125
    w125  w134  -0.12516434892149628
    w125  w135  -0.09476131298329457
    w125  w136  0.017261091133756398
    w125  w137  -0.0027952348125563345
    w125  w138  0.01785899042485352
    w125  w139  0.09323933595337201
    w125  w140  -0.04766726841188783
    w125  w141  -0.033026166320687056
    w125  w142  -0.035280809829948225
    w125  w143  0.009245269500482845
    w125  w144  -0.01743920880510419
    w125  w145  -0.023324982871551995
    w125  w146  0.009354551538023323
    w125  w147  -0.003997138878461278
    w125  w148  -0.01850878315329925
    w125  w149  0.1014064276588332
    w125  w150  0.03785417714208875
    w125  w151  0.0682935554678354
    w125  w152  -0.013561925688087501
    w125  w153  -0.050382721039643835
    w125  w154  -0.02748368824126482
    w125  w155  -0.02678348489311891
    w125  w156  -0.06543122552123416
    w125  w157  0.03218204249214994
    w125  w158  0.03515696755687494
    w125  w159  0.09507736483686369
    w125  w160  -0.0314774746996771
    w125  w161  0.004679301569832197
    w125  w162  -0.002980290418486886
    w125  w163  -0.02689796588215668
    w125  w164  0.05240852934762866
    w125  w165  -0.053991271674524846
    w125  w166  -0.024325161452091498
    w125  w167  0.006758677555857697
    w125  w168  -0.00035966292894940325
    w125  w169  0.03686051563391504
    w125  w170  0.12305226057235692
    w125  w171  -0.033561798385990556
    w125  w172  -0.0954997534364559
    w125  w173  -0.031613205951675695
    w125  w174  -0.02190212409947119
    w125  w175  -0.006691413413692396
    w125  w176  -0.06845864786953451
    w125  w177  0.07942190041306765
    w125  w178  0.12679154244703703
    w125  w179  -0.012915284765999192
    w125  w180  -0.030757239893790457
    w125  w181  -0.0713626122145383
    w125  w182  0.049554228104577186
    w125  w183  -0.016356527482037888
    w125  w184  -0.08890941408611364
    w125  w185  -0.004102700363060773
    w125  w186  -0.1594887024190736
    w125  w187  -0.02448416770381746
    w125  w188  0.04641030884541007
    w125  w189  -0.04882840296801553
    w125  w190  -0.03301475650763161
    w125  w191  0.05622639747401066
    w125  w192  0.02751712834935244
    w125  w193  -0.04092645789563171
    w125  w194  -0.013945810990061796
    w125  w195  0.07207282927929175
    w125  w196  0.0904260049346144
    w125  w197  -0.037328903875496575
    w125  w198  0.07253260112888558
    w125  w199  -0.031065697092908844
    w126  w126  0.14778927162481256
    w126  w127  0.04905425211735231
    w126  w128  2.704606314936283e-05
    w126  w129  0.035758376094725555
    w126  w130  -0.08672092304707188
    w126  w131  0.027069642204288716
    w126  w132  -0.02538000730534456
    w126  w133  0.02499950787785099
    w126  w134  -0.06793642666941994
    w126  w135  -0.0010350467828661276
    w126  w136  -0.03322442315950983
    w126  w137  0.07500697843511057
    w126  w138  -0.05084490812454463
    w126  w139  0.03594546785618873
    w126  w140  0.06789751811448372
    w126  w141  0.02736048049934329
    w126  w142  0.1396544011647435
    w126  w143  -0.06584405585233838
    w126  w144  0.002225833708980513
    w126  w145  -0.05712548443642065
    w126  w146  -0.021330728970084988
    w126  w147  0.012211652889660378
    w126  w148  -0.07277430345247372
    w126  w149  0.007403457033590218
    w126  w150  -0.003607401844269189
    w126  w151  0.004371178267836803
    w126  w152  0.034010549617550755
    w126  w153  -0.15220299633604217
    w126  w154  0.06249212659464463
    w126  w155  0.020429721637219546
    w126  w156  0.029753277141479573
    w126  w157  0.04907727089231087
    w126  w158  0.07631889482293981
    w126  w159  0.06995737984585637
    w126  w160  -0.08648892535943142
    w126  w161  0.004196733895109456
    w126  w162  0.04657882601292807
    w126  w163  0.019357531371640813
    w126  w164  0.09179261699198163
    w126  w165  -0.049283038887967645
    w126  w166  -0.03297890824800122
    w126  w167  0.036206965927592275
    w126  w168  -0.08139598693618263
    w126  w169  0.11393437158828519
    w126  w170  0.05106621356650605
    w126  w171  -0.12093623543074034
    w126  w172  0.008910842910613094
    w126  w173  -0.06795453601343414
    w126  w174  -0.0007526232181859974
    w126  w175  -0.006059099039818237
    w126  w176  -0.02529117782366593
    w126  w177  0.011947365479982205
    w126  w178  0.010255037100860094
    w126  w179  0.08542086870755225
    w126  w180  0.04127852066695532
    w126  w181  -0.08756412803969112
    w126  w182  -0.0590913563428502
    w126  w183  -0.006388592234550976
    w126  w184  0.05303715586989092
    w126  w185  0.02550428449190078
    w126  w186  -0.08447483104151411
    w126  w187  0.008606519913092334
    w126  w188  0.020774334794305526
    w126  w189  -0.10243774379612745
    w126  w190  0.09127385791720033
    w126  w191  0.024734509929035878
    w126  w192  0.07715228934204811
    w126  w193  -0.0502298717801565
    w126  w194  -0.041968008553019714
    w126  w195  0.0448155605033513
    w126  w196  -0.04725610803113475
    w126  w197  -0.052360272000363445
    w126  w198  0.07190874058483818
    w126  w199  -0.010349773071695465
    w127  w127  0.23123352805238312
    w127  w128  -0.029447010260567806
    w127  w129  -0.0379572002716487
    w127  w130  -0.025462269108688533
    w127  w131  0.07710675271313022
    w127  w132  -0.01053648164592525
    w127  w133  -0.013985833883574031
    w127  w134  0.03457083235776735
    w127  w135  0.06594666081742928
    w127  w136  -0.016477982490124367
    w127  w137  0.05034584871837565
    w127  w138  -0.009583192702870726
    w127  w139  0.012710329281698227
    w127  w140  0.07154386334406906
    w127  w141  0.00965992401377168
    w127  w142  0.09547654369439654
    w127  w143  -0.06098480831466424
    w127  w144  -0.10025252267075833
    w127  w145  -0.023821310446255402
    w127  w146  -0.09009654091605254
    w127  w147  0.06929044396691653
    w127  w148  -0.01329868043262518
    w127  w149  -0.0031667800675171916
    w127  w150  -0.025536598869199404
    w127  w151  -0.056891155788848805
    w127  w152  0.052475968643534585
    w127  w153  -0.11197385500710767
    w127  w154  0.0028494045593051116
    w127  w155  -0.0033453389330826365
    w127  w156  0.07375832512478281
    w127  w157  -0.03211759618374813
    w127  w158  0.0746383275568018
    w127  w159  -0.00017312618041435106
    w127  w160  -0.08910835511448582
    w127  w161  0.044024261538022184
    w127  w162  0.04447817961695239
    w127  w163  0.023548237084369403
    w127  w164  0.1052364551344746
    w127  w165  -0.007237808764934035
    w127  w166  0.0029287946855486493
    w127  w167  0.017836485926389836
    w127  w168  -0.07594426808892811
    w127  w169  0.06405724320904149
    w127  w170  -0.07207038965519803
    w127  w171  -0.010451199694328842
    w127  w172  0.03822266250699562
    w127  w173  0.0002743430787444056
    w127  w174  0.05612117269128997
    w127  w175  -0.025378258414415898
    w127  w176  0.019876032610263925
    w127  w177  -0.06681778526063864
    w127  w178  -0.07795989807935132
    w127  w179  0.06347660422805905
    w127  w180  0.05971745620121295
    w127  w181  -0.016064460522862773
    w127  w182  -0.03480740432770938
    w127  w183  -0.008180739992702324
    w127  w184  0.04210475754004904
    w127  w185  0.015052066541713063
    w127  w186  -0.03852576855532953
    w127  w187  0.009638408499871005
    w127  w188  0.02737518094143619
    w127  w189  -0.008276858437971766
    w127  w190  0.06548693115348543
    w127  w191  0.05220757171095521
    w127  w192  -0.01179107318542632
    w127  w193  -0.006449393666999601
    w127  w194  -0.061527137600433775
    w127  w195  0.006596943360724766
    w127  w196  -0.12940367384474455
    w127  w197  -0.04619154709590582
    w127  w198  0.026160925929431686
    w127  w199  0.004143452344311655
    w128  w128  0.15381789442217567
    w128  w129  0.11805472841299267
    w128  w130  -0.08161872740994884
    w128  w131  -0.04146681415442584
    w128  w132  0.006988171937299394
    w128  w133  0.03120150070340778
    w128  w134  -0.03615411901067309
    w128  w135  0.01775229598371267
    w128  w136  0.016247311755633202
    w128  w137  0.0015906894029928964
    w128  w138  -0.09032348055006506
    w128  w139  0.002850038555960908
    w128  w140  -0.0474959375906736
    w128  w141  -0.02690065263116192
    w128  w142  0.010909359099833902
    w128  w143  0.07224848765164414
    w128  w144  0.05015468638346827
    w128  w145  -0.04471762799161213
    w128  w146  0.0683137903745509
    w128  w147  -0.009912821859001686
    w128  w148  0.05500833967083009
    w128  w149  -0.013269980886186328
    w128  w150  -0.050928929541192915
    w128  w151  -0.011339505580351891
    w128  w152  0.04194063554908603
    w128  w153  0.10218063196061837
    w128  w154  0.06283513020315452
    w128  w155  0.06770216207636248
    w128  w156  -0.005992149177498255
    w128  w157  0.024149583241724868
    w128  w158  -0.00426695707463617
    w128  w159  0.010775222226964427
    w128  w160  0.09805305831320439
    w128  w161  -0.06316965360985899
    w128  w162  0.010737500357762348
    w128  w163  0.10912944019866255
    w128  w164  -0.040845735615123994
    w128  w165  -0.030595045149983256
    w128  w166  -0.04314172354428509
    w128  w167  -0.006438025345735312
    w128  w168  -0.026685715002216674
    w128  w169  -0.01696676572651994
    w128  w170  -0.01908944762964072
    w128  w171  0.025727361818789315
    w128  w172  -0.03720807259340685
    w128  w173  -0.06648334089608413
    w128  w174  0.04231979306398715
    w128  w175  0.020673697280790597
    w128  w176  -0.017368330996673682
    w128  w177  -0.02074817362197989
    w128  w178  -0.002484864806844145
    w128  w179  0.04527039639375683
    w128  w180  -0.04067710144791621
    w128  w181  0.08814637425273393
    w128  w182  -0.07928834546718841
    w128  w183  0.02780172499967503
    w128  w184  0.08382215217872614
    w128  w185  0.028961631337255107
    w128  w186  0.07663141816173268
    w128  w187  -0.0329864203290077
    w128  w188  -0.02802815923635243
    w128  w189  -0.10170188909893886
    w128  w190  -0.10463604601072785
    w128  w191  -0.10623906983872994
    w128  w192  0.017414147158986287
    w128  w193  -0.0063871237352645365
    w128  w194  0.04579941310965322
    w128  w195  0.01119007636501218
    w128  w196  0.012511754797942856
    w128  w197  -0.043123277944012224
    w128  w198  0.008475305962558877
    w128  w199  0.04053924200345731
    w129  w129  0.27083435983456344
    w129  w130  -0.08792105806854619
    w129  w131  -0.013280876991332369
    w129  w132  0.03630728666771325
    w129  w133  0.0739117567303236
    w129  w134  -0.0504476296469435
    w129  w135  -0.025529572481552347
    w129  w136  -0.026354578404155
    w129  w137  0.00020512129497803045
    w129  w138  -0.08862656652571511
    w129  w139  0.05399018229339829
    w129  w140  -0.012161683809676728
    w129  w141  -0.022955151439366855
    w129  w142  -0.004715261281036618
    w129  w143  0.09696025383022154
    w129  w144  0.06779598043475475
    w129  w145  -0.06573555525622779
    w129  w146  0.06922223614722339
    w129  w147  -0.031542923842377175
    w129  w148  0.05712126766081036
    w129  w149  0.01837253297502704
    w129  w150  -0.07449160911218242
    w129  w151  0.02239124839458118
    w129  w152  0.02203470457204092
    w129  w153  0.10677026289907747
    w129  w154  0.0562960002708479
    w129  w155  0.047113641066645395
    w129  w156  -0.02413010703002339
    w129  w157  0.04266703024537347
    w129  w158  0.01932741425178769
    w129  w159  0.07106816868895552
    w129  w160  0.04787538866491988
    w129  w161  -0.009578635127823103
    w129  w162  0.03869882429069523
    w129  w163  0.14818238047467178
    w129  w164  0.00952687418233558
    w129  w165  -0.08200290800179473
    w129  w166  -0.019673612484329105
    w129  w167  0.03383687799871781
    w129  w168  -0.08087077956376298
    w129  w169  -0.03150780944594502
    w129  w170  0.056582400631811525
    w129  w171  -0.024507453459341414
    w129  w172  -0.07655362911365723
    w129  w173  -0.0542692924366396
    w129  w174  0.049220629165354995
    w129  w175  0.020362678856639834
    w129  w176  -0.023474853157997317
    w129  w177  0.03692818951198091
    w129  w178  0.04395352859581394
    w129  w179  0.13824735137769686
    w129  w180  -0.07112121201105102
    w129  w181  0.10292529383109386
    w129  w182  -0.07931057820467685
    w129  w183  0.019657238575989427
    w129  w184  0.10437049061229663
    w129  w185  0.025740154877314483
    w129  w186  0.02237312224264268
    w129  w187  -0.0713238721493781
    w129  w188  -0.006321590410286049
    w129  w189  -0.14816470105669255
    w129  w190  -0.12050047598140742
    w129  w191  -0.11860400288605896
    w129  w192  0.03544820699785426
    w129  w193  -0.015537985047317472
    w129  w194  0.0692027044826916
    w129  w195  0.05362742056272219
    w129  w196  0.04649631678244783
    w129  w197  -0.09294521983854968
    w129  w198  0.08889716095314408
    w129  w199  0.011236503715343826
    w130  w130  0.22892762128845998
    w130  w131  0.039838301848152416
    w130  w132  0.037716980428159914
    w130  w133  -0.0007656569325167043
    w130  w134  0.0928820706557567
    w130  w135  -0.034492911930170886
    w130  w136  -0.03586745350312486
    w130  w137  -0.09673847606820984
    w130  w138  0.1171294743550073
    w130  w139  0.015676222125646906
    w130  w140  0.04606544197029707
    w130  w141  0.017943327127075068
    w130  w142  -0.21723396155228436
    w130  w143  -0.0396881155227325
    w130  w144  -0.05372545579424309
    w130  w145  0.04894640392728262
    w130  w146  -0.054126968552801684
    w130  w147  -0.026638879152549446
    w130  w148  0.05705675056584723
    w130  w149  0.07960391636009861
    w130  w150  0.016468112611695906
    w130  w151  0.07452145623217818
    w130  w152  -0.08408042063988584
    w130  w153  0.09795013580098606
    w130  w154  -0.07353536417380312
    w130  w155  -0.11566518130967442
    w130  w156  -0.018513465932949766
    w130  w157  -0.038912445259585746
    w130  w158  -0.03218709350086206
    w130  w159  -0.021590056575375115
    w130  w160  -0.03055772274036632
    w130  w161  0.11155219162696774
    w130  w162  0.011825566703547355
    w130  w163  -0.11792947090780494
    w130  w164  -0.039485163673666245
    w130  w165  0.003001582983287829
    w130  w166  0.08922984098467103
    w130  w167  -0.05007373065094927
    w130  w168  0.11450916416738569
    w130  w169  -0.12235484953757131
    w130  w170  0.014679027681188735
    w130  w171  0.0886905417948924
    w130  w172  -0.025921979348123597
    w130  w173  0.08366197086132521
    w130  w174  -0.09947623530647046
    w130  w175  -0.05623019404077396
    w130  w176  0.08676243610839317
    w130  w177  0.06478307780456803
    w130  w178  0.04394646306255734
    w130  w179  -0.09039850305484702
    w130  w180  -0.028902969658009623
    w130  w181  0.010797759111499826
    w130  w182  0.0963499311887327
    w130  w183  0.016864371821274853
    w130  w184  -0.07190235293041046
    w130  w185  -0.08073851616841295
    w130  w186  0.021075414333670203
    w130  w187  0.05849663125851084
    w130  w188  0.031927980968854144
    w130  w189  0.08649814125733815
    w130  w190  0.010851160580174235
    w130  w191  0.035754781537284924
    w130  w192  -0.09657816750287669
    w130  w193  0.0063870954439126095
    w130  w194  -0.0055128922881808855
    w130  w195  -0.045147212943946184
    w130  w196  0.023231811393691567
    w130  w197  0.056247085260509005
    w130  w198  -0.07593879733601719
    w130  w199  -0.05085118826951675
    w131  w131  0.22923323557329264
    w131  w132  0.05469344893690654
    w131  w133  -0.026904942933653125
    w131  w134  0.09095454335807987
    w131  w135  0.032609537471411994
    w131  w136  -0.024904266618876247
    w131  w137  -0.006537373798838572
    w131  w138  0.028929338453785956
    w131  w139  0.05271389606762028
    w131  w140  0.09900806290699155
    w131  w141  -0.00951083825053945
    w131  w142  0.04727176996965145
    w131  w143  -0.1919631533707254
    w131  w144  -0.08786178473685059
    w131  w145  -0.0016615313799261892
    w131  w146  -0.05199761760150376
    w131  w147  0.019730339049670167
    w131  w148  0.03534781520462563
    w131  w149  0.0049933769210230355
    w131  w150  0.052032514612788565
    w131  w151  -0.03125177592853721
    w131  w152  0.02244696161682857
    w131  w153  -0.06432388581763054
    w131  w154  0.07574469263771758
    w131  w155  -0.08902736959369954
    w131  w156  0.02621462287515237
    w131  w157  0.054502822403245124
    w131  w158  0.03271085484743732
    w131  w159  0.028581143454809325
    w131  w160  -0.07904602208825194
    w131  w161  0.1296823761505727
    w131  w162  0.16012205336007176
    w131  w163  -0.040801115220163574
    w131  w164  0.0617606747841122
    w131  w165  -0.1465942086439311
    w131  w166  0.04060834891555151
    w131  w167  -0.0270600882456082
    w131  w168  -0.05920912015310569
    w131  w169  0.029787155472828914
    w131  w170  -0.06774817439916514
    w131  w171  -0.03567108996770107
    w131  w172  0.04345004838700444
    w131  w173  0.08787964348108603
    w131  w174  -0.03571996297324188
    w131  w175  -0.010732412477026583
    w131  w176  0.000873019315474592
    w131  w177  -0.015468528475015147
    w131  w178  0.006407996256710012
    w131  w179  -0.0029458893359370106
    w131  w180  -0.04385798413249106
    w131  w181  0.06397394298335866
    w131  w182  -0.027713464512936426
    w131  w183  -0.0294869804807654
    w131  w184  -0.02357672956076357
    w131  w185  -0.04883241952838541
    w131  w186  -0.032870078446253836
    w131  w187  0.041150487197828246
    w131  w188  0.08871651485481075
    w131  w189  -0.05991139601280941
    w131  w190  -0.01258088440031037
    w131  w191  -0.02929867306470926
    w131  w192  0.07693915242815642
    w131  w193  -0.07530836631482743
    w131  w194  -0.004422632169379168
    w131  w195  0.09039752355717927
    w131  w196  -0.07479488235552353
    w131  w197  -0.06125911686119734
    w131  w198  -0.02490155221405331
    w131  w199  -0.036390734662140024
    w132  w132  0.20479250415729996
    w132  w133  0.06140542450835537
    w132  w134  0.10985485642290024
    w132  w135  0.0032608951810986276
    w132  w136  -0.03388228748550658
    w132  w137  -0.11908595325094892
    w132  w138  -0.0251365683354544
    w132  w139  0.014961403717058647
    w132  w140  0.03966184014674135
    w132  w141  0.04535168128328606
    w132  w142  -0.10506644272291991
    w132  w143  0.0662829078638178
    w132  w144  0.050026141422278604
    w132  w145  0.03537295725845235
    w132  w146  0.027271516451264154
    w132  w147  -0.007831652223473179
    w132  w148  -0.01747826572904581
    w132  w149  -0.07263565179715606
    w132  w150  -0.05190198168500063
    w132  w151  0.03419791846555246
    w132  w152  -0.021722836069607367
    w132  w153  0.023212549920480465
    w132  w154  -0.04880591285881953
    w132  w155  0.01438771137831515
    w132  w156  0.03387973898618745
    w132  w157  0.04045658252401871
    w132  w158  -0.023662997615532352
    w132  w159  -0.0524211202306363
    w132  w160  -0.027165002299647693
    w132  w161  0.07362861484197257
    w132  w162  0.016009711267264127
    w132  w163  0.008632857568525122
    w132  w164  0.0009460477654627453
    w132  w165  -0.039381105208002094
    w132  w166  0.10998986003691218
    w132  w167  0.05096412772366863
    w132  w168  -0.044846375981919824
    w132  w169  -0.11005492089107993
    w132  w170  -0.04801545442518996
    w132  w171  0.05047894324275762
    w132  w172  -0.022184201051481098
    w132  w173  0.09689198923205597
    w132  w174  -0.005015297599120837
    w132  w175  -0.02735213533765245
    w132  w176  -0.009590725771670873
    w132  w177  0.028169052817090184
    w132  w178  -0.010728382600786287
    w132  w179  0.00688989187110423
    w132  w180  -0.017131773071622964
    w132  w181  0.10180358734466051
    w132  w182  -0.040197337083956744
    w132  w183  -0.02553509071505483
    w132  w184  0.005033224952816377
    w132  w185  -0.0013032070577075885
    w132  w186  0.05886945498920855
    w132  w187  -0.0327646223872061
    w132  w188  0.004506049888097931
    w132  w189  0.006483235524595055
    w132  w190  -0.10878852649651766
    w132  w191  -0.10099995204401006
    w132  w192  0.001928699557832486
    w132  w193  -0.018448100599515876
    w132  w194  0.08022827920093527
    w132  w195  0.010420665464151609
    w132  w196  -0.05508926951447507
    w132  w197  -0.03181418054305684
    w132  w198  0.036757873847040184
    w132  w199  -0.11807102900097848
    w133  w133  0.19411447258694844
    w133  w134  -0.041348406918435415
    w133  w135  -0.05068424659282237
    w133  w136  -0.04665646207278692
    w133  w137  -0.062414187344264925
    w133  w138  -0.030858870346393737
    w133  w139  -0.03668927718380501
    w133  w140  0.024594798633143705
    w133  w141  0.09281145237284252
    w133  w142  -0.12787733488979366
    w133  w143  0.10753757683520332
    w133  w144  0.03635608594754686
    w133  w145  -0.011214071399645338
    w133  w146  0.04702652955595033
    w133  w147  0.027737590667026704
    w133  w148  -0.003919490862873632
    w133  w149  0.010788893939553184
    w133  w150  -0.07821165435539625
    w133  w151  0.07439992450332959
    w133  w152  0.004458346620807971
    w133  w153  0.009214666359701857
    w133  w154  -0.08216759201906311
    w133  w155  0.11286692685086963
    w133  w156  0.03656188149591159
    w133  w157  0.034810580711802666
    w133  w158  0.04153544536853447
    w133  w159  -0.03194225516263658
    w133  w160  -0.05305550219369581
    w133  w161  0.007651784577487535
    w133  w162  -0.029440904531244202
    w133  w163  0.03225610588790187
    w133  w164  0.012254299388613428
    w133  w165  0.003364902997779095
    w133  w166  0.04994316326017038
    w133  w167  0.028969480073656007
    w133  w168  -0.049425167656726256
    w133  w169  -0.11442697056058153
    w133  w170  0.021425921800351508
    w133  w171  0.07564563290933608
    w133  w172  -0.04188937139414693
    w133  w173  -0.00808602140883343
    w133  w174  0.016328071532773606
    w133  w175  -0.07795612446529179
    w133  w176  -0.003259963745915236
    w133  w177  0.042935375782885254
    w133  w178  -0.0011615439754676551
    w133  w179  0.07396197955554466
    w133  w180  0.04688834646211028
    w133  w181  0.05438160184688162
    w133  w182  -0.018848239928010723
    w133  w183  0.0024681852998253376
    w133  w184  0.05808794389907996
    w133  w185  0.03179868436779432
    w133  w186  -0.035590859086836665
    w133  w187  -0.0005396108890972568
    w133  w188  -0.045813419012699155
    w133  w189  -0.014376131702496062
    w133  w190  -0.05350626952657222
    w133  w191  -0.08686859536840352
    w133  w192  -0.03507154796130033
    w133  w193  -0.06455452010419196
    w133  w194  0.04346635238980677
    w133  w195  -0.05575070931454847
    w133  w196  -0.043790079634841064
    w133  w197  -0.056961319498787966
    w133  w198  0.07139977040597686
    w133  w199  -0.0637502464269737
    w134  w134  0.4161747228308318
    w134  w135  0.08916141695843316
    w134  w136  -0.11910195455226406
    w134  w137  -0.11476783107627281
    w134  w138  0.026507229077821503
    w134  w139  -0.022053049520889555
    w134  w140  0.11737049465418588
    w134  w141  0.027287130331059922
    w134  w142  -0.02490768644886825
    w134  w143  0.02911979997980109
    w134  w144  0.11936745296348521
    w134  w145  0.09009176040588301
    w134  w146  -0.007033479585063884
    w134  w147  -0.05572261252755328
    w134  w148  -0.0706984452782879
    w134  w149  -0.2056361544633241
    w134  w150  -0.05698721111762807
    w134  w151  -0.01468986644991899
    w134  w152  -0.06240656791565575
    w134  w153  0.026147342804140137
    w134  w154  0.024944705172838234
    w134  w155  -0.0564945983969194
    w134  w156  0.06787068880549184
    w134  w157  -0.02310699589120019
    w134  w158  -0.10093687298339239
    w134  w159  -0.1616595513418093
    w134  w160  -0.06326659061318929
    w134  w161  0.1907432428960262
    w134  w162  0.0815520288386762
    w134  w163  -0.025629823779256884
    w134  w164  -0.062296899487780326
    w134  w165  0.022799699299595782
    w134  w166  0.1517530742960544
    w134  w167  0.09304533076136497
    w134  w168  0.026910530234291286
    w134  w169  -0.1697935804518497
    w134  w170  -0.14680045186138524
    w134  w171  -0.048824889975558866
    w134  w172  0.06535669083561364
    w134  w173  0.20913949222506958
    w134  w174  -0.02463298089494074
    w134  w175  0.0465524183646054
    w134  w176  0.08840290811695449
    w134  w177  0.01827194760822571
    w134  w178  -0.12180835069626518
    w134  w179  0.009711838131481427
    w134  w180  0.0014706808407230396
    w134  w181  0.1348318052324456
    w134  w182  -0.08439854795155027
    w134  w183  -0.06672120048683634
    w134  w184  0.057122988903531215
    w134  w185  -0.02984794389383406
    w134  w186  0.20860894243777228
    w134  w187  -0.021514587183649795
    w134  w188  0.015966784574005678
    w134  w189  0.11525086529375518
    w134  w190  -0.005259518703079331
    w134  w191  -0.09618271696551399
    w134  w192  -0.03339344667864814
    w134  w193  0.046965729005238904
    w134  w194  0.08538488766547152
    w134  w195  0.0053917336871786865
    w134  w196  -0.12037853171996202
    w134  w197  0.06500777257159482
    w134  w198  -0.03358822621577502
    w134  w199  -0.13497450904639505
    w135  w135  0.17553666114393066
    w135  w136  0.02147439384509133
    w135  w137  -0.005329004527421741
    w135  w138  -0.06388575087985894
    w135  w139  -0.007042130168852928
    w135  w140  0.03548798556565281
    w135  w141  0.002832101044158009
    w135  w142  0.07961621485983802
    w135  w143  -0.03306740890415679
    w135  w144  -0.008894067061471304
    w135  w145  0.0021534712831611947
    w135  w146  -0.029330902864873228
    w135  w147  0.012122697112659168
    w135  w148  -0.015831324950930172
    w135  w149  -0.08895914405198826
    w135  w150  -0.02402229052224473
    w135  w151  -0.06678588725523502
    w135  w152  0.031987109534800356
    w135  w153  -0.022563947868985752
    w135  w154  0.04396965093800844
    w135  w155  -0.0045466087990373326
    w135  w156  0.06217261784458736
    w135  w157  0.002251228004043299
    w135  w158  -0.00922612742004164
    w135  w159  -0.03416582769801979
    w135  w160  0.03251762024555347
    w135  w161  -0.0162295550345488
    w135  w162  0.014027857545067433
    w135  w163  0.02614241575101836
    w135  w164  0.0095358785045024
    w135  w165  -0.0030430817465648416
    w135  w166  0.02024157198365881
    w135  w167  0.008380807823915547
    w135  w168  -0.036952289598013145
    w135  w169  0.05301973268693589
    w135  w170  -0.10905523509401906
    w135  w171  0.00931612432130351
    w135  w172  0.05235972402043416
    w135  w173  0.004744331404714182
    w135  w174  0.01661290744573616
    w135  w175  0.009130425619747097
    w135  w176  0.010614464960494943
    w135  w177  -0.08100939099049524
    w135  w178  -0.07998547181831918
    w135  w179  -0.021178071428823653
    w135  w180  0.009682323717192607
    w135  w181  0.020847527033783
    w135  w182  -0.07522291612805455
    w135  w183  0.012928717606507944
    w135  w184  0.04318078577282184
    w135  w185  0.009581219132671799
    w135  w186  0.12035747004622509
    w135  w187  -0.000399379988259264
    w135  w188  -0.0016506609353513307
    w135  w189  -0.024966741521022896
    w135  w190  -0.0024328375460815075
    w135  w191  -0.02731300668397852
    w135  w192  0.025405458115569806
    w135  w193  0.03190994652057803
    w135  w194  -0.001902448478087597
    w135  w195  -0.003870530407918732
    w135  w196  -0.09838090904107069
    w135  w197  0.003198985071238106
    w135  w198  -0.03771405044929872
    w135  w199  -0.006439818716416995
    w136  w136  0.24381339449849043
    w136  w137  -0.006832979555187863
    w136  w138  -0.049613052647114686
    w136  w139  0.00919054913392471
    w136  w140  -0.09301163316244279
    w136  w141  -0.02349206378836261
    w136  w142  -0.006119194170823896
    w136  w143  -0.02384006518823541
    w136  w144  -0.0918418770025286
    w136  w145  0.0005070144751031903
    w136  w146  -0.010669528926089166
    w136  w147  0.028429468020174015
    w136  w148  0.057118362026403975
    w136  w149  0.03449816178982533
    w136  w150  0.047443315448824956
    w136  w151  -0.05685752637671822
    w136  w152  0.02980847692686768
    w136  w153  0.03037118094335408
    w136  w154  -0.05169688541684698
    w136  w155  -0.011549394171691145
    w136  w156  -0.019325234980384673
    w136  w157  0.02258422785134342
    w136  w158  -0.004830672450425593
    w136  w159  0.06337259032152212
    w136  w160  0.1349322608490766
    w136  w161  -0.16184044547334395
    w136  w162  -0.10107327463529461
    w136  w163  0.005402633553956663
    w136  w164  0.018950128191450318
    w136  w165  -0.016559634278123823
    w136  w166  -0.025049744020972577
    w136  w167  -0.06604603799321586
    w136  w168  -0.03785312408399963
    w136  w169  0.1340729294921434
    w136  w170  -0.011128003433039697
    w136  w171  0.12031630016346807
    w136  w172  0.003570852807016362
    w136  w173  -0.062035826218757986
    w136  w174  0.014214773490504365
    w136  w175  -0.02170199216597946
    w136  w176  -0.0796633773468589
    w136  w177  -0.09151268520023673
    w136  w178  0.03811723646570696
    w136  w179  -0.1196187257330459
    w136  w180  -0.047415691452451364
    w136  w181  -0.03894375040069025
    w136  w182  0.05239697614867343
    w136  w183  0.0570369226841867
    w136  w184  -0.09821357020315097
    w136  w185  0.005604432796385097
    w136  w186  0.010754468543809688
    w136  w187  -0.013624905804994598
    w136  w188  -0.013430948350847401
    w136  w189  -0.03621978746620286
    w136  w190  -0.08829217926760928
    w136  w191  0.033448585212530496
    w136  w192  0.048449739375974916
    w136  w193  0.043664016660577946
    w136  w194  -0.012249207543205699
    w136  w195  -0.011549588328074257
    w136  w196  0.04916384810192173
    w136  w197  -0.013764922834886012
    w136  w198  -0.03981077147804592
    w136  w199  0.05269954113531267
    w137  w137  0.23419988139091075
    w137  w138  0.040795633925118625
    w137  w139  -0.03555571867759507
    w137  w140  -0.01485096193855818
    w137  w141  -0.06075058181476561
    w137  w142  0.2262683722584497
    w137  w143  -0.11702727053363451
    w137  w144  -0.04784250428441681
    w137  w145  -0.05549291933358261
    w137  w146  -0.01686888530157456
    w137  w147  0.021425966288002415
    w137  w148  0.019899938346541354
    w137  w149  0.05980504955122605
    w137  w150  0.06985098934526902
    w137  w151  -0.07482772024314627
    w137  w152  0.05518613927487634
    w137  w153  -0.07348890251399558
    w137  w154  0.11439715408514863
    w137  w155  0.009933366476489212
    w137  w156  -0.035031093959337234
    w137  w157  -0.035377609701437995
    w137  w158  0.05023043714606334
    w137  w159  0.058759343128608824
    w137  w160  -0.029206199160846352
    w137  w161  -0.036009759608218485
    w137  w162  0.059219561081391786
    w137  w163  0.031392818790034874
    w137  w164  0.022540890285415872
    w137  w165  0.010595185267674829
    w137  w166  -0.1566186946123419
    w137  w167  -0.03660140628987912
    w137  w168  -0.005505289527559429
    w137  w169  0.1274386592698628
    w137  w170  0.04479496941367088
    w137  w171  -0.14260362741647833
    w137  w172  0.0652527875984236
    w137  w173  -0.08240107570204346
    w137  w174  0.04989154743610328
    w137  w175  0.06589790558674768
    w137  w176  0.004759052290859065
    w137  w177  -0.03604540631705406
    w137  w178  -0.016813369864656896
    w137  w179  0.09313187611388835
    w137  w180  0.02688877632483749
    w137  w181  -0.06745695436894956
    w137  w182  0.016484463022364417
    w137  w183  -0.011263918739379864
    w137  w184  0.042154077443521676
    w137  w185  0.014383799605940073
    w137  w186  -0.12281712521628436
    w137  w187  0.029394274433612574
    w137  w188  0.006702615194287524
    w137  w189  -0.019631642565876514
    w137  w190  0.15058875848587053
    w137  w191  0.08787447578353598
    w137  w192  0.03816215777374501
    w137  w193  -0.017387519105593767
    w137  w194  -0.08492508965637609
    w137  w195  0.03260056407611378
    w137  w196  0.046497843864480665
    w137  w197  -0.004354141765439058
    w137  w198  -0.004711650593338874
    w137  w199  0.16300367727428663
    w138  w138  0.23802024766979468
    w138  w139  -0.05209516365418807
    w138  w140  -0.0032783368576449435
    w138  w141  -0.025310018017578765
    w138  w142  -0.049875354418599596
    w138  w143  -0.071040932728057
    w138  w144  -0.04857730990568537
    w138  w145  0.046128425235685146
    w138  w146  -0.02337033547045893
    w138  w147  0.0005561977348176742
    w138  w148  0.04457568911881169
    w138  w149  0.07339672198467043
    w138  w150  0.07943900510772012
    w138  w151  0.011720749747944173
    w138  w152  -0.04473271072109108
    w138  w153  0.02382732911604599
    w138  w154  -0.026222540129240048
    w138  w155  -0.05859846658834864
    w138  w156  -0.055809194989093314
    w138  w157  -0.07026559167954173
    w138  w158  -0.02143755047079716
    w138  w159  -0.03900796273350355
    w138  w160  -0.07393222806826132
    w138  w161  0.09670554034846718
    w138  w162  0.04024784116749776
    w138  w163  -0.0968494668165222
    w138  w164  -0.04688311641729075
    w138  w165  0.04515417008996341
    w138  w166  -0.020969781277987473
    w138  w167  -0.046535610050865824
    w138  w168  0.10654910742294454
    w138  w169  -0.09029420924536466
    w138  w170  0.03011109319002699
    w138  w171  -0.02046900160613273
    w138  w172  0.03591168331007229
    w138  w173  0.08719071362956285
    w138  w174  -0.024690517901855658
    w138  w175  0.01653084729063297
    w138  w176  0.05963512960210185
    w138  w177  0.04607304319240128
    w138  w178  0.010505208326995256
    w138  w179  -0.011867771907998929
    w138  w180  0.009689390282354503
    w138  w181  0.003968085651853171
    w138  w182  0.12688684690468768
    w138  w183  -0.04257057744729416
    w138  w184  -0.06834362644647268
    w138  w185  -0.05028226654792765
    w138  w186  -0.10691092348153415
    w138  w187  0.05358656310737185
    w138  w188  0.020200840917553906
    w138  w189  0.15346951698320369
    w138  w190  0.09263544663744981
    w138  w191  0.08116534465307439
    w138  w192  -0.07356415633816091
    w138  w193  -0.015337356725293863
    w138  w194  -0.03426513275859163
    w138  w195  -0.017076399298337656
    w138  w196  0.07038815117271228
    w138  w197  0.06037517764273323
    w138  w198  -0.054088061341011656
    w138  w199  0.05252095220343621
    w139  w139  0.3365120069052221
    w139  w140  0.01146160655300005
    w139  w141  -0.09817492064713841
    w139  w142  -0.017898466398239693
    w139  w143  0.00418414983239547
    w139  w144  -0.06255805848622223
    w139  w145  -0.06937065204566563
    w139  w146  -0.0864680243548352
    w139  w147  -0.026161768554894153
    w139  w148  -0.009811510558728627
    w139  w149  0.11531307018435522
    w139  w150  -0.031213641764925602
    w139  w151  0.06061295559601662
    w139  w152  -0.013414956297725095
    w139  w153  -0.022065129601337656
    w139  w154  0.032776745699559275
    w139  w155  -0.15042090510005118
    w139  w156  -0.032666381241769744
    w139  w157  0.0018686380985644701
    w139  w158  0.056421953056511986
    w139  w159  0.16696510044797774
    w139  w160  -0.011276562707790115
    w139  w161  0.06981192838380464
    w139  w162  0.053294733456052054
    w139  w163  0.026471163875559568
    w139  w164  0.12739706079271512
    w139  w165  -0.11651848112295972
    w139  w166  0.014416477991293296
    w139  w167  0.03761154401644399
    w139  w168  -0.01493408374361056
    w139  w169  0.10188723924299471
    w139  w170  0.09171485269572077
    w139  w171  -0.05197467657581579
    w139  w172  -0.16885682478752714
    w139  w173  -0.06170793431574296
    w139  w174  -0.029535888892514763
    w139  w175  0.0015127645843011025
    w139  w176  -0.025861602784498932
    w139  w177  0.067729131486195
    w139  w178  0.13066672552410713
    w139  w179  -0.005541937983134382
    w139  w180  -0.08503894801416119
    w139  w181  -0.08461128931218032
    w139  w182  -0.03697995977059265
    w139  w183  0.02326411413784342
    w139  w184  -0.04428750069084074
    w139  w185  -0.027929082546842458
    w139  w186  -0.04925212328297055
    w139  w187  -0.06592913780356552
    w139  w188  0.12049175626998743
    w139  w189  -0.16697874178770672
    w139  w190  -0.06199468382788512
    w139  w191  0.08653974161390442
    w139  w192  0.00839460495559152
    w139  w193  0.02617969068898628
    w139  w194  -0.0415507761992749
    w139  w195  0.13792295999566492
    w139  w196  0.02257356394850439
    w139  w197  -0.06296635046425608
    w139  w198  0.08374652498707756
    w139  w199  -0.07548474230491493
    w140  w140  0.2855814941589106
    w140  w141  0.10213429341976901
    w140  w142  0.009680240346747596
    w140  w143  -0.10256771715140742
    w140  w144  0.006786784350106331
    w140  w145  -0.005528034812347586
    w140  w146  -0.0755434196513571
    w140  w147  -0.042504511714441404
    w140  w148  -0.03292281787591804
    w140  w149  -0.03548941137324765
    w140  w150  -0.04123061012060971
    w140  w151  0.015305895874626493
    w140  w152  -0.05010451958429551
    w140  w153  -0.04549618168382487
    w140  w154  0.015226369706004333
    w140  w155  -0.08213753478429732
    w140  w156  0.07059876641567342
    w140  w157  0.04097020388932591
    w140  w158  0.02745191138492153
    w140  w159  0.04217472282691469
    w140  w160  -0.11474410474750671
    w140  w161  0.11166155111120069
    w140  w162  0.06000469434934101
    w140  w163  -0.01356306222477217
    w140  w164  0.07900735769362906
    w140  w165  -0.06463592104239939
    w140  w166  0.11589699081661414
    w140  w167  0.04262188040620753
    w140  w168  -0.08871873143011165
    w140  w169  0.021280926504323366
    w140  w170  0.024383734097402653
    w140  w171  -0.0769746931178996
    w140  w172  0.06941404880309943
    w140  w173  0.04912238688541597
    w140  w174  -0.0676781420644586
    w140  w175  -0.04694091627171704
    w140  w176  0.07890880454845306
    w140  w177  0.028679967076556536
    w140  w178  -0.026470357130394917
    w140  w179  0.10115003744663854
    w140  w180  0.003120867590296861
    w140  w181  -0.018084775582843892
    w140  w182  -0.03446002839827203
    w140  w183  0.02553505003644451
    w140  w184  0.08580691658991105
    w140  w185  -0.03764048186386698
    w140  w186  0.06419165858075628
    w140  w187  0.028679969748603134
    w140  w188  0.01792931328390389
    w140  w189  -0.05164194914303117
    w140  w190  0.11241219213142543
    w140  w191  -0.020847666602277055
    w140  w192  0.04587892829673646
    w140  w193  0.005844626982943611
    w140  w194  0.0068342415332628415
    w140  w195  -0.015064474625634079
    w140  w196  -0.08163917936406499
    w140  w197  -0.02291843763293302
    w140  w198  0.02800348703772869
    w140  w199  -0.07317586727373364
    w141  w141  0.23079206947220207
    w141  w142  -0.07535155412936026
    w141  w143  0.018973027691756975
    w141  w144  0.04259789442464989
    w141  w145  0.03543956861173724
    w141  w146  0.004573606835563777
    w141  w147  -0.0023595845280415593
    w141  w148  -0.04852248406481532
    w141  w149  -0.07526094817601998
    w141  w150  -0.046240821028756804
    w141  w151  0.023429156472778708
    w141  w152  -0.03517342542727998
    w141  w153  -0.03327950864088464
    w141  w154  -0.10234877006414338
    w141  w155  0.060508022916573194
    w141  w156  0.07522132467174499
    w141  w157  0.053481515554391464
    w141  w158  0.001652495201837807
    w141  w159  -0.04218309712090546
    w141  w160  -0.0519547903420508
    w141  w161  -0.022626186677619745
    w141  w162  -0.08015926057675714
    w141  w163  -0.0222148422173902
    w141  w164  0.017899287458424222
    w141  w165  0.029278552531061854
    w141  w166  0.11319322186079502
    w141  w167  0.030953884152382354
    w141  w168  -0.08290077297494193
    w141  w169  -0.03367223111066481
    w141  w170  0.0011984952795312004
    w141  w171  0.05436703185342408
    w141  w172  0.07889417560959938
    w141  w173  0.034395433607046666
    w141  w174  -0.031876424526884155
    w141  w175  -0.08461039449903808
    w141  w176  0.018749980731423744
    w141  w177  -0.004606124392711872
    w141  w178  -0.04985536828705069
    w141  w179  0.03352636894064751
    w141  w180  0.058210591758129454
    w141  w181  -0.006342179830422786
    w141  w182  0.007208372619298118
    w141  w183  0.026176880790651277
    w141  w184  0.04295099726680336
    w141  w185  0.012301082167507178
    w141  w186  0.05651746523114439
    w141  w187  0.025336428222117704
    w141  w188  -0.07241124989075284
    w141  w189  0.03569245770391267
    w141  w190  0.043226949867562
    w141  w191  -0.06086981241355002
    w141  w192  0.02115545255346701
    w141  w193  -0.0028138664596518126
    w141  w194  0.0428311150239962
    w141  w195  -0.10855507674331649
    w141  w196  -0.06679552560427687
    w141  w197  -0.002252516550418622
    w141  w198  0.02295461895385628
    w141  w199  -0.0736258603698315
    w142  w142  0.5428108330198791
    w142  w143  -0.1638691643285862
    w142  w144  0.03178576557697011
    w142  w145  -0.04689617143940406
    w142  w146  0.0018638993366556348
    w142  w147  0.023166904022141502
    w142  w148  -0.12068403427352953
    w142  w149  -0.11692691539996727
    w142  w150  0.08573872400937224
    w142  w151  -0.1468431068946055
    w142  w152  0.10387342719344986
    w142  w153  -0.25477822882234474
    w142  w154  0.22276021643465194
    w142  w155  0.0384667650112352
    w142  w156  0.01691115478720444
    w142  w157  0.023059025879967405
    w142  w158  0.035169597242899406
    w142  w159  0.015552674833392465
    w142  w160  -0.0543870921312264
    w142  w161  -0.032569987712887646
    w142  w162  0.1163383317128144
    w142  w163  0.0445584727424403
    w142  w164  0.05054871633462601
    w142  w165  -0.016678442484988152
    w142  w166  -0.16313467169773951
    w142  w167  0.04129458148217628
    w142  w168  -0.0766096281290998
    w142  w169  0.2331868412619098
    w142  w170  -0.052194669646116285
    w142  w171  -0.2824963951093785
    w142  w172  0.12703875729188557
    w142  w173  -0.0504685522784658
    w142  w174  0.0735304178784146
    w142  w175  0.13958532999655168
    w142  w176  -0.06363552229433722
    w142  w177  -0.08676360410680373
    w142  w178  -0.08587739957102695
    w142  w179  0.08414553416633534
    w142  w180  0.05786153967929531
    w142  w181  -0.08702776800078038
    w142  w182  -0.11458405079986529
    w142  w183  -0.07568429150689607
    w142  w184  0.06089609504874533
    w142  w185  0.05631095637017392
    w142  w186  -0.0730811465280992
    w142  w187  -0.002920333194231746
    w142  w188  0.031020338514480477
    w142  w189  -0.058004830207713985
    w142  w190  0.16752973295721277
    w142  w191  0.05558101510565593
    w142  w192  0.16080973054625258
    w142  w193  -0.028897394648780984
    w142  w194  -0.0722843567971451
    w142  w195  0.12110030722285564
    w142  w196  -0.05605748793730811
    w142  w197  -0.006915990841619204
    w142  w198  0.019355882309881514
    w142  w199  0.1042873081534461
    w143  w143  0.5374369179962244
    w143  w144  0.1520610886395699
    w143  w145  0.03221699213640258
    w143  w146  0.06551871615006154
    w143  w147  -0.00997906830397392
    w143  w148  -0.06871873848425268
    w143  w149  -0.08786473557826056
    w143  w150  -0.1893256924815193
    w143  w151  0.0577215926043854
    w143  w152  -0.04335220239065496
    w143  w153  0.11041518838540172
    w143  w154  -0.20643364415592935
    w143  w155  0.13360892007687902
    w143  w156  0.007481402745813904
    w143  w157  -0.09085318094024168
    w143  w158  -0.045151838884223416
    w143  w159  -0.08506853586077513
    w143  w160  0.03525664214879017
    w143  w161  -0.04625171464055739
    w143  w162  -0.206075988001229
    w143  w163  0.15445951992525067
    w143  w164  -0.005076686186327667
    w143  w165  0.17124247146931254
    w143  w166  0.0809027715993125
    w143  w167  0.16717063910729046
    w143  w168  -0.032593679495276744
    w143  w169  -0.18410904391816083
    w143  w170  0.03785125125047217
    w143  w171  0.09490869545469319
    w143  w172  -0.13504831473068002
    w143  w173  0.019109347505368836
    w143  w174  0.14441418498836872
    w143  w175  0.007314347578366386
    w143  w176  -0.02001165411443868
    w143  w177  0.04969012128278118
    w143  w178  -0.045986692397743015
    w143  w179  0.11717986805009227
    w143  w180  0.04050525813345439
    w143  w181  0.0646319788494085
    w143  w182  -0.015218835614739818
    w143  w183  -0.016233678420579593
    w143  w184  0.05782044852543032
    w143  w185  0.09197950646974681
    w143  w186  0.06861325815034593
    w143  w187  -0.18335846269180675
    w143  w188  -0.0946039180466918
    w143  w189  0.10913883124342716
    w143  w190  -0.14822385301306826
    w143  w191  -0.03868265171026162
    w143  w192  -0.15288411384678435
    w143  w193  0.13313302546649547
    w143  w194  0.09941937228969308
    w143  w195  -0.07125966735785978
    w143  w196  0.024290222790008142
    w143  w197  -0.0003366853021366559
    w143  w198  0.1746965301084647
    w143  w199  -0.09733032053047021
    w144  w144  0.2981389069008723
    w144  w145  0.04302705329829431
    w144  w146  0.12702092009192245
    w144  w147  -0.08983250802277115
    w144  w148  -0.12722178794732228
    w144  w149  -0.19074249311666763
    w144  w150  -0.05618896171559089
    w144  w151  0.03686905802917423
    w144  w152  -0.05007426852622996
    w144  w153  0.01526915827023496
    w144  w154  0.04120105365930353
    w144  w155  0.0883006446360603
    w144  w156  0.0013803013857191682
    w144  w157  0.035674782142645856
    w144  w158  -0.09861438502713625
    w144  w159  -0.10942643658486305
    w144  w160  0.0047829848496936875
    w144  w161  0.02026393468840848
    w144  w162  -0.019222573807181786
    w144  w163  0.034928657094557496
    w144  w164  -0.1104475961382498
    w144  w165  0.06622878697331468
    w144  w166  0.041854071583570414
    w144  w167  0.11403520797604783
    w144  w168  0.019821393743527226
    w144  w169  -0.12277213590907485
    w144  w170  0.006607000371187789
    w144  w171  -0.12021036086905329
    w144  w172  0.018406271342088346
    w144  w173  0.06181388990465108
    w144  w174  -0.007844002062494847
    w144  w175  0.07741099186459009
    w144  w176  0.0016316006143363706
    w144  w177  0.0742129293288319
    w144  w178  -0.04608056159497315
    w144  w179  0.06004468256951537
    w144  w180  0.018804295030337197
    w144  w181  0.054225220699290116
    w144  w182  -0.09301652156668408
    w144  w183  -0.055335916886000064
    w144  w184  0.0880716301614683
    w144  w185  0.03885520797283829
    w144  w186  0.13069485377139378
    w144  w187  -0.05586106204789577
    w144  w188  -0.06345329056286436
    w144  w189  0.046112654085239
    w144  w190  -0.005542384832134213
    w144  w191  -0.12767471317796739
    w144  w192  0.028652051713601013
    w144  w193  0.020437443575378158
    w144  w194  0.11090910089718194
    w144  w195  -0.00714870498792471
    w144  w196  0.01565043457510707
    w144  w197  0.06076570420081877
    w144  w198  0.04413861063640043
    w144  w199  -0.08128290077250873
    w145  w145  0.12527827197112762
    w145  w146  0.020259665495649042
    w145  w147  -0.009294850804146833
    w145  w148  -0.034282328085422496
    w145  w149  -0.08890842840128509
    w145  w150  0.017456723820409532
    w145  w151  -0.012819129282613053
    w145  w152  -0.03886114676883356
    w145  w153  0.0039082594787813755
    w145  w154  -0.06976595596437052
    w145  w155  0.00844688958126591
    w145  w156  0.0073229388205881705
    w145  w157  -0.009527119815522352
    w145  w158  -0.06572098902034815
    w145  w159  -0.09181539083297824
    w145  w160  -0.006185021573364991
    w145  w161  0.015354796467148234
    w145  w162  -0.047795495181519466
    w145  w163  -0.0506370090324577
    w145  w164  -0.048692124037667296
    w145  w165  0.058724347626437606
    w145  w166  0.06367061931031456
    w145  w167  0.021442204277539994
    w145  w168  0.019380797101910284
    w145  w169  -0.07317653975082548
    w145  w170  -0.04561141062615183
    w145  w171  0.03178662772503346
    w145  w172  0.05548914977732549
    w145  w173  0.10682229222932366
    w145  w174  -0.004941318812012744
    w145  w175  0.007980606884132423
    w145  w176  0.00029017575315944144
    w145  w177  -0.005580561318304019
    w145  w178  -0.04321407831229813
    w145  w179  -0.049558645963585675
    w145  w180  0.01656891914603418
    w145  w181  0.033637778761750385
    w145  w182  0.04161142812579208
    w145  w183  -0.03412513515939991
    w145  w184  -0.04972464160814913
    w145  w185  -0.004397662162580721
    w145  w186  0.04382488287705563
    w145  w187  -0.0063631414013032095
    w145  w188  -0.028975120479856797
    w145  w189  0.13161325827013662
    w145  w190  -0.008124497860600297
    w145  w191  -0.015383556002929035
    w145  w192  -0.014347412487211959
    w145  w193  0.029365190700167243
    w145  w194  0.04327102045136245
    w145  w195  -0.03973452558819806
    w145  w196  -0.0015812835624473677
    w145  w197  0.05394522510499854
    w145  w198  -0.0250202115837452
    w145  w199  -0.04309110389759849
    w146  w146  0.23705382134320513
    w146  w147  -0.013713681797798916
    w146  w148  -0.007918681021060345
    w146  w149  -0.08132151435644915
    w146  w150  0.00986239606736095
    w146  w151  0.009406089632024366
    w146  w152  0.021167069041666202
    w146  w153  0.045410945841485514
    w146  w154  0.04767377791350396
    w146  w155  0.1245521541367833
    w146  w156  -0.02407345195591726
    w146  w157  0.046799031498924726
    w146  w158  -0.05558625986560214
    w146  w159  -0.09371006216048021
    w146  w160  0.05671040639259473
    w146  w161  -0.039831764655781136
    w146  w162  0.011091532796619839
    w146  w163  0.018634966720976122
    w146  w164  -0.12361932766729193
    w146  w165  0.017090005655637883
    w146  w166  -0.039972652363643245
    w146  w167  -0.002343369842042961
    w146  w168  0.03480964245393471
    w146  w169  -0.10353554172494078
    w146  w170  -0.03747874724206253
    w146  w171  -0.002286766737686758
    w146  w172  0.01267483465368273
    w146  w173  0.01770030224086047
    w146  w174  0.012764587781724368
    w146  w175  0.04154376147930461
    w146  w176  -0.03926646494538859
    w146  w177  0.014311482271942656
    w146  w178  -0.015651652249026468
    w146  w179  -0.01254074004111507
    w146  w180  0.0027422787562273805
    w146  w181  0.10101506203453756
    w146  w182  -0.04541252623473367
    w146  w183  -0.040839352430323
    w146  w184  0.026879735244648564
    w146  w185  0.0317765571150709
    w146  w186  0.03301902700615657
    w146  w187  0.0012873090398232648
    w146  w188  -0.05191115467073724
    w146  w189  0.019990964082511817
    w146  w190  -0.0792899797678087
    w146  w191  -0.13235136440028455
    w146  w192  0.028869136249490366
    w146  w193  -0.06072950116837266
    w146  w194  0.07617717546606248
    w146  w195  -0.004335390634674473
    w146  w196  0.030254996872438447
    w146  w197  0.01478561178662771
    w146  w198  -0.021736047224019183
    w146  w199  0.009360503409349243
    w147  w147  0.1833901788412261
    w147  w148  -0.002538412106712657
    w147  w149  0.0237612084249498
    w147  w150  0.007803657929256945
    w147  w151  -0.022827574597312383
    w147  w152  0.07782692501276318
    w147  w153  -0.10050238159778313
    w147  w154  -0.029340689947769418
    w147  w155  0.08524960293372655
    w147  w156  0.03910933312388964
    w147  w157  -0.017212080217663277
    w147  w158  0.0630430407804178
    w147  w159  -0.05281133054772304
    w147  w160  -0.042478142348216945
    w147  w161  -0.018812742833397712
    w147  w162  0.008858204491643377
    w147  w163  -0.013709354135520768
    w147  w164  0.03462100684910048
    w147  w165  0.02186107211145471
    w147  w166  -0.045987309109616535
    w147  w167  -0.024929351461306485
    w147  w168  -0.009441664261176576
    w147  w169  0.003412615037127704
    w147  w170  -0.08419326817788651
    w147  w171  0.07087616388646292
    w147  w172  -0.003075533293084811
    w147  w173  -0.02003278737794376
    w147  w174  0.059171050755180005
    w147  w175  -0.03737135897816477
    w147  w176  -0.03539113422471187
    w147  w177  -0.05875221316835754
    w147  w178  -0.04554005699716969
    w147  w179  -0.02854937832338077
    w147  w180  0.07853207475313218
    w147  w181  0.002464093578930487
    w147  w182  -0.006205087155815486
    w147  w183  -0.028720849892795594
    w147  w184  -0.023534003024768563
    w147  w185  0.03495526311149758
    w147  w186  -0.10133757566975306
    w147  w187  0.030748841099724415
    w147  w188  0.00303469295244081
    w147  w189  0.02917347645772401
    w147  w190  -0.012428847888418809
    w147  w191  0.02582432970278239
    w147  w192  -0.033939787164121174
    w147  w193  -0.06861322238273614
    w147  w194  -0.050966592789383355
    w147  w195  -0.00952094502577568
    w147  w196  -0.09306283097106428
    w147  w197  -0.034552459865116146
    w147  w198  -0.002024587566595411
    w147  w199  0.013110794543544156
    w148  w148  0.3301576440273217
    w148  w149  0.15505793627849587
    w148  w150  0.022449241110019752
    w148  w151  -0.030910236865226655
    w148  w152  0.008170791069516545
    w148  w153  0.2547709205369807
    w148  w154  0.012550917273033927
    w148  w155  -0.06244102657505159
    w148  w156  -0.05901331728504508
    w148  w157  -0.021216345214488837
    w148  w158  0.002475275146127801
    w148  w159  0.08488487677487179
    w148  w160  0.12376691991555991
    w148  w161  -0.03402162087649518
    w148  w162  0.031115961811905242
    w148  w163  0.05796125019531042
    w148  w164  -0.03924569649573449
    w148  w165  -0.07954349813588309
    w148  w166  -0.03772670772283342
    w148  w167  -0.13561810175259933
    w148  w168  0.008519896749199693
    w148  w169  -0.02611150265116947
    w148  w170  0.01613802732845102
    w148  w171  0.13924735216145634
    w148  w172  -0.006643112749870329
    w148  w173  -0.033203582778354675
    w148  w174  0.004979630668800978
    w148  w175  -0.026952513011314592
    w148  w176  0.04650083251237494
    w148  w177  -0.0388410370741405
    w148  w178  0.05289998717635138
    w148  w179  0.011165270870939718
    w148  w180  -0.12262069003763959
    w148  w181  0.12698348138635804
    w148  w182  0.07973419416064746
    w148  w183  0.08515554064233961
    w148  w184  0.007816486622221978
    w148  w185  -0.057128440352765
    w148  w186  0.027729795892166845
    w148  w187  0.028428751452162098
    w148  w188  0.0008664341185813274
    w148  w189  -0.06253205306378984
    w148  w190  -0.09872478574143423
    w148  w191  -0.04406098515233601
    w148  w192  -0.030353462981573168
    w148  w193  0.009775582872999974
    w148  w194  0.011354044696786456
    w148  w195  -0.024357524657671752
    w148  w196  0.10529421943571564
    w148  w197  -0.04703287831078146
    w148  w198  -0.08291957594028955
    w148  w199  0.14439465502361615
    w149  w149  0.39058421716477976
    w149  w150  0.04011322697038516
    w149  w151  0.0689238869060412
    w149  w152  0.0030921958495945387
    w149  w153  0.08578502379548159
    w149  w154  -0.006680000519269582
    w149  w155  -0.10616663937195624
    w149  w156  -0.0831004528702377
    w149  w157  -0.04238028659406954
    w149  w158  0.09879889182090915
    w149  w159  0.18055316084079506
    w149  w160  0.008501863806210035
    w149  w161  -0.0004787310943447405
    w149  w162  0.031854488708205564
    w149  w163  -0.02278042981941391
    w149  w164  0.06334685471262914
    w149  w165  -0.07435306722393353
    w149  w166  -0.08937468188862739
    w149  w167  -0.12114629599983706
    w149  w168  0.06771846288967495
    w149  w169  0.06053079597130433
    w149  w170  0.1475301200485231
    w149  w171  0.06372083398815964
    w149  w172  -0.12476849479544105
    w149  w173  -0.13618777530107848
    w149  w174  -0.04150274558803038
    w149  w175  -0.06351572178859166
    w149  w176  0.029995570868540718
    w149  w177  0.05060685216678375
    w149  w178  0.15623622977679852
    w149  w179  -0.01201601201194815
    w149  w180  -0.061331099616961066
    w149  w181  -0.08349237646165354
    w149  w182  0.11405955171091585
    w149  w183  0.07624445876997903
    w149  w184  -0.0586945522384685
    w149  w185  -0.05718106711203074
    w149  w186  -0.17780822233751692
    w149  w187  0.05319920420289408
    w149  w188  0.06832948637408101
    w149  w189  -0.10563243935461049
    w149  w190  0.015235457630834781
    w149  w191  0.13002914687991782
    w149  w192  -0.06887791486534348
    w149  w193  -0.03675001260132076
    w149  w194  -0.1067278880717155
    w149  w195  0.021909902863687363
    w149  w196  0.11431669266673626
    w149  w197  -0.05027137009255267
    w149  w198  -0.014257501347369897
    w149  w199  0.10300839332307164
    w150  w150  0.1892047840030409
    w150  w151  -0.03553613967203586
    w150  w152  0.016518678422745507
    w150  w153  -0.05783769992281179
    w150  w154  0.0769417284877657
    w150  w155  -0.043488547679120505
    w150  w156  -0.054888252384849644
    w150  w157  0.02879094005675987
    w150  w158  -0.01522527223617415
    w150  w159  0.011362343306224695
    w150  w160  0.011450013438437132
    w150  w161  -0.015202452408191049
    w150  w162  0.06239822359762091
    w150  w163  -0.10844976222921403
    w150  w164  -0.045644179353281994
    w150  w165  -0.03836278463101436
    w150  w166  -0.08177505375848268
    w150  w167  -0.09252829768883278
    w150  w168  0.06680889877976956
    w150  w169  0.07611542626766316
    w150  w170  -0.0052638739307764295
    w150  w171  -0.046419471936466616
    w150  w172  0.0653019038338019
    w150  w173  0.011819126854279756
    w150  w174  -0.056015852917814656
    w150  w175  0.03419909405728857
    w150  w176  -0.03287743329983385
    w150  w177  -0.018318848409748754
    w150  w178  0.04233295538701252
    w150  w179  -0.11415493753045171
    w150  w180  -0.019402608234970427
    w150  w181  -0.04281262711232717
    w150  w182  0.0635834211587802
    w150  w183  -0.0264388355800714
    w150  w184  -0.10599917070957611
    w150  w185  -0.03685020991673333
    w150  w186  -0.09019270644443521
    w150  w187  0.07836180283967883
    w150  w188  0.03584717820705676
    w150  w189  0.026289527137127185
    w150  w190  0.05533382147946028
    w150  w191  0.049443999248841
    w150  w192  0.07006567321070516
    w150  w193  -0.06166843470636999
    w150  w194  -0.04408210770897142
    w150  w195  0.04249519751682336
    w150  w196  0.06075033392709729
    w150  w197  0.03815946941132865
    w150  w198  -0.0991413232131929
    w150  w199  0.07436173997909672
    w151  w151  0.21319094396377256
    w151  w152  -0.04302381179361694
    w151  w153  0.008251131045645555
    w151  w154  -0.031546747929158646
    w151  w155  -0.00886636042852481
    w151  w156  -0.014083595834406269
    w151  w157  0.0124140084954181
    w151  w158  0.017038465582528212
    w151  w159  0.011120168868834764
    w151  w160  -0.04717004927534
    w151  w161  0.06184027464053775
    w151  w162  0.005046766004127586
    w151  w163  -0.05132103676253836
    w151  w164  -0.008292185710569994
    w151  w165  -0.007802113706774526
    w151  w166  0.036100223833511705
    w151  w167  0.013108118534907837
    w151  w168  0.07137576878812685
    w151  w169  -0.08752299464369241
    w151  w170  0.07524277532337012
    w151  w171  0.012295396776423013
    w151  w172  -0.10479405870100965
    w151  w173  -0.02091762307298678
    w151  w174  -0.0711173645703563
    w151  w175  -0.0476932791663751
    w151  w176  0.022322850109774302
    w151  w177  0.10889408796370013
    w151  w178  0.07648101194794771
    w151  w179  -0.022149456999388178
    w151  w180  0.009764847262348015
    w151  w181  -0.0387082852530283
    w151  w182  0.0013061991300644432
    w151  w183  0.0028872844906234776
    w151  w184  -0.009314932162011917
    w151  w185  -0.016527926833725733
    w151  w186  -0.03771146169830534
    w151  w187  0.019243621545103312
    w151  w188  0.019197654068690097
    w151  w189  -0.02573780712481599
    w151  w190  -0.00824537234665923
    w151  w191  -2.751923184036137e-05
    w151  w192  -0.05488615732319829
    w151  w193  -0.046117082333979216
    w151  w194  -0.0002996178198131754
    w151  w195  -0.003482506497193347
    w151  w196  0.011161726106345938
    w151  w197  0.006019085804277949
    w151  w198  0.02754076116223936
    w151  w199  -0.0863194052245034
    w152  w152  0.19535736542684184
    w152  w153  -0.08050209186920489
    w152  w154  0.07135773813531714
    w152  w155  0.08943242624493979
    w152  w156  0.026207122249261083
    w152  w157  0.014365469284290814
    w152  w158  0.053437974632896276
    w152  w159  -0.02979925676408841
    w152  w160  0.005034842643979165
    w152  w161  -0.03909648839763968
    w152  w162  0.059204340409971024
    w152  w163  0.02417871766957244
    w152  w164  0.006788732478869213
    w152  w165  -0.021630119366097413
    w152  w166  -0.0915649076939727
    w152  w167  -0.03485151038904203
    w152  w168  -0.013711781974125151
    w152  w169  0.04175928445525257
    w152  w170  -0.09048619617588165
    w152  w171  0.013372786890666503
    w152  w172  0.0022586003465018497
    w152  w173  -0.057035532141303
    w152  w174  0.05426854046072238
    w152  w175  0.003952762480632542
    w152  w176  -0.04575057199876338
    w152  w177  -0.06679766813004276
    w152  w178  -0.03833491568762654
    w152  w179  -0.015315176954320294
    w152  w180  0.044238945665446776
    w152  w181  0.024620362978006734
    w152  w182  -0.06581181612627826
    w152  w183  -0.023033549601723977
    w152  w184  0.019387298216477274
    w152  w185  0.03827952908730269
    w152  w186  -0.058009949520559
    w152  w187  0.029540589451579446
    w152  w188  0.009463645598915996
    w152  w189  -0.05021281111331286
    w152  w190  -0.0272529866067821
    w152  w191  -0.022281348658151963
    w152  w192  0.021111663801355877
    w152  w193  -0.08232189195919504
    w152  w194  -0.03819974022503535
    w152  w195  0.03150868726049164
    w152  w196  -0.07856022827169672
    w152  w197  -0.04449031736180032
    w152  w198  -0.01835797519006978
    w152  w199  0.04696529132743282
    w153  w153  0.5327298305254737
    w153  w154  -0.03941686680405555
    w153  w155  -0.07864290608555047
    w153  w156  -0.08547360241182532
    w153  w157  -0.046962506092718743
    w153  w158  -0.09971512996610399
    w153  w159  0.05399061900510938
    w153  w160  0.2168723330729169
    w153  w161  -0.04306441447509165
    w153  w162  -0.05857539472555114
    w153  w163  0.114625685968395
    w153  w164  -0.1282418502463801
    w153  w165  -0.017936057480718096
    w153  w166  0.04343566570433073
    w153  w167  -0.08113108714634779
    w153  w168  0.04515816476230162
    w153  w169  -0.14896581803759026
    w153  w170  0.05915565110635107
    w153  w171  0.1688383486036956
    w153  w172  -0.040355902188467054
    w153  w173  0.006330199449193861
    w153  w174  -0.007540028370693022
    w153  w175  0.0013960755440439352
    w153  w176  0.09389756651116136
    w153  w177  0.0153840156276825
    w153  w178  0.05444099708552599
    w153  w179  0.036567983759418596
    w153  w180  -0.18270179942430914
    w153  w181  0.19375487509932438
    w153  w182  0.07989234546050863
    w153  w183  0.11620166812346472
    w153  w184  0.05504667725353866
    w153  w185  -0.06423662475474422
    w153  w186  0.20856691883463996
    w153  w187  -0.04461251519174405
    w153  w188  -0.05580050585626871
    w153  w189  -0.021640009394894816
    w153  w190  -0.16989537729627097
    w153  w191  -0.11863530783651474
    w153  w192  -0.08325458884697387
    w153  w193  0.1221883184363098
    w153  w194  0.11000245582116211
    w153  w195  -0.07774364783104411
    w153  w196  0.18838661527774167
    w153  w197  0.008679978533945603
    w153  w198  -0.07150404269816252
    w153  w199  0.10541662601704724
    w154  w154  0.3337444023909664
    w154  w155  -0.021712158036365132
    w154  w156  -0.02533486645769996
    w154  w157  0.05554518870844693
    w154  w158  0.005515145334414202
    w154  w159  0.013752191753020723
    w154  w160  0.020539204811448695
    w154  w161  0.055921111551688815
    w154  w162  0.2323949901611223
    w154  w163  -0.008359013210734194
    w154  w164  -0.07798543793512115
    w154  w165  -0.11521237843933359
    w154  w166  -0.14522426236844785
    w154  w167  -0.06442597323697498
    w154  w168  0.07795299651001208
    w154  w169  0.06618655781950879
    w154  w170  -0.05734560438671204
    w154  w171  -0.1849552967205488
    w154  w172  0.026942037567395764
    w154  w173  -0.06111275445076088
    w154  w174  -0.05683904859534843
    w154  w175  0.09749456610109587
    w154  w176  0.01557525369427761
    w154  w177  0.001029309568741323
    w154  w178  0.008529780160677725
    w154  w179  -0.013454042807152336
    w154  w180  -0.036962655522516284
    w154  w181  0.02811841835935193
    w154  w182  -0.138502934090375
    w154  w183  -0.030126590343880714
    w154  w184  0.0781498899793177
    w154  w185  -0.023284997164150976
    w154  w186  0.023308398934813596
    w154  w187  0.08208756939273607
    w154  w188  0.0698695403488173
    w154  w189  -0.152803698529891
    w154  w190  0.05553141103955936
    w154  w191  -0.06489387331753729
    w154  w192  0.10269895427711694
    w154  w193  -0.1142823491791813
    w154  w194  -0.035364317122998826
    w154  w195  0.12453699192823077
    w154  w196  -0.021221359779714396
    w154  w197  0.0029834376477752503
    w154  w198  -0.10001390153956735
    w154  w199  0.08373537781476754
    w155  w155  0.30691566152839145
    w155  w156  0.05485336438285733
    w155  w157  0.01805843852725865
    w155  w158  0.015834757322909968
    w155  w159  -0.16664982892212862
    w155  w160  -0.011887603925616224
    w155  w161  -0.08423540961907158
    w155  w162  -0.04042682763146887
    w155  w163  0.04378829102929072
    w155  w164  -0.06975789306267187
    w155  w165  0.09923935547168394
    w155  w166  -0.05977921561260767
    w155  w167  0.026047986802012906
    w155  w168  -0.015222630263809472
    w155  w169  -0.10587244142144066
    w155  w170  -0.10583515993241904
    w155  w171  0.054129190317908464
    w155  w172  0.0278134481658763
    w155  w173  -0.023134069661522
    w155  w174  0.09765567349097988
    w155  w175  -0.010284995402709118
    w155  w176  -0.05548693267241081
    w155  w177  -0.04581373586648149
    w155  w178  -0.10969934037393814
    w155  w179  0.030505056298685426
    w155  w180  0.1330017966536921
    w155  w181  0.07613687626087616
    w155  w182  -0.07515792707546545
    w155  w183  -0.05813534536317909
    w155  w184  0.07135842554590235
    w155  w185  0.09936295498099729
    w155  w186  -0.033227075022419485
    w155  w187  0.010574364007276236
    w155  w188  -0.09709933721827735
    w155  w189  0.06550077920356273
    w155  w190  -0.042022592997050634
    w155  w191  -0.11134628859609493
    w155  w192  -0.022962665908709233
    w155  w193  -0.09501473945323327
    w155  w194  0.03240322263335801
    w155  w195  -0.06852628290223019
    w155  w196  -0.09758661440531455
    w155  w197  -0.014738670139583708
    w155  w198  0.024442078008840937
    w155  w199  0.004246867476082389
    w156  w156  0.1808693428469606
    w156  w157  0.017987337207466415
    w156  w158  0.027291110569872854
    w156  w159  -0.06168512988712612
    w156  w160  -0.051630673956831775
    w156  w161  0.00986734324808651
    w156  w162  -0.007066142067769649
    w156  w163  0.0036625622152092582
    w156  w164  0.0393293615373917
    w156  w165  0.016283556370930548
    w156  w166  0.05925778360444748
    w156  w167  0.03687193414657759
    w156  w168  -0.06096293088665398
    w156  w169  -0.002649134210162887
    w156  w170  -0.0876514802709259
    w156  w171  0.03097196104812489
    w156  w172  0.04093295582544859
    w156  w173  0.015156537708270296
    w156  w174  0.013962574568726694
    w156  w175  -0.04670907348974359
    w156  w176  0.009660486508638053
    w156  w177  -0.045305360744343944
    w156  w178  -0.0847593014958122
    w156  w179  0.01390593493658534
    w156  w180  0.07087681837003354
    w156  w181  0.006075058637855293
    w156  w182  -0.06732145430148773
    w156  w183  -0.0024462667322428158
    w156  w184  0.05380613525937764
    w156  w185  0.0271358765581316
    w156  w186  0.05513570053365688
    w156  w187  0.013986193964452907
    w156  w188  -0.020854677317005136
    w156  w189  0.0015156373815338234
    w156  w190  0.01906567352992727
    w156  w191  -0.03618473038760339
    w156  w192  0.0013822381903007264
    w156  w193  -0.015289184467082788
    w156  w194  0.00032966656732526364
    w156  w195  -0.04086212722891687
    w156  w196  -0.14240886045876927
    w156  w197  -0.017201108867489257
    w156  w198  0.012675805693786355
    w156  w199  -0.06529869816552739
    w157  w157  0.1890121643782024
    w157  w158  0.002926576765852981
    w157  w159  0.030535220552383682
    w157  w160  0.017072826280540146
    w157  w161  -0.02821885353791152
    w157  w162  0.039254348321182436
    w157  w163  -0.022035066675959017
    w157  w164  0.0004500461804442454
    w157  w165  -0.10502780027450484
    w157  w166  0.02718212293258823
    w157  w167  -0.01682726806072186
    w157  w168  -0.06318853791992277
    w157  w169  0.054771858354360076
    w157  w170  -0.005671014773831462
    w157  w171  -0.014200762854698658
    w157  w172  0.02884259907950698
    w157  w173  -0.008915055003309587
    w157  w174  -0.0643918949724948
    w157  w175  -0.024891448334240306
    w157  w176  -0.05459959168168999
    w157  w177  -0.0002911399972562887
    w157  w178  0.03856591264568948
    w157  w179  -0.040863725495114675
    w157  w180  -0.02991800475708722
    w157  w181  0.009843952774355156
    w157  w182  -0.05589048468039921
    w157  w183  0.01014091126201545
    w157  w184  -0.0031822615130035273
    w157  w185  -0.004138544391637279
    w157  w186  0.026772649552442265
    w157  w187  0.03084305855852885
    w157  w188  0.004819147464837934
    w157  w189  -0.11045104472909534
    w157  w190  -0.044679364997469655
    w157  w191  -0.09646061804161775
    w157  w192  0.12777757751708055
    w157  w193  -0.07316118777325763
    w157  w194  0.04137954253042772
    w157  w195  0.03169988792797912
    w157  w196  -0.021860039968071673
    w157  w197  -0.03961782340513561
    w157  w198  -0.010694400296846873
    w157  w199  -0.04937793584415164
    w158  w158  0.16662155832919454
    w158  w159  0.06850799975574962
    w158  w160  -0.0740117903335159
    w158  w161  0.008085970387332664
    w158  w162  0.037237326630271836
    w158  w163  0.014186134004955562
    w158  w164  0.10414934367100101
    w158  w165  -0.042640471564982144
    w158  w166  -0.041142247685864705
    w158  w167  -0.011041637539444706
    w158  w168  -0.047663547351367325
    w158  w169  0.07228536194152718
    w158  w170  0.025184203867572984
    w158  w171  -0.0028313409065378794
    w158  w172  -0.04447105779491256
    w158  w173  -0.08303456847746869
    w158  w174  0.02137046177921452
    w158  w175  -0.05149189443074375
    w158  w176  -0.012015881673799118
    w158  w177  -0.005770833292785194
    w158  w178  0.021220401708887813
    w158  w179  0.048895655428105554
    w158  w180  0.042423912997786285
    w158  w181  -0.061888121724187915
    w158  w182  -0.01712104538725972
    w158  w183  0.011883322499984264
    w158  w184  0.01945156458412812
    w158  w185  0.015462137271756975
    w158  w186  -0.12581405132335613
    w158  w187  0.02301523807729426
    w158  w188  0.03472697843204958
    w158  w189  -0.0850995591019692
    w158  w190  0.037818065501872423
    w158  w191  0.05600918066858358
    w158  w192  -0.004984130382889159
    w158  w193  -0.06044634035514021
    w158  w194  -0.07288358529668451
    w158  w195  0.023216742109140334
    w158  w196  -0.05998911775476529
    w158  w197  -0.07193568224106102
    w158  w198  0.05097023013239664
    w158  w199  0.009082014479848135
    w159  w159  0.35183300043189225
    w159  w160  0.0429266565009182
    w159  w161  -0.04888509022609996
    w159  w162  -0.01351738885685687
    w159  w163  0.06438479772374277
    w159  w164  0.14692643011962894
    w159  w165  -0.13701265718414468
    w159  w166  -0.013132323110869681
    w159  w167  -0.026656512362495836
    w159  w168  -0.10125873782671771
    w159  w169  0.2153268388071791
    w159  w170  0.19856676935098913
    w159  w171  -0.04657236146686917
    w159  w172  -0.07226289655872677
    w159  w173  -0.12568987960849035
    w159  w174  -0.036250792441925764
    w159  w175  -0.021500274742563125
    w159  w176  -0.01803038891953841
    w159  w177  0.028233970483088264
    w159  w178  0.1588078531873327
    w159  w179  0.0673617089519747
    w159  w180  -0.1293391077676181
    w159  w181  -0.11839502818377128
    w159  w182  0.05486472554537082
    w159  w183  0.10436251728567457
    w159  w184  -0.020974753697789957
    w159  w185  -0.042895292822013965
    w159  w186  -0.06311787570003315
    w159  w187  -0.044748064673524025
    w159  w188  0.06300550476770905
    w159  w189  -0.20623854424934498
    w159  w190  0.00835576954795513
    w159  w191  0.09853057905230483
    w159  w192  0.08016612376781937
    w159  w193  0.06614363297679275
    w159  w194  -0.04410587803916255
    w159  w195  0.07222924546596371
    w159  w196  0.1338081690473813
    w159  w197  -0.08352396976174215
    w159  w198  0.07277637142325095
    w159  w199  0.053456705354338406
    w160  w160  0.2854198387642351
    w160  w161  -0.17150326075989944
    w160  w162  -0.083725974616269
    w160  w163  0.06392763883190411
    w160  w164  -0.09589389766491874
    w160  w165  -0.014949259414648865
    w160  w166  -0.03560014225472527
    w160  w167  -0.08320920817517032
    w160  w168  0.022977085345123802
    w160  w169  0.04690503660010038
    w160  w170  -0.013882570294425111
    w160  w171  0.12443678468449526
    w160  w172  -0.010888775385472865
    w160  w173  -0.07358855647584651
    w160  w174  -0.0034563826188267863
    w160  w175  0.02220390621301746
    w160  w176  -0.02893348483215095
    w160  w177  -0.07005326843446334
    w160  w178  0.03764768726474767
    w160  w179  -0.10308052552568324
    w160  w180  -0.11485663235552886
    w160  w181  0.05902468702316207
    w160  w182  0.010090227114966833
    w160  w183  0.08815321172165855
    w160  w184  -0.019050743123310718
    w160  w185  -0.009466339066884346
    w160  w186  0.16340468694623833
    w160  w187  -0.02507394317355289
    w160  w188  -0.04470766435660394
    w160  w189  -0.0700550891730417
    w160  w190  -0.14770009251818636
    w160  w191  -0.06911673373328872
    w160  w192  0.029125360249400385
    w160  w193  0.0772065379977893
    w160  w194  0.05063352162992973
    w160  w195  -0.028018719385895525
    w160  w196  0.11048980890275109
    w160  w197  0.017632132504402986
    w160  w198  -0.09087402391345682
    w160  w199  0.09283241902818241
    w161  w161  0.3469401868082134
    w161  w162  0.1753783630231634
    w161  w163  -0.05520003286171359
    w161  w164  0.014445681477661973
    w161  w165  -0.05008713150319809
    w161  w166  0.06195304934221745
    w161  w167  0.053309722898222105
    w161  w168  0.055765886363450326
    w161  w169  -0.1459731276036132
    w161  w170  -0.02086855870079592
    w161  w171  -0.10907390682382734
    w161  w172  -0.03318113015345941
    w161  w173  0.13401412464276666
    w161  w174  -0.03989056806670126
    w161  w175  0.019408056219513976
    w161  w176  0.08050172792344859
    w161  w177  0.1050421525536383
    w161  w178  -0.005364093568265485
    w161  w179  0.06579989637633434
    w161  w180  0.006010655182353794
    w161  w181  0.06345542778806669
    w161  w182  -0.03467291538976443
    w161  w183  -0.08211907784360543
    w161  w184  0.02568532297387847
    w161  w185  -0.04814282104984561
    w161  w186  -0.04244308663648502
    w161  w187  0.01813723580986787
    w161  w188  0.09053181666188065
    w161  w189  0.03994102108456535
    w161  w190  0.04756485684527247
    w161  w191  -0.004103797801240018
    w161  w192  -0.05444533298459604
    w161  w193  -0.06036078491587184
    w161  w194  0.0011520225045463669
    w161  w195  0.07839034953193652
    w161  w196  -0.06738673407022104
    w161  w197  -0.00024954704190549164
    w161  w198  0.022747525189146686
    w161  w199  -0.09876462364810765
    w162  w162  0.3184491068535341
    w162  w163  -0.041917692421435074
    w162  w164  -0.03164393970717568
    w162  w165  -0.14091659273355334
    w162  w166  -0.07863227017778396
    w162  w167  -0.05190907311703426
    w162  w168  0.06511971408245286
    w162  w169  -0.033728719133971685
    w162  w170  -0.07630783234925109
    w162  w171  -0.1350879654801108
    w162  w172  0.0008329689720262144
    w162  w173  0.027948509201216835
    w162  w174  -0.05072216107846283
    w162  w175  0.04896528382983864
    w162  w176  0.034971844991148957
    w162  w177  0.03531256960481396
    w162  w178  0.010026437164894177
    w162  w179  0.011444541382533625
    w162  w180  -0.02172769074988206
    w162  w181  0.08329362755179465
    w162  w182  -0.10310308599466607
    w162  w183  -0.06528528983156881
    w162  w184  0.04798978714042297
    w162  w185  -0.0433235409524573
    w162  w186  -0.0554965137584357
    w162  w187  0.08917678153056373
    w162  w188  0.10601524591387551
    w162  w189  -0.09928307124764654
    w162  w190  0.028520190210568782
    w162  w191  -0.06098441258769244
    w162  w192  0.04774720433836273
    w162  w193  -0.15805024404076726
    w162  w194  -0.031811349970377746
    w162  w195  0.13225116336011433
    w162  w196  -0.06984534036644763
    w162  w197  -0.03387496318572924
    w162  w198  -0.06745613147710663
    w162  w199  0.0176020015331338
    w163  w163  0.2848873479955091
    w163  w164  0.05405242165143415
    w163  w165  -0.010279485162634024
    w163  w166  -0.004782621028622324
    w163  w167  0.06808740898668297
    w163  w168  -0.13852024975682847
    w163  w169  0.014180088451871627
    w163  w170  0.030106085396153007
    w163  w171  -0.0010751971912253441
    w163  w172  -0.03265019546003324
    w163  w173  -0.045393237383296786
    w163  w174  0.12726831555248103
    w163  w175  0.03254341423157389
    w163  w176  -0.011558630170136017
    w163  w177  -0.03301880980355981
    w163  w178  -0.0290395061890904
    w163  w179  0.18802787535361434
    w163  w180  -0.05131719415607263
    w163  w181  0.09224922670100617
    w163  w182  -0.05613829723349081
    w163  w183  0.03567215097550744
    w163  w184  0.12280191371373078
    w163  w185  0.04899283440921728
    w163  w186  0.06426714493312978
    w163  w187  -0.12354678642407119
    w163  w188  -0.03784666825301593
    w163  w189  -0.08583560380838912
    w163  w190  -0.09415909784944908
    w163  w191  -0.06447768025109284
    w163  w192  0.0036153635445416795
    w163  w193  0.08628336789769295
    w163  w194  0.05765874602091369
    w163  w195  0.012046597373798134
    w163  w196  0.029111417025173027
    w163  w197  -0.08513533928492288
    w163  w198  0.11452394483350051
    w163  w199  0.047548952250513574
    w164  w164  0.31218366396009783
    w164  w165  -0.058381803604744494
    w164  w166  0.05064472148636221
    w164  w167  0.06939250209183441
    w164  w168  -0.16239683671158361
    w164  w169  0.15700908079024112
    w164  w170  0.07972780865377088
    w164  w171  -0.030038199295693555
    w164  w172  -0.04351899102596254
    w164  w173  -0.039203342487837835
    w164  w174  0.04479796264169238
    w164  w175  -0.050424704244605566
    w164  w176  -0.0356842361351135
    w164  w177  -0.009212295371947185
    w164  w178  0.03425065617874495
    w164  w179  0.10149029771396242
    w164  w180  0.0049024630763368484
    w164  w181  -0.10953113803060242
    w164  w182  0.008822982632152651
    w164  w183  0.025705404731375916
    w164  w184  -0.010594126730779413
    w164  w185  0.014592021425967602
    w164  w186  -0.1069934146415377
    w164  w187  -0.0672148172622056
    w164  w188  0.05191149262129844
    w164  w189  -0.08909170891324612
    w164  w190  0.031841503091127904
    w164  w191  0.11237393955485941
    w164  w192  0.0316552951952064
    w164  w193  0.04468224448907915
    w164  w194  -0.053209903909883643
    w164  w195  0.04904667060441141
    w164  w196  -0.04423443304892654
    w164  w197  -0.09747891202987191
    w164  w198  0.14357089620224314
    w164  w199  -0.05268084488087744
    w165  w165  0.29821546893541706
    w165  w166  -0.007712026444167234
    w165  w167  0.05339305437899756
    w165  w168  0.07085106132907278
    w165  w169  -0.08907906550578837
    w165  w170  -0.022568485509094065
    w165  w171  0.028438665177090032
    w165  w172  0.028976745796925916
    w165  w173  0.020441579861900313
    w165  w174  0.0672181915372583
    w165  w175  0.017324225959013718
    w165  w176  0.028723006082884896
    w165  w177  -0.013310873375226054
    w165  w178  -0.10102439972303051
    w165  w179  0.004723559312810002
    w165  w180  0.11536297644262813
    w165  w181  -0.041395360613959174
    w165  w182  0.04874063697765011
    w165  w183  -0.031612583266117114
    w165  w184  0.006578984276466104
    w165  w185  0.05070758635851978
    w165  w186  0.01142006532137969
    w165  w187  -0.02334555153138694
    w165  w188  -0.08751397982423036
    w165  w189  0.20523340715661803
    w165  w190  0.0786325381690237
    w165  w191  0.0641061418720229
    w165  w192  -0.12261181643236622
    w165  w193  0.07482676538220581
    w165  w194  -0.011698413561190758
    w165  w195  -0.11421025328772752
    w165  w196  -0.00827067725036304
    w165  w197  0.0962204801284359
    w165  w198  0.008586724784489371
    w165  w199  0.012954081356645006
    w166  w166  0.2896442078811242
    w166  w167  0.08196209013814926
    w166  w168  -0.08999421471190773
    w166  w169  -0.07056174776932325
    w166  w170  0.003296070673594331
    w166  w171  0.07271331440584919
    w166  w172  0.012689190083354467
    w166  w173  0.11980210008161454
    w166  w174  -0.037047476798188546
    w166  w175  -0.06590646494201174
    w166  w176  0.02810409138096904
    w166  w177  0.027971061977499097
    w166  w178  -0.015873027893026696
    w166  w179  0.018486170074501696
    w166  w180  -0.02452473496041009
    w166  w181  0.036380853867892686
    w166  w182  0.013114263163765296
    w166  w183  0.023664159117659952
    w166  w184  -0.002666915212030065
    w166  w185  -0.021829327338230082
    w166  w186  0.12870190318239152
    w166  w187  -0.05297378724881387
    w166  w188  -0.01793341500607118
    w166  w189  0.039953950603294354
    w166  w190  -0.0521283674813382
    w166  w191  -0.050991834131458386
    w166  w192  -0.005422946461584866
    w166  w193  0.0792702883945676
    w166  w194  0.08538870670855694
    w166  w195  -0.05189272984814811
    w166  w196  -0.04555398289205933
    w166  w197  -0.005470039630966139
    w166  w198  0.055427524311961525
    w166  w199  -0.15734325238311236
    w167  w167  0.23090341208571152
    w167  w168  -0.08576046568439694
    w167  w169  -0.030243517543272952
    w167  w170  0.026712938767141765
    w167  w171  -0.09098626281638786
    w167  w172  -0.02535739928136533
    w167  w173  0.06060920160200873
    w167  w174  0.06270356188585208
    w167  w175  0.03172644061753351
    w167  w176  -0.016473194378059736
    w167  w177  0.04308832009772312
    w167  w178  -0.04499910340168141
    w167  w179  0.12029887539691235
    w167  w180  0.039563814927693335
    w167  w181  -0.014174815715260757
    w167  w182  -0.05413071390955323
    w167  w183  -0.04905407245892323
    w167  w184  0.04781471897108126
    w167  w185  0.04879852973348086
    w167  w186  0.02039686843400898
    w167  w187  -0.11276699288323451
    w167  w188  -0.011872661086852882
    w167  w189  0.0405208646555494
    w167  w190  0.006072144693676114
    w167  w191  0.002008248677627915
    w167  w192  -0.0068743945504944936
    w167  w193  0.06975098732330179
    w167  w194  0.04724380976832714
    w167  w195  0.02211763398307189
    w167  w196  -0.04107279468207508
    w167  w197  -0.010246861578468104
    w167  w198  0.14637807226161417
    w167  w199  -0.11422530771958186
    w168  w168  0.34888051898190475
    w168  w169  -0.12392097659632434
    w168  w170  -0.031457582376755173
    w168  w171  0.00320694885544438
    w168  w172  -0.05423981522909216
    w168  w173  -0.010522674707363162
    w168  w174  -0.08636253491678422
    w168  w175  0.03298298284692622
    w168  w176  0.06201514087794375
    w168  w177  0.06325349737625177
    w168  w178  0.028026912220079747
    w168  w179  -0.16510180490246446
    w168  w180  0.02727677884579098
    w168  w181  -0.023359638721636215
    w168  w182  0.026768123505297715
    w168  w183  -0.03396417805330017
    w168  w184  -0.05761499606263538
    w168  w185  -0.041396050744552965
    w168  w186  -0.013982594132423615
    w168  w187  0.10152959309792145
    w168  w188  0.02645508628561579
    w168  w189  0.09068037676505931
    w168  w190  0.04759056829369786
    w168  w191  0.04344572722553406
    w168  w192  -0.11276192819399856
    w168  w193  -0.06257217785199047
    w168  w194  -0.05548254861697554
    w168  w195  -0.009635207574704052
    w168  w196  0.035822796008227444
    w168  w197  0.12222440491928176
    w168  w198  -0.14661846177169735
    w168  w199  0.03424251390876147
    w169  w169  0.4371405966625155
    w169  w170  0.0819029714564554
    w169  w171  -0.09375146613134856
    w169  w172  0.03869675420630545
    w169  w173  -0.15062679887808958
    w169  w174  -0.016432374283373546
    w169  w175  0.007004307800514902
    w169  w176  -0.08085144701641835
    w169  w177  -0.0878139806998341
    w169  w178  0.06629482851463141
    w169  w179  -0.02958227610976618
    w169  w180  -0.04000774594355144
    w169  w181  -0.21315071063408025
    w169  w182  0.004004504127690983
    w169  w183  0.07357083131823075
    w169  w184  -0.05341511191714025
    w169  w185  0.001394977564864898
    w169  w186  -0.05685219781945244
    w169  w187  -0.0074406743073407305
    w169  w188  0.04768078933368
    w169  w189  -0.1750058901720453
    w169  w190  0.09445260262330599
    w169  w191  0.144827549126953
    w169  w192  0.16325490403710954
    w169  w193  0.053453768674773326
    w169  w194  -0.10044580667917363
    w169  w195  0.07116905696239292
    w169  w196  0.0294768045194098
    w169  w197  -0.04438059708410422
    w169  w198  0.019588998667880046
    w169  w199  0.07432320080530407
    w170  w170  0.3470963504287563
    w170  w171  -0.08498364730136705
    w170  w172  -0.07522019788475734
    w170  w173  -0.0789751522367773
    w170  w174  -0.04011962546275752
    w170  w175  -0.0065611358104756936
    w170  w176  0.009314605711824665
    w170  w177  0.1132688814570124
    w170  w178  0.14873808730628393
    w170  w179  0.10677795398511047
    w170  w180  -0.07120063945011838
    w170  w181  -0.1340866429780421
    w170  w182  0.10510817502066382
    w170  w183  0.061056262404764326
    w170  w184  -0.01570365920276058
    w170  w185  -0.027002058713400067
    w170  w186  -0.09773821694385712
    w170  w187  -0.05466465253349543
    w170  w188  0.00919193143170946
    w170  w189  -0.06888998622299405
    w170  w190  0.06990410307113284
    w170  w191  0.10582567053382885
    w170  w192  0.011521118599366777
    w170  w193  0.07548387864903404
    w170  w194  -0.014833421119170642
    w170  w195  0.012558423713979132
    w170  w196  0.1887838213443352
    w170  w197  -0.016555975181743
    w170  w198  0.10820005090123196
    w170  w199  0.023970683290103965
    w171  w171  0.37698915676026734
    w171  w172  -0.03938129930253341
    w171  w173  -0.007990925740788284
    w171  w174  0.018111710837954025
    w171  w175  -0.129122784622764
    w171  w176  -0.00765894246894875
    w171  w177  -0.07940498612000114
    w171  w178  -0.006217903517908836
    w171  w179  -0.12966774329055508
    w171  w180  -0.013301415096582258
    w171  w181  0.09494985058252693
    w171  w182  0.07449285570017065
    w171  w183  0.07985645372243116
    w171  w184  -0.06339563676198333
    w171  w185  -0.0036829846896179234
    w171  w186  0.07180631184920025
    w171  w187  0.018250832330934795
    w171  w188  -0.058811219217249786
    w171  w189  0.041097333637746536
    w171  w190  -0.1869976963300556
    w171  w191  -0.05552186297379393
    w171  w192  -0.10032780779843616
    w171  w193  0.01484647177850222
    w171  w194  0.031020089925014427
    w171  w195  -0.12894174451666307
    w171  w196  -0.027545074484046597
    w171  w197  -0.024167002621256498
    w171  w198  -0.06728662372622583
    w171  w199  -0.00661152931697824
    w172  w172  0.2688066703851293
    w172  w173  0.07617982635800934
    w172  w174  -0.0035794388318762704
    w172  w175  0.01954690959455293
    w172  w176  0.02056434766157596
    w172  w177  -0.08567199398153645
    w172  w178  -0.10845372059254783
    w172  w179  0.014071578617283812
    w172  w180  0.03280283670326238
    w172  w181  0.030480293224295813
    w172  w182  0.020887432492576394
    w172  w183  -0.010520642560373026
    w172  w184  0.027166046777727305
    w172  w185  -0.004092294483881641
    w172  w186  0.06578804869060141
    w172  w187  0.055122807031497925
    w172  w188  -0.058902308226452434
    w172  w189  0.09054042184248817
    w172  w190  0.10911440643834672
    w172  w191  -0.04013614917267055
    w172  w192  0.08245040271239963
    w172  w193  0.007409906058772874
    w172  w194  0.0196467598597076
    w172  w195  -0.06511666871295194
    w172  w196  -0.03173787351504973
    w172  w197  0.04217909039740456
    w172  w198  -0.07568647697588701
    w172  w199  0.06243575161668372
    w173  w173  0.29024905296069115
    w173  w174  0.006814060402872319
    w173  w175  0.02964087143776843
    w173  w176  0.018862151294186776
    w173  w177  0.018877910285827183
    w173  w178  -0.06693968936055665
    w173  w179  0.007754424869928511
    w173  w180  -0.004068040350628108
    w173  w181  0.123422567830568
    w173  w182  0.02962603410278923
    w173  w183  -0.08260938139625244
    w173  w184  -0.038968049718352486
    w173  w185  -0.022247414447232314
    w173  w186  0.04705997001796366
    w173  w187  -0.027402975676164322
    w173  w188  0.0015935322712034876
    w173  w189  0.1682784230367694
    w173  w190  -0.029869129986426695
    w173  w191  -0.057724172286029427
    w173  w192  -0.009484100494141395
    w173  w193  0.018047169206336828
    w173  w194  0.08527414087785143
    w173  w195  0.0024052249160995934
    w173  w196  -0.0269902502608933
    w173  w197  0.035066297463798426
    w173  w198  -0.0005398209732037951
    w173  w199  -0.08983692973966277
    w174  w174  0.1955049757429428
    w174  w175  0.035379517636602666
    w174  w176  -0.037978965340944595
    w174  w177  -0.05993971266468427
    w174  w178  -0.07882317720413902
    w174  w179  0.12032867634128283
    w174  w180  0.03743326801411067
    w174  w181  0.06594509913447684
    w174  w182  -0.011465812209587475
    w174  w183  -0.03405869551145464
    w174  w184  0.04278961799446168
    w174  w185  0.06887447922405823
    w174  w186  -0.04527172922157804
    w174  w187  -0.09296141380472055
    w174  w188  -0.03557434827225364
    w174  w189  0.05543737926917363
    w174  w190  -0.05269928542305129
    w174  w191  0.0042322373477572195
    w174  w192  -0.04210779315063848
    w174  w193  0.04558078828895669
    w174  w194  0.012850519723841373
    w174  w195  -0.0001983562227224357
    w174  w196  -0.019771847071121527
    w174  w197  -0.048552900776059636
    w174  w198  0.09251393039313614
    w174  w199  0.04510460642630708
    w175  w175  0.21220231338684353
    w175  w176  -0.01132318478785539
    w175  w177  0.006498202691178327
    w175  w178  -0.01768861036129513
    w175  w179  0.03121140995176054
    w175  w180  -0.025819487487414416
    w175  w181  0.02483389540313271
    w175  w182  -0.028858963317541033
    w175  w183  -0.05219133098728526
    w175  w184  0.011540183864521079
    w175  w185  0.009067853421586827
    w175  w186  0.012645459511343951
    w175  w187  -0.041321141055358813
    w175  w188  0.013795199789251863
    w175  w189  0.027607880020084345
    w175  w190  0.016160244101074996
    w175  w191  0.0014869627760573131
    w175  w192  0.028555723785832852
    w175  w193  0.02826550179074253
    w175  w194  0.015310773324968887
    w175  w195  0.06889337934207221
    w175  w196  0.05578463166541201
    w175  w197  0.03501241931233541
    w175  w198  -0.0006950574776582633
    w175  w199  0.04724835594607206
    w176  w176  0.20453748965703472
    w176  w177  0.030902057037371037
    w176  w178  -0.02970426181375029
    w176  w179  0.04999692142603464
    w176  w180  0.0004257225031779681
    w176  w181  0.022966588871322517
    w176  w182  0.015221290392988883
    w176  w183  0.02745696001576211
    w176  w184  0.07246180133851143
    w176  w185  -0.04095526452641002
    w176  w186  0.07045118191606198
    w176  w187  0.040341452212692405
    w176  w188  -0.006114720691542273
    w176  w189  0.033787247845137744
    w176  w190  0.08355446746522115
    w176  w191  0.00425053444353184
    w176  w192  -0.07707795444901719
    w176  w193  0.027692931312974792
    w176  w194  -0.011797487471848772
    w176  w195  -0.0550624586297831
    w176  w196  -0.006144433676907997
    w176  w197  0.04028091176755821
    w176  w198  -0.045374739104689914
    w176  w199  0.023324993905052164
    w177  w177  0.2181003799464281
    w177  w178  0.08154798442418174
    w177  w179  0.03892791311018851
    w177  w180  -0.01725508361751975
    w177  w181  -0.027943892386054145
    w177  w182  0.012485431195021062
    w177  w183  -0.02307700938466506
    w177  w184  -0.00045422531345807205
    w177  w185  -0.025293792795101144
    w177  w186  -0.05147306225717059
    w177  w187  -0.010551095052655064
    w177  w188  0.03255318031877458
    w177  w189  -0.005760233903896518
    w177  w190  0.023919543816864165
    w177  w191  0.011642024223617271
    w177  w192  -0.03446397462335525
    w177  w193  -0.0203562784123206
    w177  w194  0.014510113760352494
    w177  w195  0.034897030793108304
    w177  w196  0.062441457471532485
    w177  w197  0.014702936874461664
    w177  w198  0.05307753393205064
    w177  w199  -0.06876999484901633
    w178  w178  0.22143993582515367
    w178  w179  -0.048116489170480906
    w178  w180  -0.0995898873064633
    w178  w181  -0.07286725830509681
    w178  w182  0.05865658800215498
    w178  w183  0.04436760758981455
    w178  w184  -0.08282354185166989
    w178  w185  -0.047394758297598094
    w178  w186  -0.08181878344555327
    w178  w187  -0.0030205016938438644
    w178  w188  0.061841056967275036
    w178  w189  -0.11769687468310489
    w178  w190  -0.04495023374044087
    w178  w191  0.05089274901712403
    w178  w192  0.03271485612923525
    w178  w193  -0.012076654521912828
    w178  w194  -0.016941042899607354
    w178  w195  0.06793987610481482
    w178  w196  0.13182058881525027
    w178  w197  -0.02886210983989431
    w178  w198  0.017031643514733363
    w178  w199  -0.0024988290477971206
    w179  w179  0.36776708383166845
    w179  w180  0.0011520227933919437
    w179  w181  0.06324288371351829
    w179  w182  -0.026711102857783338
    w179  w183  -0.0034953428609020526
    w179  w184  0.18028170925219283
    w179  w185  0.038836903372764596
    w179  w186  -0.0335607617964442
    w179  w187  -0.10561835255113021
    w179  w188  -0.032722343398775805
    w179  w189  -0.0306170907363351
    w179  w190  0.06094915705486228
    w179  w191  -0.025802847402398632
    w179  w192  -0.009520892759001424
    w179  w193  0.06203412426307906
    w179  w194  0.03996469820110543
    w179  w195  0.004261826157108078
    w179  w196  0.021791242808649018
    w179  w197  -0.08756930188790245
    w179  w198  0.18053689748022056
    w179  w199  0.03485945278264806
    w180  w180  0.21859989052446355
    w180  w181  -0.06069606776054507
    w180  w182  -0.031302582714272276
    w180  w183  -0.059685852968786965
    w180  w184  0.024460514614930786
    w180  w185  0.057297875067364896
    w180  w186  -0.07720145130652986
    w180  w187  0.04363727313529554
    w180  w188  -0.03677060018293991
    w180  w189  0.1057510868411253
    w180  w190  0.10662818306182453
    w180  w191  0.03771404292693108
    w180  w192  -0.05662833276242461
    w180  w193  -0.06090155855104877
    w180  w194  -0.0528568405045395
    w180  w195  -0.05869939722836961
    w180  w196  -0.13183777339742286
    w180  w197  0.03052734828038192
    w180  w198  0.01630607878375972
    w180  w199  -0.034778200206653766
    w181  w181  0.36843882220670465
    w181  w182  -0.051093997443801366
    w181  w183  -0.031392613055598144
    w181  w184  0.07890432131962734
    w181  w185  -0.0013824687576364288
    w181  w186  0.11820819666163247
    w181  w187  -0.022917063213461503
    w181  w188  -0.03181432522336987
    w181  w189  0.031128763292873746
    w181  w190  -0.1838266444584712
    w181  w191  -0.21373050357171003
    w181  w192  -0.02181841596737467
    w181  w193  -0.03618284764930328
    w181  w194  0.1272240010816013
    w181  w195  -0.004245157953409729
    w181  w196  -0.021219804547786787
    w181  w197  -0.043352687079675996
    w181  w198  -0.03544088002521925
    w181  w199  0.014672608979477688
    w182  w182  0.2559542061123442
    w182  w183  0.03140423633866075
    w182  w184  -0.11301917651914999
    w182  w185  -0.04138660579587652
    w182  w186  -0.09190758860861883
    w182  w187  0.005263241187645748
    w182  w188  -0.016980127639085518
    w182  w189  0.11900679872937721
    w182  w190  0.03972741986031455
    w182  w191  0.11410920336662059
    w182  w192  -0.05076325782744633
    w182  w193  0.0654320793769904
    w182  w194  -0.02261721991455088
    w182  w195  -0.06223046155641076
    w182  w196  0.13998682915955785
    w182  w197  0.03512084481253154
    w182  w198  -0.01640586890987332
    w182  w199  0.06596948843052068
    w183  w183  0.13638497956326334
    w183  w184  0.020349960678346032
    w183  w185  -0.025032295443816167
    w183  w186  0.07618399373018707
    w183  w187  0.004249264345843084
    w183  w188  -0.020109793898513154
    w183  w189  -0.09017274753915859
    w183  w190  -0.014485333330601324
    w183  w191  0.006247368181764623
    w183  w192  0.005974457412346309
    w183  w193  0.06004206861760119
    w183  w194  -0.005559362356224912
    w183  w195  -0.05117288504784979
    w183  w196  0.046860675219333105
    w183  w197  -0.01779521230750522
    w183  w198  -0.020681504050595486
    w183  w199  0.041372007354289655
    w184  w184  0.2948482601861299
    w184  w185  0.030247926278714705
    w184  w186  0.10505261244173882
    w184  w187  -0.01257686281488022
    w184  w188  -0.046729754387849806
    w184  w189  -0.07138639280690182
    w184  w190  0.0396755579852381
    w184  w191  -0.10466402312561959
    w184  w192  -0.00980982032320568
    w184  w193  0.0026933227515834194
    w184  w194  0.03238129181730619
    w184  w195  -0.03363637767403275
    w184  w196  -0.06516330244406204
    w184  w197  -0.03342310445312552
    w184  w198  0.039859604728357964
    w184  w199  0.025524259722542332
    w185  w185  0.0872843569660075
    w185  w186  -0.019802914305000127
    w185  w187  -0.03689105537358654
    w185  w188  -0.034553361303037024
    w185  w189  0.01591555727812698
    w185  w190  -0.014669370118148105
    w185  w191  -0.01366115433133465
    w185  w192  -0.002991432205309331
    w185  w193  -0.0025552417137339684
    w185  w194  0.006579082288338072
    w185  w195  -0.009943690867534572
    w185  w196  -0.042022220055498785
    w185  w197  -0.01635657389436908
    w185  w198  0.05490413657467794
    w185  w199  -0.009667555831273265
    w186  w186  0.41444967776451397
    w186  w187  -0.031130202810837133
    w186  w188  -0.0682730674033775
    w186  w189  -0.027411623150197805
    w186  w190  -0.08644051475391004
    w186  w191  -0.1639895626155088
    w186  w192  0.019491407979780998
    w186  w193  0.12518652358111199
    w186  w194  0.11811504157842445
    w186  w195  -0.07859935971884659
    w186  w196  -0.03382422251360226
    w186  w197  0.05733237353656538
    w186  w198  -0.08435338985091395
    w186  w199  -0.04402883882729587
    w187  w187  0.1927857880130997
    w187  w188  0.01142263308925269
    w187  w189  -0.0028624642141441797
    w187  w190  0.08687738336621213
    w187  w191  -0.0064155063548021595
    w187  w192  0.0050623134969774745
    w187  w193  -0.11822684845984942
    w187  w194  -0.059676570305309685
    w187  w195  -0.033185070140230644
    w187  w196  -0.051177497245400945
    w187  w197  0.0359520304729631
    w187  w198  -0.13393808292143786
    w187  w199  0.041612852039676816
    w188  w188  0.1724138342219947
    w188  w189  -0.06851858001171592
    w188  w190  -0.00047689863744419233
    w188  w191  0.05370882585696616
    w188  w192  0.016849622915389717
    w188  w193  -0.03850483552633709
    w188  w194  -0.04486689338591463
    w188  w195  0.10235373733506221
    w188  w196  -0.010075010340521547
    w188  w197  -0.024753545754533535
    w188  w198  -0.00021037290894310368
    w188  w199  -0.0259766412591431
    w189  w189  0.41038574466989786
    w189  w190  0.07097750499167446
    w189  w191  0.056903920025116995
    w189  w192  -0.12547494919872743
    w189  w193  0.051648137269287964
    w189  w194  0.017451573811995105
    w189  w195  -0.10553748258484032
    w189  w196  0.0008555828121335487
    w189  w197  0.11960418320295677
    w189  w198  -0.027965832689766896
    w189  w199  -0.009337595689996174
    w190  w190  0.38599868350501065
    w190  w191  0.15068771286217003
    w190  w192  -0.00045053052316409536
    w190  w193  -0.00041051644650579033
    w190  w194  -0.11319133647232815
    w190  w195  -0.04068556667287238
    w190  w196  -0.0208102854846825
    w190  w197  0.07913924519747452
    w190  w198  -0.020096237828717976
    w190  w199  0.056698911028133764
    w191  w191  0.2850036272480885
    w191  w192  -0.05830634389442656
    w191  w193  0.06982563500850987
    w191  w194  -0.13459404053778717
    w191  w195  0.01696016748272557
    w191  w196  0.05084520839026584
    w191  w197  0.03698895880517726
    w191  w198  0.03383485255627009
    w191  w199  0.0389260917806162
    w192  w192  0.27347181750650335
    w192  w193  -0.03212867316549479
    w192  w194  0.03005599070740132
    w192  w195  0.07355733562255287
    w192  w196  0.013754472267310138
    w192  w197  -0.04077689236000932
    w192  w198  -0.0009149433921622137
    w192  w199  0.0009875302823878303
    w193  w193  0.25564848264103385
    w193  w194  0.03330850432580444
    w193  w195  -0.046179705999668134
    w193  w196  0.09051057313229467
    w193  w197  0.033821169026378134
    w193  w198  0.05756941630444211
    w193  w199  0.01051202504800338
    w194  w194  0.15034247361458872
    w194  w195  -0.014931778879397638
    w194  w196  0.02900527995753213
    w194  w197  -0.009129072380734755
    w194  w198  0.027040039579827566
    w194  w199  -0.052560215336713345
    w195  w195  0.25436522073121165
    w195  w196  0.01369795518842453
    w195  w197  -0.04767738351839753
    w195  w198  0.03950502504428568
    w195  w199  -0.021088930091826674
    w196  w196  0.34929981403861254
    w196  w197  0.026833372610503045
    w196  w198  0.005801577128384359
    w196  w199  0.10909184552119801
    w197  w197  0.15874324157455794
    w197  w198  -0.0800554467938015
    w197  w199  0.007244521417073962
    w198  w198  0.30899960985008157
    w198  w199  -0.08124307459984556
    w199  w199  0.31406872083421933
ENDATA
