NAME assign_60
ROWS
 N  OBJ
 E  a_0
 E  a_1
 E  a_2
 E  a_3
 E  a_4
 E  a_5
 E  a_6
 E  a_7
 E  a_8
 E  a_9
 E  a_10
 E  a_11
 E  a_12
 E  a_13
 E  a_14
 E  a_15
 E  a_16
 E  a_17
 E  a_18
 E  a_19
 E  a_20
 E  a_21
 E  a_22
 E  a_23
 E  a_24
 E  a_25
 E  a_26
 E  a_27
 E  a_28
 E  a_29
 E  a_30
 E  a_31
 E  a_32
 E  a_33
 E  a_34
 E  a_35
 E  a_36
 E  a_37
 E  a_38
 E  a_39
 E  a_40
 E  a_41
 E  a_42
 E  a_43
 E  a_44
 E  a_45
 E  a_46
 E  a_47
 E  a_48
 E  a_49
 E  a_50
 E  a_51
 E  a_52
 E  a_53
 E  a_54
 E  a_55
 E  a_56
 E  a_57
 E  a_58
 E  a_59
 E  t_0
 E  t_1
 E  t_2
 E  t_3
 E  t_4
 E  t_5
 E  t_6
 E  t_7
 E  t_8
 E  t_9
 E  t_10
 E  t_11
 E  t_12
 E  t_13
 E  t_14
 E  t_15
 E  t_16
 E  t_17
 E  t_18
 E  t_19
 E  t_20
 E  t_21
 E  t_22
 E  t_23
 E  t_24
 E  t_25
 E  t_26
 E  t_27
 E  t_28
 E  t_29
 E  t_30
 E  t_31
 E  t_32
 E  t_33
 E  t_34
 E  t_35
 E  t_36
 E  t_37
 E  t_38
 E  t_39
 E  t_40
 E  t_41
 E  t_42
 E  t_43
 E  t_44
 E  t_45
 E  t_46
 E  t_47
 E  t_48
 E  t_49
 E  t_50
 E  t_51
 E  t_52
 E  t_53
 E  t_54
 E  t_55
 E  t_56
 E  t_57
 E  t_58
 E  t_59
COLUMNS
    x_0_0  OBJ  83.0
    x_0_0  a_0  1.0
    x_0_0  t_0  1.0
    x_0_1  OBJ  26.0
    x_0_1  a_0  1.0
    x_0_1  t_1  1.0
    x_0_2  OBJ  11.0
    x_0_2  a_0  1.0
    x_0_2  t_2  1.0
    x_0_3  OBJ  30.0
    x_0_3  a_0  1.0
    x_0_3  t_3  1.0
    x_0_4  OBJ  41.0
    x_0_4  a_0  1.0
    x_0_4  t_4  1.0
    x_0_5  OBJ  81.0
    x_0_5  a_0  1.0
    x_0_5  t_5  1.0
    x_0_6  OBJ  45.0
    x_0_6  a_0  1.0
    x_0_6  t_6  1.0
    x_0_7  OBJ  10.0
    x_0_7  a_0  1.0
    x_0_7  t_7  1.0
    x_0_8  OBJ  34.0
    x_0_8  a_0  1.0
    x_0_8  t_8  1.0
    x_0_9  OBJ  60.0
    x_0_9  a_0  1.0
    x_0_9  t_9  1.0
    x_0_10  OBJ  81.0
    x_0_10  a_0  1.0
    x_0_10  t_10  1.0
    x_0_11  OBJ  73.0
    x_0_11  a_0  1.0
    x_0_11  t_11  1.0
    x_0_12  OBJ  99.0
    x_0_12  a_0  1.0
    x_0_12  t_12  1.0
    x_0_13  OBJ  19.0
    x_0_13  a_0  1.0
    x_0_13  t_13  1.0
    x_0_14  OBJ  88.0
    x_0_14  a_0  1.0
    x_0_14  t_14  1.0
    x_0_15  OBJ  6.0
    x_0_15  a_0  1.0
    x_0_15  t_15  1.0
    x_0_16  OBJ  56.0
    x_0_16  a_0  1.0
    x_0_16  t_16  1.0
    x_0_17  OBJ  28.0
    x_0_17  a_0  1.0
    x_0_17  t_17  1.0
    x_0_18  OBJ  20.0
    x_0_18  a_0  1.0
    x_0_18  t_18  1.0
    x_0_19  OBJ  66.0
    x_0_19  a_0  1.0
    x_0_19  t_19  1.0
    x_0_20  OBJ  31.0
    x_0_20  a_0  1.0
    x_0_20  t_20  1.0
    x_0_21  OBJ  56.0
    x_0_21  a_0  1.0
    x_0_21  t_21  1.0
    x_0_22  OBJ  26.0
    x_0_22  a_0  1.0
    x_0_22  t_22  1.0
    x_0_23  OBJ  15.0
    x_0_23  a_0  1.0
    x_0_23  t_23  1.0
    x_0_24  OBJ  75.0
    x_0_24  a_0  1.0
    x_0_24  t_24  1.0
    x_0_25  OBJ  43.0
    x_0_25  a_0  1.0
    x_0_25  t_25  1.0
    x_0_26  OBJ  68.0
    x_0_26  a_0  1.0
    x_0_26  t_26  1.0
    x_0_27  OBJ  67.0
    x_0_27  a_0  1.0
    x_0_27  t_27  1.0
    x_0_28  OBJ  94.0
    x_0_28  a_0  1.0
    x_0_28  t_28  1.0
    x_0_29  OBJ  42.0
    x_0_29  a_0  1.0
    x_0_29  t_29  1.0
    x_0_30  OBJ  22.0
    x_0_30  a_0  1.0
    x_0_30  t_30  1.0
    x_0_31  OBJ  63.0
    x_0_31  a_0  1.0
    x_0_31  t_31  1.0
    x_0_32  OBJ  93.0
    x_0_32  a_0  1.0
    x_0_32  t_32  1.0
    x_0_33  OBJ  96.0
    x_0_33  a_0  1.0
    x_0_33  t_33  1.0
    x_0_34  OBJ  86.0
    x_0_34  a_0  1.0
    x_0_34  t_34  1.0
    x_0_35  OBJ  68.0
    x_0_35  a_0  1.0
    x_0_35  t_35  1.0
    x_0_36  OBJ  38.0
    x_0_36  a_0  1.0
    x_0_36  t_36  1.0
    x_0_37  OBJ  39.0
    x_0_37  a_0  1.0
    x_0_37  t_37  1.0
    x_0_38  OBJ  4.0
    x_0_38  a_0  1.0
    x_0_38  t_38  1.0
    x_0_39  OBJ  19.0
    x_0_39  a_0  1.0
    x_0_39  t_39  1.0
    x_0_40  OBJ  33.0
    x_0_40  a_0  1.0
    x_0_40  t_40  1.0
    x_0_41  OBJ  35.0
    x_0_41  a_0  1.0
    x_0_41  t_41  1.0
    x_0_42  OBJ  58.0
    x_0_42  a_0  1.0
    x_0_42  t_42  1.0
    x_0_43  OBJ  51.0
    x_0_43  a_0  1.0
    x_0_43  t_43  1.0
    x_0_44  OBJ  69.0
    x_0_44  a_0  1.0
    x_0_44  t_44  1.0
    x_0_45  OBJ  89.0
    x_0_45  a_0  1.0
    x_0_45  t_45  1.0
    x_0_46  OBJ  87.0
    x_0_46  a_0  1.0
    x_0_46  t_46  1.0
    x_0_47  OBJ  77.0
    x_0_47  a_0  1.0
    x_0_47  t_47  1.0
    x_0_48  OBJ  97.0
    x_0_48  a_0  1.0
    x_0_48  t_48  1.0
    x_0_49  OBJ  32.0
    x_0_49  a_0  1.0
    x_0_49  t_49  1.0
    x_0_50  OBJ  90.0
    x_0_50  a_0  1.0
    x_0_50  t_50  1.0
    x_0_51  OBJ  92.0
    x_0_51  a_0  1.0
    x_0_51  t_51  1.0
    x_0_52  OBJ  23.0
    x_0_52  a_0  1.0
    x_0_52  t_52  1.0
    x_0_53  OBJ  47.0
    x_0_53  a_0  1.0
    x_0_53  t_53  1.0
    x_0_54  OBJ  57.0
    x_0_54  a_0  1.0
    x_0_54  t_54  1.0
    x_0_55  OBJ  69.0
    x_0_55  a_0  1.0
    x_0_55  t_55  1.0
    x_0_56  OBJ  70.0
    x_0_56  a_0  1.0
    x_0_56  t_56  1.0
    x_0_57  OBJ  11.0
    x_0_57  a_0  1.0
    x_0_57  t_57  1.0
    x_0_58  OBJ  48.0
    x_0_58  a_0  1.0
    x_0_58  t_58  1.0
    x_0_59  OBJ  11.0
    x_0_59  a_0  1.0
    x_0_59  t_59  1.0
    x_1_0  OBJ  95.0
    x_1_0  a_1  1.0
    x_1_0  t_0  1.0
    x_1_1  OBJ  20.0
    x_1_1  a_1  1.0
    x_1_1  t_1  1.0
    x_1_2  OBJ  45.0
    x_1_2  a_1  1.0
    x_1_2  t_2  1.0
    x_1_3  OBJ  88.0
    x_1_3  a_1  1.0
    x_1_3  t_3  1.0
    x_1_4  OBJ  52.0
    x_1_4  a_1  1.0
    x_1_4  t_4  1.0
    x_1_5  OBJ  68.0
    x_1_5  a_1  1.0
    x_1_5  t_5  1.0
    x_1_6  OBJ  50.0
    x_1_6  a_1  1.0
    x_1_6  t_6  1.0
    x_1_7  OBJ  85.0
    x_1_7  a_1  1.0
    x_1_7  t_7  1.0
    x_1_8  OBJ  59.0
    x_1_8  a_1  1.0
    x_1_8  t_8  1.0
    x_1_9  OBJ  64.0
    x_1_9  a_1  1.0
    x_1_9  t_9  1.0
    x_1_10  OBJ  45.0
    x_1_10  a_1  1.0
    x_1_10  t_10  1.0
    x_1_11  OBJ  41.0
    x_1_11  a_1  1.0
    x_1_11  t_11  1.0
    x_1_12  OBJ  59.0
    x_1_12  a_1  1.0
    x_1_12  t_12  1.0
    x_1_13  OBJ  52.0
    x_1_13  a_1  1.0
    x_1_13  t_13  1.0
    x_1_14  OBJ  78.0
    x_1_14  a_1  1.0
    x_1_14  t_14  1.0
    x_1_15  OBJ  59.0
    x_1_15  a_1  1.0
    x_1_15  t_15  1.0
    x_1_16  OBJ  47.0
    x_1_16  a_1  1.0
    x_1_16  t_16  1.0
    x_1_17  OBJ  86.0
    x_1_17  a_1  1.0
    x_1_17  t_17  1.0
    x_1_18  OBJ  22.0
    x_1_18  a_1  1.0
    x_1_18  t_18  1.0
    x_1_19  OBJ  44.0
    x_1_19  a_1  1.0
    x_1_19  t_19  1.0
    x_1_20  OBJ  49.0
    x_1_20  a_1  1.0
    x_1_20  t_20  1.0
    x_1_21  OBJ  89.0
    x_1_21  a_1  1.0
    x_1_21  t_21  1.0
    x_1_22  OBJ  44.0
    x_1_22  a_1  1.0
    x_1_22  t_22  1.0
    x_1_23  OBJ  61.0
    x_1_23  a_1  1.0
    x_1_23  t_23  1.0
    x_1_24  OBJ  8.0
    x_1_24  a_1  1.0
    x_1_24  t_24  1.0
    x_1_25  OBJ  83.0
    x_1_25  a_1  1.0
    x_1_25  t_25  1.0
    x_1_26  OBJ  44.0
    x_1_26  a_1  1.0
    x_1_26  t_26  1.0
    x_1_27  OBJ  50.0
    x_1_27  a_1  1.0
    x_1_27  t_27  1.0
    x_1_28  OBJ  10.0
    x_1_28  a_1  1.0
    x_1_28  t_28  1.0
    x_1_29  OBJ  69.0
    x_1_29  a_1  1.0
    x_1_29  t_29  1.0
    x_1_30  OBJ  63.0
    x_1_30  a_1  1.0
    x_1_30  t_30  1.0
    x_1_31  OBJ  34.0
    x_1_31  a_1  1.0
    x_1_31  t_31  1.0
    x_1_32  OBJ  77.0
    x_1_32  a_1  1.0
    x_1_32  t_32  1.0
    x_1_33  OBJ  52.0
    x_1_33  a_1  1.0
    x_1_33  t_33  1.0
    x_1_34  OBJ  6.0
    x_1_34  a_1  1.0
    x_1_34  t_34  1.0
    x_1_35  OBJ  22.0
    x_1_35  a_1  1.0
    x_1_35  t_35  1.0
    x_1_36  OBJ  26.0
    x_1_36  a_1  1.0
    x_1_36  t_36  1.0
    x_1_37  OBJ  10.0
    x_1_37  a_1  1.0
    x_1_37  t_37  1.0
    x_1_38  OBJ  50.0
    x_1_38  a_1  1.0
    x_1_38  t_38  1.0
    x_1_39  OBJ  4.0
    x_1_39  a_1  1.0
    x_1_39  t_39  1.0
    x_1_40  OBJ  52.0
    x_1_40  a_1  1.0
    x_1_40  t_40  1.0
    x_1_41  OBJ  70.0
    x_1_41  a_1  1.0
    x_1_41  t_41  1.0
    x_1_42  OBJ  58.0
    x_1_42  a_1  1.0
    x_1_42  t_42  1.0
    x_1_43  OBJ  46.0
    x_1_43  a_1  1.0
    x_1_43  t_43  1.0
    x_1_44  OBJ  27.0
    x_1_44  a_1  1.0
    x_1_44  t_44  1.0
    x_1_45  OBJ  89.0
    x_1_45  a_1  1.0
    x_1_45  t_45  1.0
    x_1_46  OBJ  32.0
    x_1_46  a_1  1.0
    x_1_46  t_46  1.0
    x_1_47  OBJ  83.0
    x_1_47  a_1  1.0
    x_1_47  t_47  1.0
    x_1_48  OBJ  44.0
    x_1_48  a_1  1.0
    x_1_48  t_48  1.0
    x_1_49  OBJ  39.0
    x_1_49  a_1  1.0
    x_1_49  t_49  1.0
    x_1_50  OBJ  69.0
    x_1_50  a_1  1.0
    x_1_50  t_50  1.0
    x_1_51  OBJ  97.0
    x_1_51  a_1  1.0
    x_1_51  t_51  1.0
    x_1_52  OBJ  78.0
    x_1_52  a_1  1.0
    x_1_52  t_52  1.0
    x_1_53  OBJ  59.0
    x_1_53  a_1  1.0
    x_1_53  t_53  1.0
    x_1_54  OBJ  11.0
    x_1_54  a_1  1.0
    x_1_54  t_54  1.0
    x_1_55  OBJ  76.0
    x_1_55  a_1  1.0
    x_1_55  t_55  1.0
    x_1_56  OBJ  78.0
    x_1_56  a_1  1.0
    x_1_56  t_56  1.0
    x_1_57  OBJ  41.0
    x_1_57  a_1  1.0
    x_1_57  t_57  1.0
    x_1_58  OBJ  36.0
    x_1_58  a_1  1.0
    x_1_58  t_58  1.0
    x_1_59  OBJ  20.0
    x_1_59  a_1  1.0
    x_1_59  t_59  1.0
    x_2_0  OBJ  98.0
    x_2_0  a_2  1.0
    x_2_0  t_0  1.0
    x_2_1  OBJ  18.0
    x_2_1  a_2  1.0
    x_2_1  t_1  1.0
    x_2_2  OBJ  49.0
    x_2_2  a_2  1.0
    x_2_2  t_2  1.0
    x_2_3  OBJ  18.0
    x_2_3  a_2  1.0
    x_2_3  t_3  1.0
    x_2_4  OBJ  78.0
    x_2_4  a_2  1.0
    x_2_4  t_4  1.0
    x_2_5  OBJ  60.0
    x_2_5  a_2  1.0
    x_2_5  t_5  1.0
    x_2_6  OBJ  16.0
    x_2_6  a_2  1.0
    x_2_6  t_6  1.0
    x_2_7  OBJ  12.0
    x_2_7  a_2  1.0
    x_2_7  t_7  1.0
    x_2_8  OBJ  10.0
    x_2_8  a_2  1.0
    x_2_8  t_8  1.0
    x_2_9  OBJ  2.0
    x_2_9  a_2  1.0
    x_2_9  t_9  1.0
    x_2_10  OBJ  85.0
    x_2_10  a_2  1.0
    x_2_10  t_10  1.0
    x_2_11  OBJ  83.0
    x_2_11  a_2  1.0
    x_2_11  t_11  1.0
    x_2_12  OBJ  38.0
    x_2_12  a_2  1.0
    x_2_12  t_12  1.0
    x_2_13  OBJ  10.0
    x_2_13  a_2  1.0
    x_2_13  t_13  1.0
    x_2_14  OBJ  28.0
    x_2_14  a_2  1.0
    x_2_14  t_14  1.0
    x_2_15  OBJ  45.0
    x_2_15  a_2  1.0
    x_2_15  t_15  1.0
    x_2_16  OBJ  54.0
    x_2_16  a_2  1.0
    x_2_16  t_16  1.0
    x_2_17  OBJ  49.0
    x_2_17  a_2  1.0
    x_2_17  t_17  1.0
    x_2_18  OBJ  62.0
    x_2_18  a_2  1.0
    x_2_18  t_18  1.0
    x_2_19  OBJ  62.0
    x_2_19  a_2  1.0
    x_2_19  t_19  1.0
    x_2_20  OBJ  62.0
    x_2_20  a_2  1.0
    x_2_20  t_20  1.0
    x_2_21  OBJ  50.0
    x_2_21  a_2  1.0
    x_2_21  t_21  1.0
    x_2_22  OBJ  45.0
    x_2_22  a_2  1.0
    x_2_22  t_22  1.0
    x_2_23  OBJ  93.0
    x_2_23  a_2  1.0
    x_2_23  t_23  1.0
    x_2_24  OBJ  82.0
    x_2_24  a_2  1.0
    x_2_24  t_24  1.0
    x_2_25  OBJ  75.0
    x_2_25  a_2  1.0
    x_2_25  t_25  1.0
    x_2_26  OBJ  6.0
    x_2_26  a_2  1.0
    x_2_26  t_26  1.0
    x_2_27  OBJ  57.0
    x_2_27  a_2  1.0
    x_2_27  t_27  1.0
    x_2_28  OBJ  88.0
    x_2_28  a_2  1.0
    x_2_28  t_28  1.0
    x_2_29  OBJ  62.0
    x_2_29  a_2  1.0
    x_2_29  t_29  1.0
    x_2_30  OBJ  20.0
    x_2_30  a_2  1.0
    x_2_30  t_30  1.0
    x_2_31  OBJ  51.0
    x_2_31  a_2  1.0
    x_2_31  t_31  1.0
    x_2_32  OBJ  55.0
    x_2_32  a_2  1.0
    x_2_32  t_32  1.0
    x_2_33  OBJ  96.0
    x_2_33  a_2  1.0
    x_2_33  t_33  1.0
    x_2_34  OBJ  55.0
    x_2_34  a_2  1.0
    x_2_34  t_34  1.0
    x_2_35  OBJ  23.0
    x_2_35  a_2  1.0
    x_2_35  t_35  1.0
    x_2_36  OBJ  11.0
    x_2_36  a_2  1.0
    x_2_36  t_36  1.0
    x_2_37  OBJ  69.0
    x_2_37  a_2  1.0
    x_2_37  t_37  1.0
    x_2_38  OBJ  98.0
    x_2_38  a_2  1.0
    x_2_38  t_38  1.0
    x_2_39  OBJ  55.0
    x_2_39  a_2  1.0
    x_2_39  t_39  1.0
    x_2_40  OBJ  10.0
    x_2_40  a_2  1.0
    x_2_40  t_40  1.0
    x_2_41  OBJ  5.0
    x_2_41  a_2  1.0
    x_2_41  t_41  1.0
    x_2_42  OBJ  78.0
    x_2_42  a_2  1.0
    x_2_42  t_42  1.0
    x_2_43  OBJ  30.0
    x_2_43  a_2  1.0
    x_2_43  t_43  1.0
    x_2_44  OBJ  48.0
    x_2_44  a_2  1.0
    x_2_44  t_44  1.0
    x_2_45  OBJ  92.0
    x_2_45  a_2  1.0
    x_2_45  t_45  1.0
    x_2_46  OBJ  26.0
    x_2_46  a_2  1.0
    x_2_46  t_46  1.0
    x_2_47  OBJ  78.0
    x_2_47  a_2  1.0
    x_2_47  t_47  1.0
    x_2_48  OBJ  9.0
    x_2_48  a_2  1.0
    x_2_48  t_48  1.0
    x_2_49  OBJ  2.0
    x_2_49  a_2  1.0
    x_2_49  t_49  1.0
    x_2_50  OBJ  4.0
    x_2_50  a_2  1.0
    x_2_50  t_50  1.0
    x_2_51  OBJ  30.0
    x_2_51  a_2  1.0
    x_2_51  t_51  1.0
    x_2_52  OBJ  48.0
    x_2_52  a_2  1.0
    x_2_52  t_52  1.0
    x_2_53  OBJ  1.0
    x_2_53  a_2  1.0
    x_2_53  t_53  1.0
    x_2_54  OBJ  61.0
    x_2_54  a_2  1.0
    x_2_54  t_54  1.0
    x_2_55  OBJ  82.0
    x_2_55  a_2  1.0
    x_2_55  t_55  1.0
    x_2_56  OBJ  51.0
    x_2_56  a_2  1.0
    x_2_56  t_56  1.0
    x_2_57  OBJ  11.0
    x_2_57  a_2  1.0
    x_2_57  t_57  1.0
    x_2_58  OBJ  82.0
    x_2_58  a_2  1.0
    x_2_58  t_58  1.0
    x_2_59  OBJ  6.0
    x_2_59  a_2  1.0
    x_2_59  t_59  1.0
    x_3_0  OBJ  51.0
    x_3_0  a_3  1.0
    x_3_0  t_0  1.0
    x_3_1  OBJ  98.0
    x_3_1  a_3  1.0
    x_3_1  t_1  1.0
    x_3_2  OBJ  36.0
    x_3_2  a_3  1.0
    x_3_2  t_2  1.0
    x_3_3  OBJ  45.0
    x_3_3  a_3  1.0
    x_3_3  t_3  1.0
    x_3_4  OBJ  26.0
    x_3_4  a_3  1.0
    x_3_4  t_4  1.0
    x_3_5  OBJ  32.0
    x_3_5  a_3  1.0
    x_3_5  t_5  1.0
    x_3_6  OBJ  24.0
    x_3_6  a_3  1.0
    x_3_6  t_6  1.0
    x_3_7  OBJ  5.0
    x_3_7  a_3  1.0
    x_3_7  t_7  1.0
    x_3_8  OBJ  74.0
    x_3_8  a_3  1.0
    x_3_8  t_8  1.0
    x_3_9  OBJ  39.0
    x_3_9  a_3  1.0
    x_3_9  t_9  1.0
    x_3_10  OBJ  99.0
    x_3_10  a_3  1.0
    x_3_10  t_10  1.0
    x_3_11  OBJ  37.0
    x_3_11  a_3  1.0
    x_3_11  t_11  1.0
    x_3_12  OBJ  78.0
    x_3_12  a_3  1.0
    x_3_12  t_12  1.0
    x_3_13  OBJ  52.0
    x_3_13  a_3  1.0
    x_3_13  t_13  1.0
    x_3_14  OBJ  62.0
    x_3_14  a_3  1.0
    x_3_14  t_14  1.0
    x_3_15  OBJ  1.0
    x_3_15  a_3  1.0
    x_3_15  t_15  1.0
    x_3_16  OBJ  86.0
    x_3_16  a_3  1.0
    x_3_16  t_16  1.0
    x_3_17  OBJ  15.0
    x_3_17  a_3  1.0
    x_3_17  t_17  1.0
    x_3_18  OBJ  96.0
    x_3_18  a_3  1.0
    x_3_18  t_18  1.0
    x_3_19  OBJ  21.0
    x_3_19  a_3  1.0
    x_3_19  t_19  1.0
    x_3_20  OBJ  76.0
    x_3_20  a_3  1.0
    x_3_20  t_20  1.0
    x_3_21  OBJ  44.0
    x_3_21  a_3  1.0
    x_3_21  t_21  1.0
    x_3_22  OBJ  77.0
    x_3_22  a_3  1.0
    x_3_22  t_22  1.0
    x_3_23  OBJ  30.0
    x_3_23  a_3  1.0
    x_3_23  t_23  1.0
    x_3_24  OBJ  26.0
    x_3_24  a_3  1.0
    x_3_24  t_24  1.0
    x_3_25  OBJ  61.0
    x_3_25  a_3  1.0
    x_3_25  t_25  1.0
    x_3_26  OBJ  1.0
    x_3_26  a_3  1.0
    x_3_26  t_26  1.0
    x_3_27  OBJ  29.0
    x_3_27  a_3  1.0
    x_3_27  t_27  1.0
    x_3_28  OBJ  67.0
    x_3_28  a_3  1.0
    x_3_28  t_28  1.0
    x_3_29  OBJ  91.0
    x_3_29  a_3  1.0
    x_3_29  t_29  1.0
    x_3_30  OBJ  47.0
    x_3_30  a_3  1.0
    x_3_30  t_30  1.0
    x_3_31  OBJ  96.0
    x_3_31  a_3  1.0
    x_3_31  t_31  1.0
    x_3_32  OBJ  29.0
    x_3_32  a_3  1.0
    x_3_32  t_32  1.0
    x_3_33  OBJ  6.0
    x_3_33  a_3  1.0
    x_3_33  t_33  1.0
    x_3_34  OBJ  68.0
    x_3_34  a_3  1.0
    x_3_34  t_34  1.0
    x_3_35  OBJ  21.0
    x_3_35  a_3  1.0
    x_3_35  t_35  1.0
    x_3_36  OBJ  97.0
    x_3_36  a_3  1.0
    x_3_36  t_36  1.0
    x_3_37  OBJ  56.0
    x_3_37  a_3  1.0
    x_3_37  t_37  1.0
    x_3_38  OBJ  96.0
    x_3_38  a_3  1.0
    x_3_38  t_38  1.0
    x_3_39  OBJ  77.0
    x_3_39  a_3  1.0
    x_3_39  t_39  1.0
    x_3_40  OBJ  69.0
    x_3_40  a_3  1.0
    x_3_40  t_40  1.0
    x_3_41  OBJ  7.0
    x_3_41  a_3  1.0
    x_3_41  t_41  1.0
    x_3_42  OBJ  84.0
    x_3_42  a_3  1.0
    x_3_42  t_42  1.0
    x_3_43  OBJ  19.0
    x_3_43  a_3  1.0
    x_3_43  t_43  1.0
    x_3_44  OBJ  9.0
    x_3_44  a_3  1.0
    x_3_44  t_44  1.0
    x_3_45  OBJ  46.0
    x_3_45  a_3  1.0
    x_3_45  t_45  1.0
    x_3_46  OBJ  11.0
    x_3_46  a_3  1.0
    x_3_46  t_46  1.0
    x_3_47  OBJ  67.0
    x_3_47  a_3  1.0
    x_3_47  t_47  1.0
    x_3_48  OBJ  98.0
    x_3_48  a_3  1.0
    x_3_48  t_48  1.0
    x_3_49  OBJ  90.0
    x_3_49  a_3  1.0
    x_3_49  t_49  1.0
    x_3_50  OBJ  92.0
    x_3_50  a_3  1.0
    x_3_50  t_50  1.0
    x_3_51  OBJ  86.0
    x_3_51  a_3  1.0
    x_3_51  t_51  1.0
    x_3_52  OBJ  25.0
    x_3_52  a_3  1.0
    x_3_52  t_52  1.0
    x_3_53  OBJ  79.0
    x_3_53  a_3  1.0
    x_3_53  t_53  1.0
    x_3_54  OBJ  25.0
    x_3_54  a_3  1.0
    x_3_54  t_54  1.0
    x_3_55  OBJ  6.0
    x_3_55  a_3  1.0
    x_3_55  t_55  1.0
    x_3_56  OBJ  77.0
    x_3_56  a_3  1.0
    x_3_56  t_56  1.0
    x_3_57  OBJ  97.0
    x_3_57  a_3  1.0
    x_3_57  t_57  1.0
    x_3_58  OBJ  81.0
    x_3_58  a_3  1.0
    x_3_58  t_58  1.0
    x_3_59  OBJ  61.0
    x_3_59  a_3  1.0
    x_3_59  t_59  1.0
    x_4_0  OBJ  95.0
    x_4_0  a_4  1.0
    x_4_0  t_0  1.0
    x_4_1  OBJ  9.0
    x_4_1  a_4  1.0
    x_4_1  t_1  1.0
    x_4_2  OBJ  11.0
    x_4_2  a_4  1.0
    x_4_2  t_2  1.0
    x_4_3  OBJ  26.0
    x_4_3  a_4  1.0
    x_4_3  t_3  1.0
    x_4_4  OBJ  7.0
    x_4_4  a_4  1.0
    x_4_4  t_4  1.0
    x_4_5  OBJ  62.0
    x_4_5  a_4  1.0
    x_4_5  t_5  1.0
    x_4_6  OBJ  5.0
    x_4_6  a_4  1.0
    x_4_6  t_6  1.0
    x_4_7  OBJ  39.0
    x_4_7  a_4  1.0
    x_4_7  t_7  1.0
    x_4_8  OBJ  51.0
    x_4_8  a_4  1.0
    x_4_8  t_8  1.0
    x_4_9  OBJ  45.0
    x_4_9  a_4  1.0
    x_4_9  t_9  1.0
    x_4_10  OBJ  60.0
    x_4_10  a_4  1.0
    x_4_10  t_10  1.0
    x_4_11  OBJ  80.0
    x_4_11  a_4  1.0
    x_4_11  t_11  1.0
    x_4_12  OBJ  88.0
    x_4_12  a_4  1.0
    x_4_12  t_12  1.0
    x_4_13  OBJ  82.0
    x_4_13  a_4  1.0
    x_4_13  t_13  1.0
    x_4_14  OBJ  75.0
    x_4_14  a_4  1.0
    x_4_14  t_14  1.0
    x_4_15  OBJ  55.0
    x_4_15  a_4  1.0
    x_4_15  t_15  1.0
    x_4_16  OBJ  59.0
    x_4_16  a_4  1.0
    x_4_16  t_16  1.0
    x_4_17  OBJ  79.0
    x_4_17  a_4  1.0
    x_4_17  t_17  1.0
    x_4_18  OBJ  47.0
    x_4_18  a_4  1.0
    x_4_18  t_18  1.0
    x_4_19  OBJ  41.0
    x_4_19  a_4  1.0
    x_4_19  t_19  1.0
    x_4_20  OBJ  83.0
    x_4_20  a_4  1.0
    x_4_20  t_20  1.0
    x_4_21  OBJ  97.0
    x_4_21  a_4  1.0
    x_4_21  t_21  1.0
    x_4_22  OBJ  38.0
    x_4_22  a_4  1.0
    x_4_22  t_22  1.0
    x_4_23  OBJ  60.0
    x_4_23  a_4  1.0
    x_4_23  t_23  1.0
    x_4_24  OBJ  5.0
    x_4_24  a_4  1.0
    x_4_24  t_24  1.0
    x_4_25  OBJ  96.0
    x_4_25  a_4  1.0
    x_4_25  t_25  1.0
    x_4_26  OBJ  81.0
    x_4_26  a_4  1.0
    x_4_26  t_26  1.0
    x_4_27  OBJ  5.0
    x_4_27  a_4  1.0
    x_4_27  t_27  1.0
    x_4_28  OBJ  38.0
    x_4_28  a_4  1.0
    x_4_28  t_28  1.0
    x_4_29  OBJ  88.0
    x_4_29  a_4  1.0
    x_4_29  t_29  1.0
    x_4_30  OBJ  63.0
    x_4_30  a_4  1.0
    x_4_30  t_30  1.0
    x_4_31  OBJ  56.0
    x_4_31  a_4  1.0
    x_4_31  t_31  1.0
    x_4_32  OBJ  12.0
    x_4_32  a_4  1.0
    x_4_32  t_32  1.0
    x_4_33  OBJ  71.0
    x_4_33  a_4  1.0
    x_4_33  t_33  1.0
    x_4_34  OBJ  63.0
    x_4_34  a_4  1.0
    x_4_34  t_34  1.0
    x_4_35  OBJ  20.0
    x_4_35  a_4  1.0
    x_4_35  t_35  1.0
    x_4_36  OBJ  48.0
    x_4_36  a_4  1.0
    x_4_36  t_36  1.0
    x_4_37  OBJ  55.0
    x_4_37  a_4  1.0
    x_4_37  t_37  1.0
    x_4_38  OBJ  56.0
    x_4_38  a_4  1.0
    x_4_38  t_38  1.0
    x_4_39  OBJ  29.0
    x_4_39  a_4  1.0
    x_4_39  t_39  1.0
    x_4_40  OBJ  51.0
    x_4_40  a_4  1.0
    x_4_40  t_40  1.0
    x_4_41  OBJ  11.0
    x_4_41  a_4  1.0
    x_4_41  t_41  1.0
    x_4_42  OBJ  58.0
    x_4_42  a_4  1.0
    x_4_42  t_42  1.0
    x_4_43  OBJ  1.0
    x_4_43  a_4  1.0
    x_4_43  t_43  1.0
    x_4_44  OBJ  3.0
    x_4_44  a_4  1.0
    x_4_44  t_44  1.0
    x_4_45  OBJ  90.0
    x_4_45  a_4  1.0
    x_4_45  t_45  1.0
    x_4_46  OBJ  82.0
    x_4_46  a_4  1.0
    x_4_46  t_46  1.0
    x_4_47  OBJ  67.0
    x_4_47  a_4  1.0
    x_4_47  t_47  1.0
    x_4_48  OBJ  48.0
    x_4_48  a_4  1.0
    x_4_48  t_48  1.0
    x_4_49  OBJ  21.0
    x_4_49  a_4  1.0
    x_4_49  t_49  1.0
    x_4_50  OBJ  43.0
    x_4_50  a_4  1.0
    x_4_50  t_50  1.0
    x_4_51  OBJ  26.0
    x_4_51  a_4  1.0
    x_4_51  t_51  1.0
    x_4_52  OBJ  19.0
    x_4_52  a_4  1.0
    x_4_52  t_52  1.0
    x_4_53  OBJ  47.0
    x_4_53  a_4  1.0
    x_4_53  t_53  1.0
    x_4_54  OBJ  53.0
    x_4_54  a_4  1.0
    x_4_54  t_54  1.0
    x_4_55  OBJ  82.0
    x_4_55  a_4  1.0
    x_4_55  t_55  1.0
    x_4_56  OBJ  54.0
    x_4_56  a_4  1.0
    x_4_56  t_56  1.0
    x_4_57  OBJ  12.0
    x_4_57  a_4  1.0
    x_4_57  t_57  1.0
    x_4_58  OBJ  12.0
    x_4_58  a_4  1.0
    x_4_58  t_58  1.0
    x_4_59  OBJ  96.0
    x_4_59  a_4  1.0
    x_4_59  t_59  1.0
    x_5_0  OBJ  15.0
    x_5_0  a_5  1.0
    x_5_0  t_0  1.0
    x_5_1  OBJ  94.0
    x_5_1  a_5  1.0
    x_5_1  t_1  1.0
    x_5_2  OBJ  63.0
    x_5_2  a_5  1.0
    x_5_2  t_2  1.0
    x_5_3  OBJ  25.0
    x_5_3  a_5  1.0
    x_5_3  t_3  1.0
    x_5_4  OBJ  43.0
    x_5_4  a_5  1.0
    x_5_4  t_4  1.0
    x_5_5  OBJ  64.0
    x_5_5  a_5  1.0
    x_5_5  t_5  1.0
    x_5_6  OBJ  60.0
    x_5_6  a_5  1.0
    x_5_6  t_6  1.0
    x_5_7  OBJ  36.0
    x_5_7  a_5  1.0
    x_5_7  t_7  1.0
    x_5_8  OBJ  39.0
    x_5_8  a_5  1.0
    x_5_8  t_8  1.0
    x_5_9  OBJ  70.0
    x_5_9  a_5  1.0
    x_5_9  t_9  1.0
    x_5_10  OBJ  63.0
    x_5_10  a_5  1.0
    x_5_10  t_10  1.0
    x_5_11  OBJ  9.0
    x_5_11  a_5  1.0
    x_5_11  t_11  1.0
    x_5_12  OBJ  72.0
    x_5_12  a_5  1.0
    x_5_12  t_12  1.0
    x_5_13  OBJ  47.0
    x_5_13  a_5  1.0
    x_5_13  t_13  1.0
    x_5_14  OBJ  84.0
    x_5_14  a_5  1.0
    x_5_14  t_14  1.0
    x_5_15  OBJ  59.0
    x_5_15  a_5  1.0
    x_5_15  t_15  1.0
    x_5_16  OBJ  53.0
    x_5_16  a_5  1.0
    x_5_16  t_16  1.0
    x_5_17  OBJ  63.0
    x_5_17  a_5  1.0
    x_5_17  t_17  1.0
    x_5_18  OBJ  38.0
    x_5_18  a_5  1.0
    x_5_18  t_18  1.0
    x_5_19  OBJ  69.0
    x_5_19  a_5  1.0
    x_5_19  t_19  1.0
    x_5_20  OBJ  30.0
    x_5_20  a_5  1.0
    x_5_20  t_20  1.0
    x_5_21  OBJ  89.0
    x_5_21  a_5  1.0
    x_5_21  t_21  1.0
    x_5_22  OBJ  70.0
    x_5_22  a_5  1.0
    x_5_22  t_22  1.0
    x_5_23  OBJ  24.0
    x_5_23  a_5  1.0
    x_5_23  t_23  1.0
    x_5_24  OBJ  88.0
    x_5_24  a_5  1.0
    x_5_24  t_24  1.0
    x_5_25  OBJ  16.0
    x_5_25  a_5  1.0
    x_5_25  t_25  1.0
    x_5_26  OBJ  92.0
    x_5_26  a_5  1.0
    x_5_26  t_26  1.0
    x_5_27  OBJ  39.0
    x_5_27  a_5  1.0
    x_5_27  t_27  1.0
    x_5_28  OBJ  37.0
    x_5_28  a_5  1.0
    x_5_28  t_28  1.0
    x_5_29  OBJ  57.0
    x_5_29  a_5  1.0
    x_5_29  t_29  1.0
    x_5_30  OBJ  3.0
    x_5_30  a_5  1.0
    x_5_30  t_30  1.0
    x_5_31  OBJ  96.0
    x_5_31  a_5  1.0
    x_5_31  t_31  1.0
    x_5_32  OBJ  84.0
    x_5_32  a_5  1.0
    x_5_32  t_32  1.0
    x_5_33  OBJ  71.0
    x_5_33  a_5  1.0
    x_5_33  t_33  1.0
    x_5_34  OBJ  10.0
    x_5_34  a_5  1.0
    x_5_34  t_34  1.0
    x_5_35  OBJ  74.0
    x_5_35  a_5  1.0
    x_5_35  t_35  1.0
    x_5_36  OBJ  38.0
    x_5_36  a_5  1.0
    x_5_36  t_36  1.0
    x_5_37  OBJ  97.0
    x_5_37  a_5  1.0
    x_5_37  t_37  1.0
    x_5_38  OBJ  77.0
    x_5_38  a_5  1.0
    x_5_38  t_38  1.0
    x_5_39  OBJ  27.0
    x_5_39  a_5  1.0
    x_5_39  t_39  1.0
    x_5_40  OBJ  20.0
    x_5_40  a_5  1.0
    x_5_40  t_40  1.0
    x_5_41  OBJ  26.0
    x_5_41  a_5  1.0
    x_5_41  t_41  1.0
    x_5_42  OBJ  58.0
    x_5_42  a_5  1.0
    x_5_42  t_42  1.0
    x_5_43  OBJ  42.0
    x_5_43  a_5  1.0
    x_5_43  t_43  1.0
    x_5_44  OBJ  45.0
    x_5_44  a_5  1.0
    x_5_44  t_44  1.0
    x_5_45  OBJ  30.0
    x_5_45  a_5  1.0
    x_5_45  t_45  1.0
    x_5_46  OBJ  87.0
    x_5_46  a_5  1.0
    x_5_46  t_46  1.0
    x_5_47  OBJ  65.0
    x_5_47  a_5  1.0
    x_5_47  t_47  1.0
    x_5_48  OBJ  7.0
    x_5_48  a_5  1.0
    x_5_48  t_48  1.0
    x_5_49  OBJ  95.0
    x_5_49  a_5  1.0
    x_5_49  t_49  1.0
    x_5_50  OBJ  1.0
    x_5_50  a_5  1.0
    x_5_50  t_50  1.0
    x_5_51  OBJ  16.0
    x_5_51  a_5  1.0
    x_5_51  t_51  1.0
    x_5_52  OBJ  18.0
    x_5_52  a_5  1.0
    x_5_52  t_52  1.0
    x_5_53  OBJ  52.0
    x_5_53  a_5  1.0
    x_5_53  t_53  1.0
    x_5_54  OBJ  82.0
    x_5_54  a_5  1.0
    x_5_54  t_54  1.0
    x_5_55  OBJ  68.0
    x_5_55  a_5  1.0
    x_5_55  t_55  1.0
    x_5_56  OBJ  9.0
    x_5_56  a_5  1.0
    x_5_56  t_56  1.0
    x_5_57  OBJ  49.0
    x_5_57  a_5  1.0
    x_5_57  t_57  1.0
    x_5_58  OBJ  56.0
    x_5_58  a_5  1.0
    x_5_58  t_58  1.0
    x_5_59  OBJ  91.0
    x_5_59  a_5  1.0
    x_5_59  t_59  1.0
    x_6_0  OBJ  23.0
    x_6_0  a_6  1.0
    x_6_0  t_0  1.0
    x_6_1  OBJ  73.0
    x_6_1  a_6  1.0
    x_6_1  t_1  1.0
    x_6_2  OBJ  44.0
    x_6_2  a_6  1.0
    x_6_2  t_2  1.0
    x_6_3  OBJ  88.0
    x_6_3  a_6  1.0
    x_6_3  t_3  1.0
    x_6_4  OBJ  81.0
    x_6_4  a_6  1.0
    x_6_4  t_4  1.0
    x_6_5  OBJ  12.0
    x_6_5  a_6  1.0
    x_6_5  t_5  1.0
    x_6_6  OBJ  27.0
    x_6_6  a_6  1.0
    x_6_6  t_6  1.0
    x_6_7  OBJ  20.0
    x_6_7  a_6  1.0
    x_6_7  t_7  1.0
    x_6_8  OBJ  18.0
    x_6_8  a_6  1.0
    x_6_8  t_8  1.0
    x_6_9  OBJ  7.0
    x_6_9  a_6  1.0
    x_6_9  t_9  1.0
    x_6_10  OBJ  84.0
    x_6_10  a_6  1.0
    x_6_10  t_10  1.0
    x_6_11  OBJ  83.0
    x_6_11  a_6  1.0
    x_6_11  t_11  1.0
    x_6_12  OBJ  44.0
    x_6_12  a_6  1.0
    x_6_12  t_12  1.0
    x_6_13  OBJ  96.0
    x_6_13  a_6  1.0
    x_6_13  t_13  1.0
    x_6_14  OBJ  75.0
    x_6_14  a_6  1.0
    x_6_14  t_14  1.0
    x_6_15  OBJ  2.0
    x_6_15  a_6  1.0
    x_6_15  t_15  1.0
    x_6_16  OBJ  68.0
    x_6_16  a_6  1.0
    x_6_16  t_16  1.0
    x_6_17  OBJ  79.0
    x_6_17  a_6  1.0
    x_6_17  t_17  1.0
    x_6_18  OBJ  68.0
    x_6_18  a_6  1.0
    x_6_18  t_18  1.0
    x_6_19  OBJ  73.0
    x_6_19  a_6  1.0
    x_6_19  t_19  1.0
    x_6_20  OBJ  54.0
    x_6_20  a_6  1.0
    x_6_20  t_20  1.0
    x_6_21  OBJ  90.0
    x_6_21  a_6  1.0
    x_6_21  t_21  1.0
    x_6_22  OBJ  96.0
    x_6_22  a_6  1.0
    x_6_22  t_22  1.0
    x_6_23  OBJ  27.0
    x_6_23  a_6  1.0
    x_6_23  t_23  1.0
    x_6_24  OBJ  27.0
    x_6_24  a_6  1.0
    x_6_24  t_24  1.0
    x_6_25  OBJ  71.0
    x_6_25  a_6  1.0
    x_6_25  t_25  1.0
    x_6_26  OBJ  24.0
    x_6_26  a_6  1.0
    x_6_26  t_26  1.0
    x_6_27  OBJ  24.0
    x_6_27  a_6  1.0
    x_6_27  t_27  1.0
    x_6_28  OBJ  60.0
    x_6_28  a_6  1.0
    x_6_28  t_28  1.0
    x_6_29  OBJ  8.0
    x_6_29  a_6  1.0
    x_6_29  t_29  1.0
    x_6_30  OBJ  16.0
    x_6_30  a_6  1.0
    x_6_30  t_30  1.0
    x_6_31  OBJ  74.0
    x_6_31  a_6  1.0
    x_6_31  t_31  1.0
    x_6_32  OBJ  64.0
    x_6_32  a_6  1.0
    x_6_32  t_32  1.0
    x_6_33  OBJ  5.0
    x_6_33  a_6  1.0
    x_6_33  t_33  1.0
    x_6_34  OBJ  72.0
    x_6_34  a_6  1.0
    x_6_34  t_34  1.0
    x_6_35  OBJ  70.0
    x_6_35  a_6  1.0
    x_6_35  t_35  1.0
    x_6_36  OBJ  54.0
    x_6_36  a_6  1.0
    x_6_36  t_36  1.0
    x_6_37  OBJ  29.0
    x_6_37  a_6  1.0
    x_6_37  t_37  1.0
    x_6_38  OBJ  20.0
    x_6_38  a_6  1.0
    x_6_38  t_38  1.0
    x_6_39  OBJ  49.0
    x_6_39  a_6  1.0
    x_6_39  t_39  1.0
    x_6_40  OBJ  18.0
    x_6_40  a_6  1.0
    x_6_40  t_40  1.0
    x_6_41  OBJ  89.0
    x_6_41  a_6  1.0
    x_6_41  t_41  1.0
    x_6_42  OBJ  89.0
    x_6_42  a_6  1.0
    x_6_42  t_42  1.0
    x_6_43  OBJ  25.0
    x_6_43  a_6  1.0
    x_6_43  t_43  1.0
    x_6_44  OBJ  99.0
    x_6_44  a_6  1.0
    x_6_44  t_44  1.0
    x_6_45  OBJ  47.0
    x_6_45  a_6  1.0
    x_6_45  t_45  1.0
    x_6_46  OBJ  50.0
    x_6_46  a_6  1.0
    x_6_46  t_46  1.0
    x_6_47  OBJ  36.0
    x_6_47  a_6  1.0
    x_6_47  t_47  1.0
    x_6_48  OBJ  92.0
    x_6_48  a_6  1.0
    x_6_48  t_48  1.0
    x_6_49  OBJ  19.0
    x_6_49  a_6  1.0
    x_6_49  t_49  1.0
    x_6_50  OBJ  24.0
    x_6_50  a_6  1.0
    x_6_50  t_50  1.0
    x_6_51  OBJ  47.0
    x_6_51  a_6  1.0
    x_6_51  t_51  1.0
    x_6_52  OBJ  48.0
    x_6_52  a_6  1.0
    x_6_52  t_52  1.0
    x_6_53  OBJ  18.0
    x_6_53  a_6  1.0
    x_6_53  t_53  1.0
    x_6_54  OBJ  93.0
    x_6_54  a_6  1.0
    x_6_54  t_54  1.0
    x_6_55  OBJ  80.0
    x_6_55  a_6  1.0
    x_6_55  t_55  1.0
    x_6_56  OBJ  66.0
    x_6_56  a_6  1.0
    x_6_56  t_56  1.0
    x_6_57  OBJ  61.0
    x_6_57  a_6  1.0
    x_6_57  t_57  1.0
    x_6_58  OBJ  92.0
    x_6_58  a_6  1.0
    x_6_58  t_58  1.0
    x_6_59  OBJ  29.0
    x_6_59  a_6  1.0
    x_6_59  t_59  1.0
    x_7_0  OBJ  24.0
    x_7_0  a_7  1.0
    x_7_0  t_0  1.0
    x_7_1  OBJ  97.0
    x_7_1  a_7  1.0
    x_7_1  t_1  1.0
    x_7_2  OBJ  6.0
    x_7_2  a_7  1.0
    x_7_2  t_2  1.0
    x_7_3  OBJ  35.0
    x_7_3  a_7  1.0
    x_7_3  t_3  1.0
    x_7_4  OBJ  8.0
    x_7_4  a_7  1.0
    x_7_4  t_4  1.0
    x_7_5  OBJ  67.0
    x_7_5  a_7  1.0
    x_7_5  t_5  1.0
    x_7_6  OBJ  90.0
    x_7_6  a_7  1.0
    x_7_6  t_6  1.0
    x_7_7  OBJ  73.0
    x_7_7  a_7  1.0
    x_7_7  t_7  1.0
    x_7_8  OBJ  84.0
    x_7_8  a_7  1.0
    x_7_8  t_8  1.0
    x_7_9  OBJ  27.0
    x_7_9  a_7  1.0
    x_7_9  t_9  1.0
    x_7_10  OBJ  10.0
    x_7_10  a_7  1.0
    x_7_10  t_10  1.0
    x_7_11  OBJ  2.0
    x_7_11  a_7  1.0
    x_7_11  t_11  1.0
    x_7_12  OBJ  3.0
    x_7_12  a_7  1.0
    x_7_12  t_12  1.0
    x_7_13  OBJ  89.0
    x_7_13  a_7  1.0
    x_7_13  t_13  1.0
    x_7_14  OBJ  23.0
    x_7_14  a_7  1.0
    x_7_14  t_14  1.0
    x_7_15  OBJ  95.0
    x_7_15  a_7  1.0
    x_7_15  t_15  1.0
    x_7_16  OBJ  14.0
    x_7_16  a_7  1.0
    x_7_16  t_16  1.0
    x_7_17  OBJ  17.0
    x_7_17  a_7  1.0
    x_7_17  t_17  1.0
    x_7_18  OBJ  27.0
    x_7_18  a_7  1.0
    x_7_18  t_18  1.0
    x_7_19  OBJ  16.0
    x_7_19  a_7  1.0
    x_7_19  t_19  1.0
    x_7_20  OBJ  55.0
    x_7_20  a_7  1.0
    x_7_20  t_20  1.0
    x_7_21  OBJ  43.0
    x_7_21  a_7  1.0
    x_7_21  t_21  1.0
    x_7_22  OBJ  29.0
    x_7_22  a_7  1.0
    x_7_22  t_22  1.0
    x_7_23  OBJ  60.0
    x_7_23  a_7  1.0
    x_7_23  t_23  1.0
    x_7_24  OBJ  81.0
    x_7_24  a_7  1.0
    x_7_24  t_24  1.0
    x_7_25  OBJ  98.0
    x_7_25  a_7  1.0
    x_7_25  t_25  1.0
    x_7_26  OBJ  86.0
    x_7_26  a_7  1.0
    x_7_26  t_26  1.0
    x_7_27  OBJ  96.0
    x_7_27  a_7  1.0
    x_7_27  t_27  1.0
    x_7_28  OBJ  83.0
    x_7_28  a_7  1.0
    x_7_28  t_28  1.0
    x_7_29  OBJ  98.0
    x_7_29  a_7  1.0
    x_7_29  t_29  1.0
    x_7_30  OBJ  34.0
    x_7_30  a_7  1.0
    x_7_30  t_30  1.0
    x_7_31  OBJ  25.0
    x_7_31  a_7  1.0
    x_7_31  t_31  1.0
    x_7_32  OBJ  82.0
    x_7_32  a_7  1.0
    x_7_32  t_32  1.0
    x_7_33  OBJ  60.0
    x_7_33  a_7  1.0
    x_7_33  t_33  1.0
    x_7_34  OBJ  59.0
    x_7_34  a_7  1.0
    x_7_34  t_34  1.0
    x_7_35  OBJ  44.0
    x_7_35  a_7  1.0
    x_7_35  t_35  1.0
    x_7_36  OBJ  41.0
    x_7_36  a_7  1.0
    x_7_36  t_36  1.0
    x_7_37  OBJ  23.0
    x_7_37  a_7  1.0
    x_7_37  t_37  1.0
    x_7_38  OBJ  13.0
    x_7_38  a_7  1.0
    x_7_38  t_38  1.0
    x_7_39  OBJ  7.0
    x_7_39  a_7  1.0
    x_7_39  t_39  1.0
    x_7_40  OBJ  19.0
    x_7_40  a_7  1.0
    x_7_40  t_40  1.0
    x_7_41  OBJ  17.0
    x_7_41  a_7  1.0
    x_7_41  t_41  1.0
    x_7_42  OBJ  33.0
    x_7_42  a_7  1.0
    x_7_42  t_42  1.0
    x_7_43  OBJ  36.0
    x_7_43  a_7  1.0
    x_7_43  t_43  1.0
    x_7_44  OBJ  73.0
    x_7_44  a_7  1.0
    x_7_44  t_44  1.0
    x_7_45  OBJ  9.0
    x_7_45  a_7  1.0
    x_7_45  t_45  1.0
    x_7_46  OBJ  17.0
    x_7_46  a_7  1.0
    x_7_46  t_46  1.0
    x_7_47  OBJ  15.0
    x_7_47  a_7  1.0
    x_7_47  t_47  1.0
    x_7_48  OBJ  52.0
    x_7_48  a_7  1.0
    x_7_48  t_48  1.0
    x_7_49  OBJ  5.0
    x_7_49  a_7  1.0
    x_7_49  t_49  1.0
    x_7_50  OBJ  98.0
    x_7_50  a_7  1.0
    x_7_50  t_50  1.0
    x_7_51  OBJ  62.0
    x_7_51  a_7  1.0
    x_7_51  t_51  1.0
    x_7_52  OBJ  23.0
    x_7_52  a_7  1.0
    x_7_52  t_52  1.0
    x_7_53  OBJ  49.0
    x_7_53  a_7  1.0
    x_7_53  t_53  1.0
    x_7_54  OBJ  16.0
    x_7_54  a_7  1.0
    x_7_54  t_54  1.0
    x_7_55  OBJ  25.0
    x_7_55  a_7  1.0
    x_7_55  t_55  1.0
    x_7_56  OBJ  54.0
    x_7_56  a_7  1.0
    x_7_56  t_56  1.0
    x_7_57  OBJ  53.0
    x_7_57  a_7  1.0
    x_7_57  t_57  1.0
    x_7_58  OBJ  92.0
    x_7_58  a_7  1.0
    x_7_58  t_58  1.0
    x_7_59  OBJ  43.0
    x_7_59  a_7  1.0
    x_7_59  t_59  1.0
    x_8_0  OBJ  86.0
    x_8_0  a_8  1.0
    x_8_0  t_0  1.0
    x_8_1  OBJ  66.0
    x_8_1  a_8  1.0
    x_8_1  t_1  1.0
    x_8_2  OBJ  87.0
    x_8_2  a_8  1.0
    x_8_2  t_2  1.0
    x_8_3  OBJ  93.0
    x_8_3  a_8  1.0
    x_8_3  t_3  1.0
    x_8_4  OBJ  24.0
    x_8_4  a_8  1.0
    x_8_4  t_4  1.0
    x_8_5  OBJ  35.0
    x_8_5  a_8  1.0
    x_8_5  t_5  1.0
    x_8_6  OBJ  80.0
    x_8_6  a_8  1.0
    x_8_6  t_6  1.0
    x_8_7  OBJ  64.0
    x_8_7  a_8  1.0
    x_8_7  t_7  1.0
    x_8_8  OBJ  16.0
    x_8_8  a_8  1.0
    x_8_8  t_8  1.0
    x_8_9  OBJ  22.0
    x_8_9  a_8  1.0
    x_8_9  t_9  1.0
    x_8_10  OBJ  31.0
    x_8_10  a_8  1.0
    x_8_10  t_10  1.0
    x_8_11  OBJ  94.0
    x_8_11  a_8  1.0
    x_8_11  t_11  1.0
    x_8_12  OBJ  65.0
    x_8_12  a_8  1.0
    x_8_12  t_12  1.0
    x_8_13  OBJ  62.0
    x_8_13  a_8  1.0
    x_8_13  t_13  1.0
    x_8_14  OBJ  81.0
    x_8_14  a_8  1.0
    x_8_14  t_14  1.0
    x_8_15  OBJ  16.0
    x_8_15  a_8  1.0
    x_8_15  t_15  1.0
    x_8_16  OBJ  97.0
    x_8_16  a_8  1.0
    x_8_16  t_16  1.0
    x_8_17  OBJ  26.0
    x_8_17  a_8  1.0
    x_8_17  t_17  1.0
    x_8_18  OBJ  94.0
    x_8_18  a_8  1.0
    x_8_18  t_18  1.0
    x_8_19  OBJ  16.0
    x_8_19  a_8  1.0
    x_8_19  t_19  1.0
    x_8_20  OBJ  65.0
    x_8_20  a_8  1.0
    x_8_20  t_20  1.0
    x_8_21  OBJ  18.0
    x_8_21  a_8  1.0
    x_8_21  t_21  1.0
    x_8_22  OBJ  84.0
    x_8_22  a_8  1.0
    x_8_22  t_22  1.0
    x_8_23  OBJ  31.0
    x_8_23  a_8  1.0
    x_8_23  t_23  1.0
    x_8_24  OBJ  69.0
    x_8_24  a_8  1.0
    x_8_24  t_24  1.0
    x_8_25  OBJ  82.0
    x_8_25  a_8  1.0
    x_8_25  t_25  1.0
    x_8_26  OBJ  36.0
    x_8_26  a_8  1.0
    x_8_26  t_26  1.0
    x_8_27  OBJ  46.0
    x_8_27  a_8  1.0
    x_8_27  t_27  1.0
    x_8_28  OBJ  67.0
    x_8_28  a_8  1.0
    x_8_28  t_28  1.0
    x_8_29  OBJ  28.0
    x_8_29  a_8  1.0
    x_8_29  t_29  1.0
    x_8_30  OBJ  54.0
    x_8_30  a_8  1.0
    x_8_30  t_30  1.0
    x_8_31  OBJ  42.0
    x_8_31  a_8  1.0
    x_8_31  t_31  1.0
    x_8_32  OBJ  28.0
    x_8_32  a_8  1.0
    x_8_32  t_32  1.0
    x_8_33  OBJ  27.0
    x_8_33  a_8  1.0
    x_8_33  t_33  1.0
    x_8_34  OBJ  12.0
    x_8_34  a_8  1.0
    x_8_34  t_34  1.0
    x_8_35  OBJ  73.0
    x_8_35  a_8  1.0
    x_8_35  t_35  1.0
    x_8_36  OBJ  53.0
    x_8_36  a_8  1.0
    x_8_36  t_36  1.0
    x_8_37  OBJ  6.0
    x_8_37  a_8  1.0
    x_8_37  t_37  1.0
    x_8_38  OBJ  90.0
    x_8_38  a_8  1.0
    x_8_38  t_38  1.0
    x_8_39  OBJ  29.0
    x_8_39  a_8  1.0
    x_8_39  t_39  1.0
    x_8_40  OBJ  23.0
    x_8_40  a_8  1.0
    x_8_40  t_40  1.0
    x_8_41  OBJ  33.0
    x_8_41  a_8  1.0
    x_8_41  t_41  1.0
    x_8_42  OBJ  32.0
    x_8_42  a_8  1.0
    x_8_42  t_42  1.0
    x_8_43  OBJ  18.0
    x_8_43  a_8  1.0
    x_8_43  t_43  1.0
    x_8_44  OBJ  98.0
    x_8_44  a_8  1.0
    x_8_44  t_44  1.0
    x_8_45  OBJ  74.0
    x_8_45  a_8  1.0
    x_8_45  t_45  1.0
    x_8_46  OBJ  59.0
    x_8_46  a_8  1.0
    x_8_46  t_46  1.0
    x_8_47  OBJ  18.0
    x_8_47  a_8  1.0
    x_8_47  t_47  1.0
    x_8_48  OBJ  64.0
    x_8_48  a_8  1.0
    x_8_48  t_48  1.0
    x_8_49  OBJ  30.0
    x_8_49  a_8  1.0
    x_8_49  t_49  1.0
    x_8_50  OBJ  33.0
    x_8_50  a_8  1.0
    x_8_50  t_50  1.0
    x_8_51  OBJ  6.0
    x_8_51  a_8  1.0
    x_8_51  t_51  1.0
    x_8_52  OBJ  96.0
    x_8_52  a_8  1.0
    x_8_52  t_52  1.0
    x_8_53  OBJ  75.0
    x_8_53  a_8  1.0
    x_8_53  t_53  1.0
    x_8_54  OBJ  62.0
    x_8_54  a_8  1.0
    x_8_54  t_54  1.0
    x_8_55  OBJ  37.0
    x_8_55  a_8  1.0
    x_8_55  t_55  1.0
    x_8_56  OBJ  44.0
    x_8_56  a_8  1.0
    x_8_56  t_56  1.0
    x_8_57  OBJ  65.0
    x_8_57  a_8  1.0
    x_8_57  t_57  1.0
    x_8_58  OBJ  45.0
    x_8_58  a_8  1.0
    x_8_58  t_58  1.0
    x_8_59  OBJ  22.0
    x_8_59  a_8  1.0
    x_8_59  t_59  1.0
    x_9_0  OBJ  34.0
    x_9_0  a_9  1.0
    x_9_0  t_0  1.0
    x_9_1  OBJ  3.0
    x_9_1  a_9  1.0
    x_9_1  t_1  1.0
    x_9_2  OBJ  44.0
    x_9_2  a_9  1.0
    x_9_2  t_2  1.0
    x_9_3  OBJ  32.0
    x_9_3  a_9  1.0
    x_9_3  t_3  1.0
    x_9_4  OBJ  26.0
    x_9_4  a_9  1.0
    x_9_4  t_4  1.0
    x_9_5  OBJ  78.0
    x_9_5  a_9  1.0
    x_9_5  t_5  1.0
    x_9_6  OBJ  27.0
    x_9_6  a_9  1.0
    x_9_6  t_6  1.0
    x_9_7  OBJ  83.0
    x_9_7  a_9  1.0
    x_9_7  t_7  1.0
    x_9_8  OBJ  57.0
    x_9_8  a_9  1.0
    x_9_8  t_8  1.0
    x_9_9  OBJ  35.0
    x_9_9  a_9  1.0
    x_9_9  t_9  1.0
    x_9_10  OBJ  49.0
    x_9_10  a_9  1.0
    x_9_10  t_10  1.0
    x_9_11  OBJ  84.0
    x_9_11  a_9  1.0
    x_9_11  t_11  1.0
    x_9_12  OBJ  2.0
    x_9_12  a_9  1.0
    x_9_12  t_12  1.0
    x_9_13  OBJ  5.0
    x_9_13  a_9  1.0
    x_9_13  t_13  1.0
    x_9_14  OBJ  20.0
    x_9_14  a_9  1.0
    x_9_14  t_14  1.0
    x_9_15  OBJ  52.0
    x_9_15  a_9  1.0
    x_9_15  t_15  1.0
    x_9_16  OBJ  40.0
    x_9_16  a_9  1.0
    x_9_16  t_16  1.0
    x_9_17  OBJ  26.0
    x_9_17  a_9  1.0
    x_9_17  t_17  1.0
    x_9_18  OBJ  37.0
    x_9_18  a_9  1.0
    x_9_18  t_18  1.0
    x_9_19  OBJ  44.0
    x_9_19  a_9  1.0
    x_9_19  t_19  1.0
    x_9_20  OBJ  32.0
    x_9_20  a_9  1.0
    x_9_20  t_20  1.0
    x_9_21  OBJ  22.0
    x_9_21  a_9  1.0
    x_9_21  t_21  1.0
    x_9_22  OBJ  43.0
    x_9_22  a_9  1.0
    x_9_22  t_22  1.0
    x_9_23  OBJ  89.0
    x_9_23  a_9  1.0
    x_9_23  t_23  1.0
    x_9_24  OBJ  2.0
    x_9_24  a_9  1.0
    x_9_24  t_24  1.0
    x_9_25  OBJ  30.0
    x_9_25  a_9  1.0
    x_9_25  t_25  1.0
    x_9_26  OBJ  79.0
    x_9_26  a_9  1.0
    x_9_26  t_26  1.0
    x_9_27  OBJ  94.0
    x_9_27  a_9  1.0
    x_9_27  t_27  1.0
    x_9_28  OBJ  78.0
    x_9_28  a_9  1.0
    x_9_28  t_28  1.0
    x_9_29  OBJ  11.0
    x_9_29  a_9  1.0
    x_9_29  t_29  1.0
    x_9_30  OBJ  14.0
    x_9_30  a_9  1.0
    x_9_30  t_30  1.0
    x_9_31  OBJ  43.0
    x_9_31  a_9  1.0
    x_9_31  t_31  1.0
    x_9_32  OBJ  2.0
    x_9_32  a_9  1.0
    x_9_32  t_32  1.0
    x_9_33  OBJ  44.0
    x_9_33  a_9  1.0
    x_9_33  t_33  1.0
    x_9_34  OBJ  67.0
    x_9_34  a_9  1.0
    x_9_34  t_34  1.0
    x_9_35  OBJ  71.0
    x_9_35  a_9  1.0
    x_9_35  t_35  1.0
    x_9_36  OBJ  16.0
    x_9_36  a_9  1.0
    x_9_36  t_36  1.0
    x_9_37  OBJ  35.0
    x_9_37  a_9  1.0
    x_9_37  t_37  1.0
    x_9_38  OBJ  14.0
    x_9_38  a_9  1.0
    x_9_38  t_38  1.0
    x_9_39  OBJ  49.0
    x_9_39  a_9  1.0
    x_9_39  t_39  1.0
    x_9_40  OBJ  5.0
    x_9_40  a_9  1.0
    x_9_40  t_40  1.0
    x_9_41  OBJ  7.0
    x_9_41  a_9  1.0
    x_9_41  t_41  1.0
    x_9_42  OBJ  99.0
    x_9_42  a_9  1.0
    x_9_42  t_42  1.0
    x_9_43  OBJ  31.0
    x_9_43  a_9  1.0
    x_9_43  t_43  1.0
    x_9_44  OBJ  35.0
    x_9_44  a_9  1.0
    x_9_44  t_44  1.0
    x_9_45  OBJ  72.0
    x_9_45  a_9  1.0
    x_9_45  t_45  1.0
    x_9_46  OBJ  53.0
    x_9_46  a_9  1.0
    x_9_46  t_46  1.0
    x_9_47  OBJ  11.0
    x_9_47  a_9  1.0
    x_9_47  t_47  1.0
    x_9_48  OBJ  42.0
    x_9_48  a_9  1.0
    x_9_48  t_48  1.0
    x_9_49  OBJ  46.0
    x_9_49  a_9  1.0
    x_9_49  t_49  1.0
    x_9_50  OBJ  95.0
    x_9_50  a_9  1.0
    x_9_50  t_50  1.0
    x_9_51  OBJ  24.0
    x_9_51  a_9  1.0
    x_9_51  t_51  1.0
    x_9_52  OBJ  9.0
    x_9_52  a_9  1.0
    x_9_52  t_52  1.0
    x_9_53  OBJ  17.0
    x_9_53  a_9  1.0
    x_9_53  t_53  1.0
    x_9_54  OBJ  15.0
    x_9_54  a_9  1.0
    x_9_54  t_54  1.0
    x_9_55  OBJ  13.0
    x_9_55  a_9  1.0
    x_9_55  t_55  1.0
    x_9_56  OBJ  44.0
    x_9_56  a_9  1.0
    x_9_56  t_56  1.0
    x_9_57  OBJ  81.0
    x_9_57  a_9  1.0
    x_9_57  t_57  1.0
    x_9_58  OBJ  49.0
    x_9_58  a_9  1.0
    x_9_58  t_58  1.0
    x_9_59  OBJ  68.0
    x_9_59  a_9  1.0
    x_9_59  t_59  1.0
    x_10_0  OBJ  3.0
    x_10_0  a_10  1.0
    x_10_0  t_0  1.0
    x_10_1  OBJ  38.0
    x_10_1  a_10  1.0
    x_10_1  t_1  1.0
    x_10_2  OBJ  20.0
    x_10_2  a_10  1.0
    x_10_2  t_2  1.0
    x_10_3  OBJ  39.0
    x_10_3  a_10  1.0
    x_10_3  t_3  1.0
    x_10_4  OBJ  72.0
    x_10_4  a_10  1.0
    x_10_4  t_4  1.0
    x_10_5  OBJ  73.0
    x_10_5  a_10  1.0
    x_10_5  t_5  1.0
    x_10_6  OBJ  83.0
    x_10_6  a_10  1.0
    x_10_6  t_6  1.0
    x_10_7  OBJ  60.0
    x_10_7  a_10  1.0
    x_10_7  t_7  1.0
    x_10_8  OBJ  59.0
    x_10_8  a_10  1.0
    x_10_8  t_8  1.0
    x_10_9  OBJ  91.0
    x_10_9  a_10  1.0
    x_10_9  t_9  1.0
    x_10_10  OBJ  86.0
    x_10_10  a_10  1.0
    x_10_10  t_10  1.0
    x_10_11  OBJ  92.0
    x_10_11  a_10  1.0
    x_10_11  t_11  1.0
    x_10_12  OBJ  59.0
    x_10_12  a_10  1.0
    x_10_12  t_12  1.0
    x_10_13  OBJ  48.0
    x_10_13  a_10  1.0
    x_10_13  t_13  1.0
    x_10_14  OBJ  32.0
    x_10_14  a_10  1.0
    x_10_14  t_14  1.0
    x_10_15  OBJ  66.0
    x_10_15  a_10  1.0
    x_10_15  t_15  1.0
    x_10_16  OBJ  54.0
    x_10_16  a_10  1.0
    x_10_16  t_16  1.0
    x_10_17  OBJ  54.0
    x_10_17  a_10  1.0
    x_10_17  t_17  1.0
    x_10_18  OBJ  4.0
    x_10_18  a_10  1.0
    x_10_18  t_18  1.0
    x_10_19  OBJ  31.0
    x_10_19  a_10  1.0
    x_10_19  t_19  1.0
    x_10_20  OBJ  96.0
    x_10_20  a_10  1.0
    x_10_20  t_20  1.0
    x_10_21  OBJ  45.0
    x_10_21  a_10  1.0
    x_10_21  t_21  1.0
    x_10_22  OBJ  45.0
    x_10_22  a_10  1.0
    x_10_22  t_22  1.0
    x_10_23  OBJ  72.0
    x_10_23  a_10  1.0
    x_10_23  t_23  1.0
    x_10_24  OBJ  85.0
    x_10_24  a_10  1.0
    x_10_24  t_24  1.0
    x_10_25  OBJ  55.0
    x_10_25  a_10  1.0
    x_10_25  t_25  1.0
    x_10_26  OBJ  67.0
    x_10_26  a_10  1.0
    x_10_26  t_26  1.0
    x_10_27  OBJ  63.0
    x_10_27  a_10  1.0
    x_10_27  t_27  1.0
    x_10_28  OBJ  67.0
    x_10_28  a_10  1.0
    x_10_28  t_28  1.0
    x_10_29  OBJ  49.0
    x_10_29  a_10  1.0
    x_10_29  t_29  1.0
    x_10_30  OBJ  27.0
    x_10_30  a_10  1.0
    x_10_30  t_30  1.0
    x_10_31  OBJ  95.0
    x_10_31  a_10  1.0
    x_10_31  t_31  1.0
    x_10_32  OBJ  79.0
    x_10_32  a_10  1.0
    x_10_32  t_32  1.0
    x_10_33  OBJ  77.0
    x_10_33  a_10  1.0
    x_10_33  t_33  1.0
    x_10_34  OBJ  62.0
    x_10_34  a_10  1.0
    x_10_34  t_34  1.0
    x_10_35  OBJ  13.0
    x_10_35  a_10  1.0
    x_10_35  t_35  1.0
    x_10_36  OBJ  38.0
    x_10_36  a_10  1.0
    x_10_36  t_36  1.0
    x_10_37  OBJ  81.0
    x_10_37  a_10  1.0
    x_10_37  t_37  1.0
    x_10_38  OBJ  23.0
    x_10_38  a_10  1.0
    x_10_38  t_38  1.0
    x_10_39  OBJ  91.0
    x_10_39  a_10  1.0
    x_10_39  t_39  1.0
    x_10_40  OBJ  96.0
    x_10_40  a_10  1.0
    x_10_40  t_40  1.0
    x_10_41  OBJ  81.0
    x_10_41  a_10  1.0
    x_10_41  t_41  1.0
    x_10_42  OBJ  19.0
    x_10_42  a_10  1.0
    x_10_42  t_42  1.0
    x_10_43  OBJ  34.0
    x_10_43  a_10  1.0
    x_10_43  t_43  1.0
    x_10_44  OBJ  13.0
    x_10_44  a_10  1.0
    x_10_44  t_44  1.0
    x_10_45  OBJ  37.0
    x_10_45  a_10  1.0
    x_10_45  t_45  1.0
    x_10_46  OBJ  43.0
    x_10_46  a_10  1.0
    x_10_46  t_46  1.0
    x_10_47  OBJ  25.0
    x_10_47  a_10  1.0
    x_10_47  t_47  1.0
    x_10_48  OBJ  78.0
    x_10_48  a_10  1.0
    x_10_48  t_48  1.0
    x_10_49  OBJ  6.0
    x_10_49  a_10  1.0
    x_10_49  t_49  1.0
    x_10_50  OBJ  13.0
    x_10_50  a_10  1.0
    x_10_50  t_50  1.0
    x_10_51  OBJ  47.0
    x_10_51  a_10  1.0
    x_10_51  t_51  1.0
    x_10_52  OBJ  57.0
    x_10_52  a_10  1.0
    x_10_52  t_52  1.0
    x_10_53  OBJ  85.0
    x_10_53  a_10  1.0
    x_10_53  t_53  1.0
    x_10_54  OBJ  34.0
    x_10_54  a_10  1.0
    x_10_54  t_54  1.0
    x_10_55  OBJ  77.0
    x_10_55  a_10  1.0
    x_10_55  t_55  1.0
    x_10_56  OBJ  52.0
    x_10_56  a_10  1.0
    x_10_56  t_56  1.0
    x_10_57  OBJ  66.0
    x_10_57  a_10  1.0
    x_10_57  t_57  1.0
    x_10_58  OBJ  69.0
    x_10_58  a_10  1.0
    x_10_58  t_58  1.0
    x_10_59  OBJ  84.0
    x_10_59  a_10  1.0
    x_10_59  t_59  1.0
    x_11_0  OBJ  2.0
    x_11_0  a_11  1.0
    x_11_0  t_0  1.0
    x_11_1  OBJ  66.0
    x_11_1  a_11  1.0
    x_11_1  t_1  1.0
    x_11_2  OBJ  49.0
    x_11_2  a_11  1.0
    x_11_2  t_2  1.0
    x_11_3  OBJ  23.0
    x_11_3  a_11  1.0
    x_11_3  t_3  1.0
    x_11_4  OBJ  55.0
    x_11_4  a_11  1.0
    x_11_4  t_4  1.0
    x_11_5  OBJ  80.0
    x_11_5  a_11  1.0
    x_11_5  t_5  1.0
    x_11_6  OBJ  78.0
    x_11_6  a_11  1.0
    x_11_6  t_6  1.0
    x_11_7  OBJ  37.0
    x_11_7  a_11  1.0
    x_11_7  t_7  1.0
    x_11_8  OBJ  74.0
    x_11_8  a_11  1.0
    x_11_8  t_8  1.0
    x_11_9  OBJ  89.0
    x_11_9  a_11  1.0
    x_11_9  t_9  1.0
    x_11_10  OBJ  73.0
    x_11_10  a_11  1.0
    x_11_10  t_10  1.0
    x_11_11  OBJ  33.0
    x_11_11  a_11  1.0
    x_11_11  t_11  1.0
    x_11_12  OBJ  20.0
    x_11_12  a_11  1.0
    x_11_12  t_12  1.0
    x_11_13  OBJ  10.0
    x_11_13  a_11  1.0
    x_11_13  t_13  1.0
    x_11_14  OBJ  19.0
    x_11_14  a_11  1.0
    x_11_14  t_14  1.0
    x_11_15  OBJ  73.0
    x_11_15  a_11  1.0
    x_11_15  t_15  1.0
    x_11_16  OBJ  87.0
    x_11_16  a_11  1.0
    x_11_16  t_16  1.0
    x_11_17  OBJ  11.0
    x_11_17  a_11  1.0
    x_11_17  t_17  1.0
    x_11_18  OBJ  39.0
    x_11_18  a_11  1.0
    x_11_18  t_18  1.0
    x_11_19  OBJ  87.0
    x_11_19  a_11  1.0
    x_11_19  t_19  1.0
    x_11_20  OBJ  40.0
    x_11_20  a_11  1.0
    x_11_20  t_20  1.0
    x_11_21  OBJ  41.0
    x_11_21  a_11  1.0
    x_11_21  t_21  1.0
    x_11_22  OBJ  80.0
    x_11_22  a_11  1.0
    x_11_22  t_22  1.0
    x_11_23  OBJ  78.0
    x_11_23  a_11  1.0
    x_11_23  t_23  1.0
    x_11_24  OBJ  16.0
    x_11_24  a_11  1.0
    x_11_24  t_24  1.0
    x_11_25  OBJ  6.0
    x_11_25  a_11  1.0
    x_11_25  t_25  1.0
    x_11_26  OBJ  82.0
    x_11_26  a_11  1.0
    x_11_26  t_26  1.0
    x_11_27  OBJ  54.0
    x_11_27  a_11  1.0
    x_11_27  t_27  1.0
    x_11_28  OBJ  1.0
    x_11_28  a_11  1.0
    x_11_28  t_28  1.0
    x_11_29  OBJ  68.0
    x_11_29  a_11  1.0
    x_11_29  t_29  1.0
    x_11_30  OBJ  71.0
    x_11_30  a_11  1.0
    x_11_30  t_30  1.0
    x_11_31  OBJ  13.0
    x_11_31  a_11  1.0
    x_11_31  t_31  1.0
    x_11_32  OBJ  85.0
    x_11_32  a_11  1.0
    x_11_32  t_32  1.0
    x_11_33  OBJ  61.0
    x_11_33  a_11  1.0
    x_11_33  t_33  1.0
    x_11_34  OBJ  48.0
    x_11_34  a_11  1.0
    x_11_34  t_34  1.0
    x_11_35  OBJ  15.0
    x_11_35  a_11  1.0
    x_11_35  t_35  1.0
    x_11_36  OBJ  15.0
    x_11_36  a_11  1.0
    x_11_36  t_36  1.0
    x_11_37  OBJ  31.0
    x_11_37  a_11  1.0
    x_11_37  t_37  1.0
    x_11_38  OBJ  45.0
    x_11_38  a_11  1.0
    x_11_38  t_38  1.0
    x_11_39  OBJ  37.0
    x_11_39  a_11  1.0
    x_11_39  t_39  1.0
    x_11_40  OBJ  92.0
    x_11_40  a_11  1.0
    x_11_40  t_40  1.0
    x_11_41  OBJ  62.0
    x_11_41  a_11  1.0
    x_11_41  t_41  1.0
    x_11_42  OBJ  60.0
    x_11_42  a_11  1.0
    x_11_42  t_42  1.0
    x_11_43  OBJ  13.0
    x_11_43  a_11  1.0
    x_11_43  t_43  1.0
    x_11_44  OBJ  28.0
    x_11_44  a_11  1.0
    x_11_44  t_44  1.0
    x_11_45  OBJ  19.0
    x_11_45  a_11  1.0
    x_11_45  t_45  1.0
    x_11_46  OBJ  98.0
    x_11_46  a_11  1.0
    x_11_46  t_46  1.0
    x_11_47  OBJ  78.0
    x_11_47  a_11  1.0
    x_11_47  t_47  1.0
    x_11_48  OBJ  39.0
    x_11_48  a_11  1.0
    x_11_48  t_48  1.0
    x_11_49  OBJ  71.0
    x_11_49  a_11  1.0
    x_11_49  t_49  1.0
    x_11_50  OBJ  59.0
    x_11_50  a_11  1.0
    x_11_50  t_50  1.0
    x_11_51  OBJ  45.0
    x_11_51  a_11  1.0
    x_11_51  t_51  1.0
    x_11_52  OBJ  72.0
    x_11_52  a_11  1.0
    x_11_52  t_52  1.0
    x_11_53  OBJ  28.0
    x_11_53  a_11  1.0
    x_11_53  t_53  1.0
    x_11_54  OBJ  56.0
    x_11_54  a_11  1.0
    x_11_54  t_54  1.0
    x_11_55  OBJ  69.0
    x_11_55  a_11  1.0
    x_11_55  t_55  1.0
    x_11_56  OBJ  88.0
    x_11_56  a_11  1.0
    x_11_56  t_56  1.0
    x_11_57  OBJ  47.0
    x_11_57  a_11  1.0
    x_11_57  t_57  1.0
    x_11_58  OBJ  99.0
    x_11_58  a_11  1.0
    x_11_58  t_58  1.0
    x_11_59  OBJ  31.0
    x_11_59  a_11  1.0
    x_11_59  t_59  1.0
    x_12_0  OBJ  83.0
    x_12_0  a_12  1.0
    x_12_0  t_0  1.0
    x_12_1  OBJ  87.0
    x_12_1  a_12  1.0
    x_12_1  t_1  1.0
    x_12_2  OBJ  74.0
    x_12_2  a_12  1.0
    x_12_2  t_2  1.0
    x_12_3  OBJ  20.0
    x_12_3  a_12  1.0
    x_12_3  t_3  1.0
    x_12_4  OBJ  47.0
    x_12_4  a_12  1.0
    x_12_4  t_4  1.0
    x_12_5  OBJ  80.0
    x_12_5  a_12  1.0
    x_12_5  t_5  1.0
    x_12_6  OBJ  73.0
    x_12_6  a_12  1.0
    x_12_6  t_6  1.0
    x_12_7  OBJ  62.0
    x_12_7  a_12  1.0
    x_12_7  t_7  1.0
    x_12_8  OBJ  4.0
    x_12_8  a_12  1.0
    x_12_8  t_8  1.0
    x_12_9  OBJ  64.0
    x_12_9  a_12  1.0
    x_12_9  t_9  1.0
    x_12_10  OBJ  6.0
    x_12_10  a_12  1.0
    x_12_10  t_10  1.0
    x_12_11  OBJ  68.0
    x_12_11  a_12  1.0
    x_12_11  t_11  1.0
    x_12_12  OBJ  77.0
    x_12_12  a_12  1.0
    x_12_12  t_12  1.0
    x_12_13  OBJ  75.0
    x_12_13  a_12  1.0
    x_12_13  t_13  1.0
    x_12_14  OBJ  82.0
    x_12_14  a_12  1.0
    x_12_14  t_14  1.0
    x_12_15  OBJ  88.0
    x_12_15  a_12  1.0
    x_12_15  t_15  1.0
    x_12_16  OBJ  49.0
    x_12_16  a_12  1.0
    x_12_16  t_16  1.0
    x_12_17  OBJ  92.0
    x_12_17  a_12  1.0
    x_12_17  t_17  1.0
    x_12_18  OBJ  94.0
    x_12_18  a_12  1.0
    x_12_18  t_18  1.0
    x_12_19  OBJ  26.0
    x_12_19  a_12  1.0
    x_12_19  t_19  1.0
    x_12_20  OBJ  87.0
    x_12_20  a_12  1.0
    x_12_20  t_20  1.0
    x_12_21  OBJ  17.0
    x_12_21  a_12  1.0
    x_12_21  t_21  1.0
    x_12_22  OBJ  75.0
    x_12_22  a_12  1.0
    x_12_22  t_22  1.0
    x_12_23  OBJ  89.0
    x_12_23  a_12  1.0
    x_12_23  t_23  1.0
    x_12_24  OBJ  79.0
    x_12_24  a_12  1.0
    x_12_24  t_24  1.0
    x_12_25  OBJ  21.0
    x_12_25  a_12  1.0
    x_12_25  t_25  1.0
    x_12_26  OBJ  21.0
    x_12_26  a_12  1.0
    x_12_26  t_26  1.0
    x_12_27  OBJ  22.0
    x_12_27  a_12  1.0
    x_12_27  t_27  1.0
    x_12_28  OBJ  23.0
    x_12_28  a_12  1.0
    x_12_28  t_28  1.0
    x_12_29  OBJ  80.0
    x_12_29  a_12  1.0
    x_12_29  t_29  1.0
    x_12_30  OBJ  83.0
    x_12_30  a_12  1.0
    x_12_30  t_30  1.0
    x_12_31  OBJ  96.0
    x_12_31  a_12  1.0
    x_12_31  t_31  1.0
    x_12_32  OBJ  46.0
    x_12_32  a_12  1.0
    x_12_32  t_32  1.0
    x_12_33  OBJ  84.0
    x_12_33  a_12  1.0
    x_12_33  t_33  1.0
    x_12_34  OBJ  61.0
    x_12_34  a_12  1.0
    x_12_34  t_34  1.0
    x_12_35  OBJ  52.0
    x_12_35  a_12  1.0
    x_12_35  t_35  1.0
    x_12_36  OBJ  67.0
    x_12_36  a_12  1.0
    x_12_36  t_36  1.0
    x_12_37  OBJ  38.0
    x_12_37  a_12  1.0
    x_12_37  t_37  1.0
    x_12_38  OBJ  21.0
    x_12_38  a_12  1.0
    x_12_38  t_38  1.0
    x_12_39  OBJ  98.0
    x_12_39  a_12  1.0
    x_12_39  t_39  1.0
    x_12_40  OBJ  14.0
    x_12_40  a_12  1.0
    x_12_40  t_40  1.0
    x_12_41  OBJ  73.0
    x_12_41  a_12  1.0
    x_12_41  t_41  1.0
    x_12_42  OBJ  11.0
    x_12_42  a_12  1.0
    x_12_42  t_42  1.0
    x_12_43  OBJ  63.0
    x_12_43  a_12  1.0
    x_12_43  t_43  1.0
    x_12_44  OBJ  17.0
    x_12_44  a_12  1.0
    x_12_44  t_44  1.0
    x_12_45  OBJ  2.0
    x_12_45  a_12  1.0
    x_12_45  t_45  1.0
    x_12_46  OBJ  84.0
    x_12_46  a_12  1.0
    x_12_46  t_46  1.0
    x_12_47  OBJ  20.0
    x_12_47  a_12  1.0
    x_12_47  t_47  1.0
    x_12_48  OBJ  11.0
    x_12_48  a_12  1.0
    x_12_48  t_48  1.0
    x_12_49  OBJ  2.0
    x_12_49  a_12  1.0
    x_12_49  t_49  1.0
    x_12_50  OBJ  25.0
    x_12_50  a_12  1.0
    x_12_50  t_50  1.0
    x_12_51  OBJ  90.0
    x_12_51  a_12  1.0
    x_12_51  t_51  1.0
    x_12_52  OBJ  16.0
    x_12_52  a_12  1.0
    x_12_52  t_52  1.0
    x_12_53  OBJ  24.0
    x_12_53  a_12  1.0
    x_12_53  t_53  1.0
    x_12_54  OBJ  50.0
    x_12_54  a_12  1.0
    x_12_54  t_54  1.0
    x_12_55  OBJ  17.0
    x_12_55  a_12  1.0
    x_12_55  t_55  1.0
    x_12_56  OBJ  85.0
    x_12_56  a_12  1.0
    x_12_56  t_56  1.0
    x_12_57  OBJ  58.0
    x_12_57  a_12  1.0
    x_12_57  t_57  1.0
    x_12_58  OBJ  48.0
    x_12_58  a_12  1.0
    x_12_58  t_58  1.0
    x_12_59  OBJ  21.0
    x_12_59  a_12  1.0
    x_12_59  t_59  1.0
    x_13_0  OBJ  18.0
    x_13_0  a_13  1.0
    x_13_0  t_0  1.0
    x_13_1  OBJ  55.0
    x_13_1  a_13  1.0
    x_13_1  t_1  1.0
    x_13_2  OBJ  99.0
    x_13_2  a_13  1.0
    x_13_2  t_2  1.0
    x_13_3  OBJ  95.0
    x_13_3  a_13  1.0
    x_13_3  t_3  1.0
    x_13_4  OBJ  60.0
    x_13_4  a_13  1.0
    x_13_4  t_4  1.0
    x_13_5  OBJ  86.0
    x_13_5  a_13  1.0
    x_13_5  t_5  1.0
    x_13_6  OBJ  88.0
    x_13_6  a_13  1.0
    x_13_6  t_6  1.0
    x_13_7  OBJ  25.0
    x_13_7  a_13  1.0
    x_13_7  t_7  1.0
    x_13_8  OBJ  58.0
    x_13_8  a_13  1.0
    x_13_8  t_8  1.0
    x_13_9  OBJ  91.0
    x_13_9  a_13  1.0
    x_13_9  t_9  1.0
    x_13_10  OBJ  96.0
    x_13_10  a_13  1.0
    x_13_10  t_10  1.0
    x_13_11  OBJ  40.0
    x_13_11  a_13  1.0
    x_13_11  t_11  1.0
    x_13_12  OBJ  81.0
    x_13_12  a_13  1.0
    x_13_12  t_12  1.0
    x_13_13  OBJ  52.0
    x_13_13  a_13  1.0
    x_13_13  t_13  1.0
    x_13_14  OBJ  38.0
    x_13_14  a_13  1.0
    x_13_14  t_14  1.0
    x_13_15  OBJ  33.0
    x_13_15  a_13  1.0
    x_13_15  t_15  1.0
    x_13_16  OBJ  79.0
    x_13_16  a_13  1.0
    x_13_16  t_16  1.0
    x_13_17  OBJ  99.0
    x_13_17  a_13  1.0
    x_13_17  t_17  1.0
    x_13_18  OBJ  64.0
    x_13_18  a_13  1.0
    x_13_18  t_18  1.0
    x_13_19  OBJ  31.0
    x_13_19  a_13  1.0
    x_13_19  t_19  1.0
    x_13_20  OBJ  40.0
    x_13_20  a_13  1.0
    x_13_20  t_20  1.0
    x_13_21  OBJ  73.0
    x_13_21  a_13  1.0
    x_13_21  t_21  1.0
    x_13_22  OBJ  79.0
    x_13_22  a_13  1.0
    x_13_22  t_22  1.0
    x_13_23  OBJ  62.0
    x_13_23  a_13  1.0
    x_13_23  t_23  1.0
    x_13_24  OBJ  92.0
    x_13_24  a_13  1.0
    x_13_24  t_24  1.0
    x_13_25  OBJ  69.0
    x_13_25  a_13  1.0
    x_13_25  t_25  1.0
    x_13_26  OBJ  47.0
    x_13_26  a_13  1.0
    x_13_26  t_26  1.0
    x_13_27  OBJ  11.0
    x_13_27  a_13  1.0
    x_13_27  t_27  1.0
    x_13_28  OBJ  65.0
    x_13_28  a_13  1.0
    x_13_28  t_28  1.0
    x_13_29  OBJ  54.0
    x_13_29  a_13  1.0
    x_13_29  t_29  1.0
    x_13_30  OBJ  21.0
    x_13_30  a_13  1.0
    x_13_30  t_30  1.0
    x_13_31  OBJ  99.0
    x_13_31  a_13  1.0
    x_13_31  t_31  1.0
    x_13_32  OBJ  29.0
    x_13_32  a_13  1.0
    x_13_32  t_32  1.0
    x_13_33  OBJ  56.0
    x_13_33  a_13  1.0
    x_13_33  t_33  1.0
    x_13_34  OBJ  17.0
    x_13_34  a_13  1.0
    x_13_34  t_34  1.0
    x_13_35  OBJ  20.0
    x_13_35  a_13  1.0
    x_13_35  t_35  1.0
    x_13_36  OBJ  55.0
    x_13_36  a_13  1.0
    x_13_36  t_36  1.0
    x_13_37  OBJ  6.0
    x_13_37  a_13  1.0
    x_13_37  t_37  1.0
    x_13_38  OBJ  56.0
    x_13_38  a_13  1.0
    x_13_38  t_38  1.0
    x_13_39  OBJ  33.0
    x_13_39  a_13  1.0
    x_13_39  t_39  1.0
    x_13_40  OBJ  8.0
    x_13_40  a_13  1.0
    x_13_40  t_40  1.0
    x_13_41  OBJ  74.0
    x_13_41  a_13  1.0
    x_13_41  t_41  1.0
    x_13_42  OBJ  97.0
    x_13_42  a_13  1.0
    x_13_42  t_42  1.0
    x_13_43  OBJ  3.0
    x_13_43  a_13  1.0
    x_13_43  t_43  1.0
    x_13_44  OBJ  42.0
    x_13_44  a_13  1.0
    x_13_44  t_44  1.0
    x_13_45  OBJ  5.0
    x_13_45  a_13  1.0
    x_13_45  t_45  1.0
    x_13_46  OBJ  93.0
    x_13_46  a_13  1.0
    x_13_46  t_46  1.0
    x_13_47  OBJ  66.0
    x_13_47  a_13  1.0
    x_13_47  t_47  1.0
    x_13_48  OBJ  39.0
    x_13_48  a_13  1.0
    x_13_48  t_48  1.0
    x_13_49  OBJ  88.0
    x_13_49  a_13  1.0
    x_13_49  t_49  1.0
    x_13_50  OBJ  50.0
    x_13_50  a_13  1.0
    x_13_50  t_50  1.0
    x_13_51  OBJ  44.0
    x_13_51  a_13  1.0
    x_13_51  t_51  1.0
    x_13_52  OBJ  8.0
    x_13_52  a_13  1.0
    x_13_52  t_52  1.0
    x_13_53  OBJ  62.0
    x_13_53  a_13  1.0
    x_13_53  t_53  1.0
    x_13_54  OBJ  51.0
    x_13_54  a_13  1.0
    x_13_54  t_54  1.0
    x_13_55  OBJ  26.0
    x_13_55  a_13  1.0
    x_13_55  t_55  1.0
    x_13_56  OBJ  52.0
    x_13_56  a_13  1.0
    x_13_56  t_56  1.0
    x_13_57  OBJ  27.0
    x_13_57  a_13  1.0
    x_13_57  t_57  1.0
    x_13_58  OBJ  29.0
    x_13_58  a_13  1.0
    x_13_58  t_58  1.0
    x_13_59  OBJ  48.0
    x_13_59  a_13  1.0
    x_13_59  t_59  1.0
    x_14_0  OBJ  43.0
    x_14_0  a_14  1.0
    x_14_0  t_0  1.0
    x_14_1  OBJ  22.0
    x_14_1  a_14  1.0
    x_14_1  t_1  1.0
    x_14_2  OBJ  94.0
    x_14_2  a_14  1.0
    x_14_2  t_2  1.0
    x_14_3  OBJ  45.0
    x_14_3  a_14  1.0
    x_14_3  t_3  1.0
    x_14_4  OBJ  41.0
    x_14_4  a_14  1.0
    x_14_4  t_4  1.0
    x_14_5  OBJ  15.0
    x_14_5  a_14  1.0
    x_14_5  t_5  1.0
    x_14_6  OBJ  63.0
    x_14_6  a_14  1.0
    x_14_6  t_6  1.0
    x_14_7  OBJ  92.0
    x_14_7  a_14  1.0
    x_14_7  t_7  1.0
    x_14_8  OBJ  3.0
    x_14_8  a_14  1.0
    x_14_8  t_8  1.0
    x_14_9  OBJ  65.0
    x_14_9  a_14  1.0
    x_14_9  t_9  1.0
    x_14_10  OBJ  37.0
    x_14_10  a_14  1.0
    x_14_10  t_10  1.0
    x_14_11  OBJ  10.0
    x_14_11  a_14  1.0
    x_14_11  t_11  1.0
    x_14_12  OBJ  23.0
    x_14_12  a_14  1.0
    x_14_12  t_12  1.0
    x_14_13  OBJ  20.0
    x_14_13  a_14  1.0
    x_14_13  t_13  1.0
    x_14_14  OBJ  96.0
    x_14_14  a_14  1.0
    x_14_14  t_14  1.0
    x_14_15  OBJ  83.0
    x_14_15  a_14  1.0
    x_14_15  t_15  1.0
    x_14_16  OBJ  65.0
    x_14_16  a_14  1.0
    x_14_16  t_16  1.0
    x_14_17  OBJ  37.0
    x_14_17  a_14  1.0
    x_14_17  t_17  1.0
    x_14_18  OBJ  97.0
    x_14_18  a_14  1.0
    x_14_18  t_18  1.0
    x_14_19  OBJ  26.0
    x_14_19  a_14  1.0
    x_14_19  t_19  1.0
    x_14_20  OBJ  58.0
    x_14_20  a_14  1.0
    x_14_20  t_20  1.0
    x_14_21  OBJ  3.0
    x_14_21  a_14  1.0
    x_14_21  t_21  1.0
    x_14_22  OBJ  97.0
    x_14_22  a_14  1.0
    x_14_22  t_22  1.0
    x_14_23  OBJ  67.0
    x_14_23  a_14  1.0
    x_14_23  t_23  1.0
    x_14_24  OBJ  48.0
    x_14_24  a_14  1.0
    x_14_24  t_24  1.0
    x_14_25  OBJ  57.0
    x_14_25  a_14  1.0
    x_14_25  t_25  1.0
    x_14_26  OBJ  82.0
    x_14_26  a_14  1.0
    x_14_26  t_26  1.0
    x_14_27  OBJ  84.0
    x_14_27  a_14  1.0
    x_14_27  t_27  1.0
    x_14_28  OBJ  53.0
    x_14_28  a_14  1.0
    x_14_28  t_28  1.0
    x_14_29  OBJ  17.0
    x_14_29  a_14  1.0
    x_14_29  t_29  1.0
    x_14_30  OBJ  42.0
    x_14_30  a_14  1.0
    x_14_30  t_30  1.0
    x_14_31  OBJ  75.0
    x_14_31  a_14  1.0
    x_14_31  t_31  1.0
    x_14_32  OBJ  75.0
    x_14_32  a_14  1.0
    x_14_32  t_32  1.0
    x_14_33  OBJ  82.0
    x_14_33  a_14  1.0
    x_14_33  t_33  1.0
    x_14_34  OBJ  87.0
    x_14_34  a_14  1.0
    x_14_34  t_34  1.0
    x_14_35  OBJ  82.0
    x_14_35  a_14  1.0
    x_14_35  t_35  1.0
    x_14_36  OBJ  99.0
    x_14_36  a_14  1.0
    x_14_36  t_36  1.0
    x_14_37  OBJ  74.0
    x_14_37  a_14  1.0
    x_14_37  t_37  1.0
    x_14_38  OBJ  44.0
    x_14_38  a_14  1.0
    x_14_38  t_38  1.0
    x_14_39  OBJ  44.0
    x_14_39  a_14  1.0
    x_14_39  t_39  1.0
    x_14_40  OBJ  83.0
    x_14_40  a_14  1.0
    x_14_40  t_40  1.0
    x_14_41  OBJ  5.0
    x_14_41  a_14  1.0
    x_14_41  t_41  1.0
    x_14_42  OBJ  55.0
    x_14_42  a_14  1.0
    x_14_42  t_42  1.0
    x_14_43  OBJ  64.0
    x_14_43  a_14  1.0
    x_14_43  t_43  1.0
    x_14_44  OBJ  49.0
    x_14_44  a_14  1.0
    x_14_44  t_44  1.0
    x_14_45  OBJ  3.0
    x_14_45  a_14  1.0
    x_14_45  t_45  1.0
    x_14_46  OBJ  73.0
    x_14_46  a_14  1.0
    x_14_46  t_46  1.0
    x_14_47  OBJ  9.0
    x_14_47  a_14  1.0
    x_14_47  t_47  1.0
    x_14_48  OBJ  8.0
    x_14_48  a_14  1.0
    x_14_48  t_48  1.0
    x_14_49  OBJ  41.0
    x_14_49  a_14  1.0
    x_14_49  t_49  1.0
    x_14_50  OBJ  90.0
    x_14_50  a_14  1.0
    x_14_50  t_50  1.0
    x_14_51  OBJ  12.0
    x_14_51  a_14  1.0
    x_14_51  t_51  1.0
    x_14_52  OBJ  9.0
    x_14_52  a_14  1.0
    x_14_52  t_52  1.0
    x_14_53  OBJ  45.0
    x_14_53  a_14  1.0
    x_14_53  t_53  1.0
    x_14_54  OBJ  44.0
    x_14_54  a_14  1.0
    x_14_54  t_54  1.0
    x_14_55  OBJ  85.0
    x_14_55  a_14  1.0
    x_14_55  t_55  1.0
    x_14_56  OBJ  26.0
    x_14_56  a_14  1.0
    x_14_56  t_56  1.0
    x_14_57  OBJ  18.0
    x_14_57  a_14  1.0
    x_14_57  t_57  1.0
    x_14_58  OBJ  38.0
    x_14_58  a_14  1.0
    x_14_58  t_58  1.0
    x_14_59  OBJ  80.0
    x_14_59  a_14  1.0
    x_14_59  t_59  1.0
    x_15_0  OBJ  70.0
    x_15_0  a_15  1.0
    x_15_0  t_0  1.0
    x_15_1  OBJ  99.0
    x_15_1  a_15  1.0
    x_15_1  t_1  1.0
    x_15_2  OBJ  35.0
    x_15_2  a_15  1.0
    x_15_2  t_2  1.0
    x_15_3  OBJ  4.0
    x_15_3  a_15  1.0
    x_15_3  t_3  1.0
    x_15_4  OBJ  96.0
    x_15_4  a_15  1.0
    x_15_4  t_4  1.0
    x_15_5  OBJ  42.0
    x_15_5  a_15  1.0
    x_15_5  t_5  1.0
    x_15_6  OBJ  31.0
    x_15_6  a_15  1.0
    x_15_6  t_6  1.0
    x_15_7  OBJ  71.0
    x_15_7  a_15  1.0
    x_15_7  t_7  1.0
    x_15_8  OBJ  24.0
    x_15_8  a_15  1.0
    x_15_8  t_8  1.0
    x_15_9  OBJ  73.0
    x_15_9  a_15  1.0
    x_15_9  t_9  1.0
    x_15_10  OBJ  8.0
    x_15_10  a_15  1.0
    x_15_10  t_10  1.0
    x_15_11  OBJ  28.0
    x_15_11  a_15  1.0
    x_15_11  t_11  1.0
    x_15_12  OBJ  33.0
    x_15_12  a_15  1.0
    x_15_12  t_12  1.0
    x_15_13  OBJ  81.0
    x_15_13  a_15  1.0
    x_15_13  t_13  1.0
    x_15_14  OBJ  93.0
    x_15_14  a_15  1.0
    x_15_14  t_14  1.0
    x_15_15  OBJ  37.0
    x_15_15  a_15  1.0
    x_15_15  t_15  1.0
    x_15_16  OBJ  4.0
    x_15_16  a_15  1.0
    x_15_16  t_16  1.0
    x_15_17  OBJ  20.0
    x_15_17  a_15  1.0
    x_15_17  t_17  1.0
    x_15_18  OBJ  12.0
    x_15_18  a_15  1.0
    x_15_18  t_18  1.0
    x_15_19  OBJ  52.0
    x_15_19  a_15  1.0
    x_15_19  t_19  1.0
    x_15_20  OBJ  63.0
    x_15_20  a_15  1.0
    x_15_20  t_20  1.0
    x_15_21  OBJ  61.0
    x_15_21  a_15  1.0
    x_15_21  t_21  1.0
    x_15_22  OBJ  49.0
    x_15_22  a_15  1.0
    x_15_22  t_22  1.0
    x_15_23  OBJ  83.0
    x_15_23  a_15  1.0
    x_15_23  t_23  1.0
    x_15_24  OBJ  37.0
    x_15_24  a_15  1.0
    x_15_24  t_24  1.0
    x_15_25  OBJ  66.0
    x_15_25  a_15  1.0
    x_15_25  t_25  1.0
    x_15_26  OBJ  35.0
    x_15_26  a_15  1.0
    x_15_26  t_26  1.0
    x_15_27  OBJ  9.0
    x_15_27  a_15  1.0
    x_15_27  t_27  1.0
    x_15_28  OBJ  26.0
    x_15_28  a_15  1.0
    x_15_28  t_28  1.0
    x_15_29  OBJ  57.0
    x_15_29  a_15  1.0
    x_15_29  t_29  1.0
    x_15_30  OBJ  33.0
    x_15_30  a_15  1.0
    x_15_30  t_30  1.0
    x_15_31  OBJ  35.0
    x_15_31  a_15  1.0
    x_15_31  t_31  1.0
    x_15_32  OBJ  55.0
    x_15_32  a_15  1.0
    x_15_32  t_32  1.0
    x_15_33  OBJ  70.0
    x_15_33  a_15  1.0
    x_15_33  t_33  1.0
    x_15_34  OBJ  8.0
    x_15_34  a_15  1.0
    x_15_34  t_34  1.0
    x_15_35  OBJ  5.0
    x_15_35  a_15  1.0
    x_15_35  t_35  1.0
    x_15_36  OBJ  7.0
    x_15_36  a_15  1.0
    x_15_36  t_36  1.0
    x_15_37  OBJ  66.0
    x_15_37  a_15  1.0
    x_15_37  t_37  1.0
    x_15_38  OBJ  27.0
    x_15_38  a_15  1.0
    x_15_38  t_38  1.0
    x_15_39  OBJ  79.0
    x_15_39  a_15  1.0
    x_15_39  t_39  1.0
    x_15_40  OBJ  50.0
    x_15_40  a_15  1.0
    x_15_40  t_40  1.0
    x_15_41  OBJ  4.0
    x_15_41  a_15  1.0
    x_15_41  t_41  1.0
    x_15_42  OBJ  28.0
    x_15_42  a_15  1.0
    x_15_42  t_42  1.0
    x_15_43  OBJ  2.0
    x_15_43  a_15  1.0
    x_15_43  t_43  1.0
    x_15_44  OBJ  56.0
    x_15_44  a_15  1.0
    x_15_44  t_44  1.0
    x_15_45  OBJ  89.0
    x_15_45  a_15  1.0
    x_15_45  t_45  1.0
    x_15_46  OBJ  6.0
    x_15_46  a_15  1.0
    x_15_46  t_46  1.0
    x_15_47  OBJ  89.0
    x_15_47  a_15  1.0
    x_15_47  t_47  1.0
    x_15_48  OBJ  41.0
    x_15_48  a_15  1.0
    x_15_48  t_48  1.0
    x_15_49  OBJ  18.0
    x_15_49  a_15  1.0
    x_15_49  t_49  1.0
    x_15_50  OBJ  86.0
    x_15_50  a_15  1.0
    x_15_50  t_50  1.0
    x_15_51  OBJ  92.0
    x_15_51  a_15  1.0
    x_15_51  t_51  1.0
    x_15_52  OBJ  52.0
    x_15_52  a_15  1.0
    x_15_52  t_52  1.0
    x_15_53  OBJ  41.0
    x_15_53  a_15  1.0
    x_15_53  t_53  1.0
    x_15_54  OBJ  79.0
    x_15_54  a_15  1.0
    x_15_54  t_54  1.0
    x_15_55  OBJ  52.0
    x_15_55  a_15  1.0
    x_15_55  t_55  1.0
    x_15_56  OBJ  83.0
    x_15_56  a_15  1.0
    x_15_56  t_56  1.0
    x_15_57  OBJ  47.0
    x_15_57  a_15  1.0
    x_15_57  t_57  1.0
    x_15_58  OBJ  27.0
    x_15_58  a_15  1.0
    x_15_58  t_58  1.0
    x_15_59  OBJ  34.0
    x_15_59  a_15  1.0
    x_15_59  t_59  1.0
    x_16_0  OBJ  26.0
    x_16_0  a_16  1.0
    x_16_0  t_0  1.0
    x_16_1  OBJ  88.0
    x_16_1  a_16  1.0
    x_16_1  t_1  1.0
    x_16_2  OBJ  54.0
    x_16_2  a_16  1.0
    x_16_2  t_2  1.0
    x_16_3  OBJ  61.0
    x_16_3  a_16  1.0
    x_16_3  t_3  1.0
    x_16_4  OBJ  97.0
    x_16_4  a_16  1.0
    x_16_4  t_4  1.0
    x_16_5  OBJ  93.0
    x_16_5  a_16  1.0
    x_16_5  t_5  1.0
    x_16_6  OBJ  64.0
    x_16_6  a_16  1.0
    x_16_6  t_6  1.0
    x_16_7  OBJ  62.0
    x_16_7  a_16  1.0
    x_16_7  t_7  1.0
    x_16_8  OBJ  11.0
    x_16_8  a_16  1.0
    x_16_8  t_8  1.0
    x_16_9  OBJ  92.0
    x_16_9  a_16  1.0
    x_16_9  t_9  1.0
    x_16_10  OBJ  39.0
    x_16_10  a_16  1.0
    x_16_10  t_10  1.0
    x_16_11  OBJ  52.0
    x_16_11  a_16  1.0
    x_16_11  t_11  1.0
    x_16_12  OBJ  26.0
    x_16_12  a_16  1.0
    x_16_12  t_12  1.0
    x_16_13  OBJ  48.0
    x_16_13  a_16  1.0
    x_16_13  t_13  1.0
    x_16_14  OBJ  56.0
    x_16_14  a_16  1.0
    x_16_14  t_14  1.0
    x_16_15  OBJ  57.0
    x_16_15  a_16  1.0
    x_16_15  t_15  1.0
    x_16_16  OBJ  74.0
    x_16_16  a_16  1.0
    x_16_16  t_16  1.0
    x_16_17  OBJ  1.0
    x_16_17  a_16  1.0
    x_16_17  t_17  1.0
    x_16_18  OBJ  65.0
    x_16_18  a_16  1.0
    x_16_18  t_18  1.0
    x_16_19  OBJ  76.0
    x_16_19  a_16  1.0
    x_16_19  t_19  1.0
    x_16_20  OBJ  78.0
    x_16_20  a_16  1.0
    x_16_20  t_20  1.0
    x_16_21  OBJ  14.0
    x_16_21  a_16  1.0
    x_16_21  t_21  1.0
    x_16_22  OBJ  87.0
    x_16_22  a_16  1.0
    x_16_22  t_22  1.0
    x_16_23  OBJ  94.0
    x_16_23  a_16  1.0
    x_16_23  t_23  1.0
    x_16_24  OBJ  73.0
    x_16_24  a_16  1.0
    x_16_24  t_24  1.0
    x_16_25  OBJ  5.0
    x_16_25  a_16  1.0
    x_16_25  t_25  1.0
    x_16_26  OBJ  36.0
    x_16_26  a_16  1.0
    x_16_26  t_26  1.0
    x_16_27  OBJ  71.0
    x_16_27  a_16  1.0
    x_16_27  t_27  1.0
    x_16_28  OBJ  48.0
    x_16_28  a_16  1.0
    x_16_28  t_28  1.0
    x_16_29  OBJ  77.0
    x_16_29  a_16  1.0
    x_16_29  t_29  1.0
    x_16_30  OBJ  47.0
    x_16_30  a_16  1.0
    x_16_30  t_30  1.0
    x_16_31  OBJ  54.0
    x_16_31  a_16  1.0
    x_16_31  t_31  1.0
    x_16_32  OBJ  28.0
    x_16_32  a_16  1.0
    x_16_32  t_32  1.0
    x_16_33  OBJ  10.0
    x_16_33  a_16  1.0
    x_16_33  t_33  1.0
    x_16_34  OBJ  37.0
    x_16_34  a_16  1.0
    x_16_34  t_34  1.0
    x_16_35  OBJ  81.0
    x_16_35  a_16  1.0
    x_16_35  t_35  1.0
    x_16_36  OBJ  85.0
    x_16_36  a_16  1.0
    x_16_36  t_36  1.0
    x_16_37  OBJ  32.0
    x_16_37  a_16  1.0
    x_16_37  t_37  1.0
    x_16_38  OBJ  64.0
    x_16_38  a_16  1.0
    x_16_38  t_38  1.0
    x_16_39  OBJ  29.0
    x_16_39  a_16  1.0
    x_16_39  t_39  1.0
    x_16_40  OBJ  32.0
    x_16_40  a_16  1.0
    x_16_40  t_40  1.0
    x_16_41  OBJ  69.0
    x_16_41  a_16  1.0
    x_16_41  t_41  1.0
    x_16_42  OBJ  16.0
    x_16_42  a_16  1.0
    x_16_42  t_42  1.0
    x_16_43  OBJ  97.0
    x_16_43  a_16  1.0
    x_16_43  t_43  1.0
    x_16_44  OBJ  81.0
    x_16_44  a_16  1.0
    x_16_44  t_44  1.0
    x_16_45  OBJ  10.0
    x_16_45  a_16  1.0
    x_16_45  t_45  1.0
    x_16_46  OBJ  12.0
    x_16_46  a_16  1.0
    x_16_46  t_46  1.0
    x_16_47  OBJ  44.0
    x_16_47  a_16  1.0
    x_16_47  t_47  1.0
    x_16_48  OBJ  28.0
    x_16_48  a_16  1.0
    x_16_48  t_48  1.0
    x_16_49  OBJ  67.0
    x_16_49  a_16  1.0
    x_16_49  t_49  1.0
    x_16_50  OBJ  79.0
    x_16_50  a_16  1.0
    x_16_50  t_50  1.0
    x_16_51  OBJ  28.0
    x_16_51  a_16  1.0
    x_16_51  t_51  1.0
    x_16_52  OBJ  84.0
    x_16_52  a_16  1.0
    x_16_52  t_52  1.0
    x_16_53  OBJ  92.0
    x_16_53  a_16  1.0
    x_16_53  t_53  1.0
    x_16_54  OBJ  49.0
    x_16_54  a_16  1.0
    x_16_54  t_54  1.0
    x_16_55  OBJ  60.0
    x_16_55  a_16  1.0
    x_16_55  t_55  1.0
    x_16_56  OBJ  39.0
    x_16_56  a_16  1.0
    x_16_56  t_56  1.0
    x_16_57  OBJ  8.0
    x_16_57  a_16  1.0
    x_16_57  t_57  1.0
    x_16_58  OBJ  47.0
    x_16_58  a_16  1.0
    x_16_58  t_58  1.0
    x_16_59  OBJ  16.0
    x_16_59  a_16  1.0
    x_16_59  t_59  1.0
    x_17_0  OBJ  81.0
    x_17_0  a_17  1.0
    x_17_0  t_0  1.0
    x_17_1  OBJ  15.0
    x_17_1  a_17  1.0
    x_17_1  t_1  1.0
    x_17_2  OBJ  24.0
    x_17_2  a_17  1.0
    x_17_2  t_2  1.0
    x_17_3  OBJ  46.0
    x_17_3  a_17  1.0
    x_17_3  t_3  1.0
    x_17_4  OBJ  2.0
    x_17_4  a_17  1.0
    x_17_4  t_4  1.0
    x_17_5  OBJ  91.0
    x_17_5  a_17  1.0
    x_17_5  t_5  1.0
    x_17_6  OBJ  40.0
    x_17_6  a_17  1.0
    x_17_6  t_6  1.0
    x_17_7  OBJ  12.0
    x_17_7  a_17  1.0
    x_17_7  t_7  1.0
    x_17_8  OBJ  6.0
    x_17_8  a_17  1.0
    x_17_8  t_8  1.0
    x_17_9  OBJ  15.0
    x_17_9  a_17  1.0
    x_17_9  t_9  1.0
    x_17_10  OBJ  8.0
    x_17_10  a_17  1.0
    x_17_10  t_10  1.0
    x_17_11  OBJ  21.0
    x_17_11  a_17  1.0
    x_17_11  t_11  1.0
    x_17_12  OBJ  24.0
    x_17_12  a_17  1.0
    x_17_12  t_12  1.0
    x_17_13  OBJ  57.0
    x_17_13  a_17  1.0
    x_17_13  t_13  1.0
    x_17_14  OBJ  94.0
    x_17_14  a_17  1.0
    x_17_14  t_14  1.0
    x_17_15  OBJ  43.0
    x_17_15  a_17  1.0
    x_17_15  t_15  1.0
    x_17_16  OBJ  60.0
    x_17_16  a_17  1.0
    x_17_16  t_16  1.0
    x_17_17  OBJ  42.0
    x_17_17  a_17  1.0
    x_17_17  t_17  1.0
    x_17_18  OBJ  90.0
    x_17_18  a_17  1.0
    x_17_18  t_18  1.0
    x_17_19  OBJ  15.0
    x_17_19  a_17  1.0
    x_17_19  t_19  1.0
    x_17_20  OBJ  78.0
    x_17_20  a_17  1.0
    x_17_20  t_20  1.0
    x_17_21  OBJ  82.0
    x_17_21  a_17  1.0
    x_17_21  t_21  1.0
    x_17_22  OBJ  34.0
    x_17_22  a_17  1.0
    x_17_22  t_22  1.0
    x_17_23  OBJ  48.0
    x_17_23  a_17  1.0
    x_17_23  t_23  1.0
    x_17_24  OBJ  42.0
    x_17_24  a_17  1.0
    x_17_24  t_24  1.0
    x_17_25  OBJ  86.0
    x_17_25  a_17  1.0
    x_17_25  t_25  1.0
    x_17_26  OBJ  1.0
    x_17_26  a_17  1.0
    x_17_26  t_26  1.0
    x_17_27  OBJ  3.0
    x_17_27  a_17  1.0
    x_17_27  t_27  1.0
    x_17_28  OBJ  26.0
    x_17_28  a_17  1.0
    x_17_28  t_28  1.0
    x_17_29  OBJ  46.0
    x_17_29  a_17  1.0
    x_17_29  t_29  1.0
    x_17_30  OBJ  39.0
    x_17_30  a_17  1.0
    x_17_30  t_30  1.0
    x_17_31  OBJ  37.0
    x_17_31  a_17  1.0
    x_17_31  t_31  1.0
    x_17_32  OBJ  75.0
    x_17_32  a_17  1.0
    x_17_32  t_32  1.0
    x_17_33  OBJ  84.0
    x_17_33  a_17  1.0
    x_17_33  t_33  1.0
    x_17_34  OBJ  16.0
    x_17_34  a_17  1.0
    x_17_34  t_34  1.0
    x_17_35  OBJ  69.0
    x_17_35  a_17  1.0
    x_17_35  t_35  1.0
    x_17_36  OBJ  69.0
    x_17_36  a_17  1.0
    x_17_36  t_36  1.0
    x_17_37  OBJ  52.0
    x_17_37  a_17  1.0
    x_17_37  t_37  1.0
    x_17_38  OBJ  94.0
    x_17_38  a_17  1.0
    x_17_38  t_38  1.0
    x_17_39  OBJ  16.0
    x_17_39  a_17  1.0
    x_17_39  t_39  1.0
    x_17_40  OBJ  55.0
    x_17_40  a_17  1.0
    x_17_40  t_40  1.0
    x_17_41  OBJ  68.0
    x_17_41  a_17  1.0
    x_17_41  t_41  1.0
    x_17_42  OBJ  32.0
    x_17_42  a_17  1.0
    x_17_42  t_42  1.0
    x_17_43  OBJ  89.0
    x_17_43  a_17  1.0
    x_17_43  t_43  1.0
    x_17_44  OBJ  55.0
    x_17_44  a_17  1.0
    x_17_44  t_44  1.0
    x_17_45  OBJ  77.0
    x_17_45  a_17  1.0
    x_17_45  t_45  1.0
    x_17_46  OBJ  33.0
    x_17_46  a_17  1.0
    x_17_46  t_46  1.0
    x_17_47  OBJ  96.0
    x_17_47  a_17  1.0
    x_17_47  t_47  1.0
    x_17_48  OBJ  43.0
    x_17_48  a_17  1.0
    x_17_48  t_48  1.0
    x_17_49  OBJ  59.0
    x_17_49  a_17  1.0
    x_17_49  t_49  1.0
    x_17_50  OBJ  16.0
    x_17_50  a_17  1.0
    x_17_50  t_50  1.0
    x_17_51  OBJ  32.0
    x_17_51  a_17  1.0
    x_17_51  t_51  1.0
    x_17_52  OBJ  98.0
    x_17_52  a_17  1.0
    x_17_52  t_52  1.0
    x_17_53  OBJ  22.0
    x_17_53  a_17  1.0
    x_17_53  t_53  1.0
    x_17_54  OBJ  68.0
    x_17_54  a_17  1.0
    x_17_54  t_54  1.0
    x_17_55  OBJ  80.0
    x_17_55  a_17  1.0
    x_17_55  t_55  1.0
    x_17_56  OBJ  14.0
    x_17_56  a_17  1.0
    x_17_56  t_56  1.0
    x_17_57  OBJ  81.0
    x_17_57  a_17  1.0
    x_17_57  t_57  1.0
    x_17_58  OBJ  38.0
    x_17_58  a_17  1.0
    x_17_58  t_58  1.0
    x_17_59  OBJ  63.0
    x_17_59  a_17  1.0
    x_17_59  t_59  1.0
    x_18_0  OBJ  66.0
    x_18_0  a_18  1.0
    x_18_0  t_0  1.0
    x_18_1  OBJ  78.0
    x_18_1  a_18  1.0
    x_18_1  t_1  1.0
    x_18_2  OBJ  28.0
    x_18_2  a_18  1.0
    x_18_2  t_2  1.0
    x_18_3  OBJ  49.0
    x_18_3  a_18  1.0
    x_18_3  t_3  1.0
    x_18_4  OBJ  27.0
    x_18_4  a_18  1.0
    x_18_4  t_4  1.0
    x_18_5  OBJ  85.0
    x_18_5  a_18  1.0
    x_18_5  t_5  1.0
    x_18_6  OBJ  27.0
    x_18_6  a_18  1.0
    x_18_6  t_6  1.0
    x_18_7  OBJ  69.0
    x_18_7  a_18  1.0
    x_18_7  t_7  1.0
    x_18_8  OBJ  1.0
    x_18_8  a_18  1.0
    x_18_8  t_8  1.0
    x_18_9  OBJ  24.0
    x_18_9  a_18  1.0
    x_18_9  t_9  1.0
    x_18_10  OBJ  64.0
    x_18_10  a_18  1.0
    x_18_10  t_10  1.0
    x_18_11  OBJ  59.0
    x_18_11  a_18  1.0
    x_18_11  t_11  1.0
    x_18_12  OBJ  26.0
    x_18_12  a_18  1.0
    x_18_12  t_12  1.0
    x_18_13  OBJ  65.0
    x_18_13  a_18  1.0
    x_18_13  t_13  1.0
    x_18_14  OBJ  40.0
    x_18_14  a_18  1.0
    x_18_14  t_14  1.0
    x_18_15  OBJ  21.0
    x_18_15  a_18  1.0
    x_18_15  t_15  1.0
    x_18_16  OBJ  92.0
    x_18_16  a_18  1.0
    x_18_16  t_16  1.0
    x_18_17  OBJ  93.0
    x_18_17  a_18  1.0
    x_18_17  t_17  1.0
    x_18_18  OBJ  74.0
    x_18_18  a_18  1.0
    x_18_18  t_18  1.0
    x_18_19  OBJ  80.0
    x_18_19  a_18  1.0
    x_18_19  t_19  1.0
    x_18_20  OBJ  94.0
    x_18_20  a_18  1.0
    x_18_20  t_20  1.0
    x_18_21  OBJ  15.0
    x_18_21  a_18  1.0
    x_18_21  t_21  1.0
    x_18_22  OBJ  21.0
    x_18_22  a_18  1.0
    x_18_22  t_22  1.0
    x_18_23  OBJ  22.0
    x_18_23  a_18  1.0
    x_18_23  t_23  1.0
    x_18_24  OBJ  23.0
    x_18_24  a_18  1.0
    x_18_24  t_24  1.0
    x_18_25  OBJ  1.0
    x_18_25  a_18  1.0
    x_18_25  t_25  1.0
    x_18_26  OBJ  99.0
    x_18_26  a_18  1.0
    x_18_26  t_26  1.0
    x_18_27  OBJ  94.0
    x_18_27  a_18  1.0
    x_18_27  t_27  1.0
    x_18_28  OBJ  17.0
    x_18_28  a_18  1.0
    x_18_28  t_28  1.0
    x_18_29  OBJ  18.0
    x_18_29  a_18  1.0
    x_18_29  t_29  1.0
    x_18_30  OBJ  92.0
    x_18_30  a_18  1.0
    x_18_30  t_30  1.0
    x_18_31  OBJ  83.0
    x_18_31  a_18  1.0
    x_18_31  t_31  1.0
    x_18_32  OBJ  25.0
    x_18_32  a_18  1.0
    x_18_32  t_32  1.0
    x_18_33  OBJ  51.0
    x_18_33  a_18  1.0
    x_18_33  t_33  1.0
    x_18_34  OBJ  84.0
    x_18_34  a_18  1.0
    x_18_34  t_34  1.0
    x_18_35  OBJ  6.0
    x_18_35  a_18  1.0
    x_18_35  t_35  1.0
    x_18_36  OBJ  82.0
    x_18_36  a_18  1.0
    x_18_36  t_36  1.0
    x_18_37  OBJ  21.0
    x_18_37  a_18  1.0
    x_18_37  t_37  1.0
    x_18_38  OBJ  8.0
    x_18_38  a_18  1.0
    x_18_38  t_38  1.0
    x_18_39  OBJ  26.0
    x_18_39  a_18  1.0
    x_18_39  t_39  1.0
    x_18_40  OBJ  46.0
    x_18_40  a_18  1.0
    x_18_40  t_40  1.0
    x_18_41  OBJ  76.0
    x_18_41  a_18  1.0
    x_18_41  t_41  1.0
    x_18_42  OBJ  55.0
    x_18_42  a_18  1.0
    x_18_42  t_42  1.0
    x_18_43  OBJ  37.0
    x_18_43  a_18  1.0
    x_18_43  t_43  1.0
    x_18_44  OBJ  35.0
    x_18_44  a_18  1.0
    x_18_44  t_44  1.0
    x_18_45  OBJ  15.0
    x_18_45  a_18  1.0
    x_18_45  t_45  1.0
    x_18_46  OBJ  80.0
    x_18_46  a_18  1.0
    x_18_46  t_46  1.0
    x_18_47  OBJ  94.0
    x_18_47  a_18  1.0
    x_18_47  t_47  1.0
    x_18_48  OBJ  66.0
    x_18_48  a_18  1.0
    x_18_48  t_48  1.0
    x_18_49  OBJ  51.0
    x_18_49  a_18  1.0
    x_18_49  t_49  1.0
    x_18_50  OBJ  10.0
    x_18_50  a_18  1.0
    x_18_50  t_50  1.0
    x_18_51  OBJ  7.0
    x_18_51  a_18  1.0
    x_18_51  t_51  1.0
    x_18_52  OBJ  56.0
    x_18_52  a_18  1.0
    x_18_52  t_52  1.0
    x_18_53  OBJ  97.0
    x_18_53  a_18  1.0
    x_18_53  t_53  1.0
    x_18_54  OBJ  90.0
    x_18_54  a_18  1.0
    x_18_54  t_54  1.0
    x_18_55  OBJ  67.0
    x_18_55  a_18  1.0
    x_18_55  t_55  1.0
    x_18_56  OBJ  87.0
    x_18_56  a_18  1.0
    x_18_56  t_56  1.0
    x_18_57  OBJ  44.0
    x_18_57  a_18  1.0
    x_18_57  t_57  1.0
    x_18_58  OBJ  81.0
    x_18_58  a_18  1.0
    x_18_58  t_58  1.0
    x_18_59  OBJ  15.0
    x_18_59  a_18  1.0
    x_18_59  t_59  1.0
    x_19_0  OBJ  85.0
    x_19_0  a_19  1.0
    x_19_0  t_0  1.0
    x_19_1  OBJ  69.0
    x_19_1  a_19  1.0
    x_19_1  t_1  1.0
    x_19_2  OBJ  86.0
    x_19_2  a_19  1.0
    x_19_2  t_2  1.0
    x_19_3  OBJ  10.0
    x_19_3  a_19  1.0
    x_19_3  t_3  1.0
    x_19_4  OBJ  87.0
    x_19_4  a_19  1.0
    x_19_4  t_4  1.0
    x_19_5  OBJ  93.0
    x_19_5  a_19  1.0
    x_19_5  t_5  1.0
    x_19_6  OBJ  88.0
    x_19_6  a_19  1.0
    x_19_6  t_6  1.0
    x_19_7  OBJ  75.0
    x_19_7  a_19  1.0
    x_19_7  t_7  1.0
    x_19_8  OBJ  87.0
    x_19_8  a_19  1.0
    x_19_8  t_8  1.0
    x_19_9  OBJ  71.0
    x_19_9  a_19  1.0
    x_19_9  t_9  1.0
    x_19_10  OBJ  13.0
    x_19_10  a_19  1.0
    x_19_10  t_10  1.0
    x_19_11  OBJ  77.0
    x_19_11  a_19  1.0
    x_19_11  t_11  1.0
    x_19_12  OBJ  9.0
    x_19_12  a_19  1.0
    x_19_12  t_12  1.0
    x_19_13  OBJ  86.0
    x_19_13  a_19  1.0
    x_19_13  t_13  1.0
    x_19_14  OBJ  4.0
    x_19_14  a_19  1.0
    x_19_14  t_14  1.0
    x_19_15  OBJ  47.0
    x_19_15  a_19  1.0
    x_19_15  t_15  1.0
    x_19_16  OBJ  35.0
    x_19_16  a_19  1.0
    x_19_16  t_16  1.0
    x_19_17  OBJ  81.0
    x_19_17  a_19  1.0
    x_19_17  t_17  1.0
    x_19_18  OBJ  11.0
    x_19_18  a_19  1.0
    x_19_18  t_18  1.0
    x_19_19  OBJ  11.0
    x_19_19  a_19  1.0
    x_19_19  t_19  1.0
    x_19_20  OBJ  42.0
    x_19_20  a_19  1.0
    x_19_20  t_20  1.0
    x_19_21  OBJ  70.0
    x_19_21  a_19  1.0
    x_19_21  t_21  1.0
    x_19_22  OBJ  94.0
    x_19_22  a_19  1.0
    x_19_22  t_22  1.0
    x_19_23  OBJ  75.0
    x_19_23  a_19  1.0
    x_19_23  t_23  1.0
    x_19_24  OBJ  2.0
    x_19_24  a_19  1.0
    x_19_24  t_24  1.0
    x_19_25  OBJ  21.0
    x_19_25  a_19  1.0
    x_19_25  t_25  1.0
    x_19_26  OBJ  58.0
    x_19_26  a_19  1.0
    x_19_26  t_26  1.0
    x_19_27  OBJ  12.0
    x_19_27  a_19  1.0
    x_19_27  t_27  1.0
    x_19_28  OBJ  14.0
    x_19_28  a_19  1.0
    x_19_28  t_28  1.0
    x_19_29  OBJ  91.0
    x_19_29  a_19  1.0
    x_19_29  t_29  1.0
    x_19_30  OBJ  56.0
    x_19_30  a_19  1.0
    x_19_30  t_30  1.0
    x_19_31  OBJ  89.0
    x_19_31  a_19  1.0
    x_19_31  t_31  1.0
    x_19_32  OBJ  68.0
    x_19_32  a_19  1.0
    x_19_32  t_32  1.0
    x_19_33  OBJ  11.0
    x_19_33  a_19  1.0
    x_19_33  t_33  1.0
    x_19_34  OBJ  6.0
    x_19_34  a_19  1.0
    x_19_34  t_34  1.0
    x_19_35  OBJ  59.0
    x_19_35  a_19  1.0
    x_19_35  t_35  1.0
    x_19_36  OBJ  39.0
    x_19_36  a_19  1.0
    x_19_36  t_36  1.0
    x_19_37  OBJ  18.0
    x_19_37  a_19  1.0
    x_19_37  t_37  1.0
    x_19_38  OBJ  58.0
    x_19_38  a_19  1.0
    x_19_38  t_38  1.0
    x_19_39  OBJ  21.0
    x_19_39  a_19  1.0
    x_19_39  t_39  1.0
    x_19_40  OBJ  96.0
    x_19_40  a_19  1.0
    x_19_40  t_40  1.0
    x_19_41  OBJ  92.0
    x_19_41  a_19  1.0
    x_19_41  t_41  1.0
    x_19_42  OBJ  21.0
    x_19_42  a_19  1.0
    x_19_42  t_42  1.0
    x_19_43  OBJ  66.0
    x_19_43  a_19  1.0
    x_19_43  t_43  1.0
    x_19_44  OBJ  61.0
    x_19_44  a_19  1.0
    x_19_44  t_44  1.0
    x_19_45  OBJ  76.0
    x_19_45  a_19  1.0
    x_19_45  t_45  1.0
    x_19_46  OBJ  21.0
    x_19_46  a_19  1.0
    x_19_46  t_46  1.0
    x_19_47  OBJ  28.0
    x_19_47  a_19  1.0
    x_19_47  t_47  1.0
    x_19_48  OBJ  16.0
    x_19_48  a_19  1.0
    x_19_48  t_48  1.0
    x_19_49  OBJ  77.0
    x_19_49  a_19  1.0
    x_19_49  t_49  1.0
    x_19_50  OBJ  63.0
    x_19_50  a_19  1.0
    x_19_50  t_50  1.0
    x_19_51  OBJ  67.0
    x_19_51  a_19  1.0
    x_19_51  t_51  1.0
    x_19_52  OBJ  1.0
    x_19_52  a_19  1.0
    x_19_52  t_52  1.0
    x_19_53  OBJ  35.0
    x_19_53  a_19  1.0
    x_19_53  t_53  1.0
    x_19_54  OBJ  69.0
    x_19_54  a_19  1.0
    x_19_54  t_54  1.0
    x_19_55  OBJ  50.0
    x_19_55  a_19  1.0
    x_19_55  t_55  1.0
    x_19_56  OBJ  64.0
    x_19_56  a_19  1.0
    x_19_56  t_56  1.0
    x_19_57  OBJ  25.0
    x_19_57  a_19  1.0
    x_19_57  t_57  1.0
    x_19_58  OBJ  82.0
    x_19_58  a_19  1.0
    x_19_58  t_58  1.0
    x_19_59  OBJ  59.0
    x_19_59  a_19  1.0
    x_19_59  t_59  1.0
    x_20_0  OBJ  3.0
    x_20_0  a_20  1.0
    x_20_0  t_0  1.0
    x_20_1  OBJ  19.0
    x_20_1  a_20  1.0
    x_20_1  t_1  1.0
    x_20_2  OBJ  49.0
    x_20_2  a_20  1.0
    x_20_2  t_2  1.0
    x_20_3  OBJ  45.0
    x_20_3  a_20  1.0
    x_20_3  t_3  1.0
    x_20_4  OBJ  80.0
    x_20_4  a_20  1.0
    x_20_4  t_4  1.0
    x_20_5  OBJ  85.0
    x_20_5  a_20  1.0
    x_20_5  t_5  1.0
    x_20_6  OBJ  63.0
    x_20_6  a_20  1.0
    x_20_6  t_6  1.0
    x_20_7  OBJ  66.0
    x_20_7  a_20  1.0
    x_20_7  t_7  1.0
    x_20_8  OBJ  82.0
    x_20_8  a_20  1.0
    x_20_8  t_8  1.0
    x_20_9  OBJ  60.0
    x_20_9  a_20  1.0
    x_20_9  t_9  1.0
    x_20_10  OBJ  60.0
    x_20_10  a_20  1.0
    x_20_10  t_10  1.0
    x_20_11  OBJ  12.0
    x_20_11  a_20  1.0
    x_20_11  t_11  1.0
    x_20_12  OBJ  3.0
    x_20_12  a_20  1.0
    x_20_12  t_12  1.0
    x_20_13  OBJ  82.0
    x_20_13  a_20  1.0
    x_20_13  t_13  1.0
    x_20_14  OBJ  96.0
    x_20_14  a_20  1.0
    x_20_14  t_14  1.0
    x_20_15  OBJ  62.0
    x_20_15  a_20  1.0
    x_20_15  t_15  1.0
    x_20_16  OBJ  76.0
    x_20_16  a_20  1.0
    x_20_16  t_16  1.0
    x_20_17  OBJ  94.0
    x_20_17  a_20  1.0
    x_20_17  t_17  1.0
    x_20_18  OBJ  16.0
    x_20_18  a_20  1.0
    x_20_18  t_18  1.0
    x_20_19  OBJ  93.0
    x_20_19  a_20  1.0
    x_20_19  t_19  1.0
    x_20_20  OBJ  52.0
    x_20_20  a_20  1.0
    x_20_20  t_20  1.0
    x_20_21  OBJ  93.0
    x_20_21  a_20  1.0
    x_20_21  t_21  1.0
    x_20_22  OBJ  46.0
    x_20_22  a_20  1.0
    x_20_22  t_22  1.0
    x_20_23  OBJ  53.0
    x_20_23  a_20  1.0
    x_20_23  t_23  1.0
    x_20_24  OBJ  71.0
    x_20_24  a_20  1.0
    x_20_24  t_24  1.0
    x_20_25  OBJ  77.0
    x_20_25  a_20  1.0
    x_20_25  t_25  1.0
    x_20_26  OBJ  3.0
    x_20_26  a_20  1.0
    x_20_26  t_26  1.0
    x_20_27  OBJ  11.0
    x_20_27  a_20  1.0
    x_20_27  t_27  1.0
    x_20_28  OBJ  84.0
    x_20_28  a_20  1.0
    x_20_28  t_28  1.0
    x_20_29  OBJ  5.0
    x_20_29  a_20  1.0
    x_20_29  t_29  1.0
    x_20_30  OBJ  27.0
    x_20_30  a_20  1.0
    x_20_30  t_30  1.0
    x_20_31  OBJ  78.0
    x_20_31  a_20  1.0
    x_20_31  t_31  1.0
    x_20_32  OBJ  61.0
    x_20_32  a_20  1.0
    x_20_32  t_32  1.0
    x_20_33  OBJ  67.0
    x_20_33  a_20  1.0
    x_20_33  t_33  1.0
    x_20_34  OBJ  4.0
    x_20_34  a_20  1.0
    x_20_34  t_34  1.0
    x_20_35  OBJ  94.0
    x_20_35  a_20  1.0
    x_20_35  t_35  1.0
    x_20_36  OBJ  80.0
    x_20_36  a_20  1.0
    x_20_36  t_36  1.0
    x_20_37  OBJ  31.0
    x_20_37  a_20  1.0
    x_20_37  t_37  1.0
    x_20_38  OBJ  67.0
    x_20_38  a_20  1.0
    x_20_38  t_38  1.0
    x_20_39  OBJ  50.0
    x_20_39  a_20  1.0
    x_20_39  t_39  1.0
    x_20_40  OBJ  43.0
    x_20_40  a_20  1.0
    x_20_40  t_40  1.0
    x_20_41  OBJ  78.0
    x_20_41  a_20  1.0
    x_20_41  t_41  1.0
    x_20_42  OBJ  43.0
    x_20_42  a_20  1.0
    x_20_42  t_42  1.0
    x_20_43  OBJ  61.0
    x_20_43  a_20  1.0
    x_20_43  t_43  1.0
    x_20_44  OBJ  49.0
    x_20_44  a_20  1.0
    x_20_44  t_44  1.0
    x_20_45  OBJ  85.0
    x_20_45  a_20  1.0
    x_20_45  t_45  1.0
    x_20_46  OBJ  40.0
    x_20_46  a_20  1.0
    x_20_46  t_46  1.0
    x_20_47  OBJ  40.0
    x_20_47  a_20  1.0
    x_20_47  t_47  1.0
    x_20_48  OBJ  20.0
    x_20_48  a_20  1.0
    x_20_48  t_48  1.0
    x_20_49  OBJ  84.0
    x_20_49  a_20  1.0
    x_20_49  t_49  1.0
    x_20_50  OBJ  55.0
    x_20_50  a_20  1.0
    x_20_50  t_50  1.0
    x_20_51  OBJ  86.0
    x_20_51  a_20  1.0
    x_20_51  t_51  1.0
    x_20_52  OBJ  38.0
    x_20_52  a_20  1.0
    x_20_52  t_52  1.0
    x_20_53  OBJ  90.0
    x_20_53  a_20  1.0
    x_20_53  t_53  1.0
    x_20_54  OBJ  84.0
    x_20_54  a_20  1.0
    x_20_54  t_54  1.0
    x_20_55  OBJ  40.0
    x_20_55  a_20  1.0
    x_20_55  t_55  1.0
    x_20_56  OBJ  47.0
    x_20_56  a_20  1.0
    x_20_56  t_56  1.0
    x_20_57  OBJ  90.0
    x_20_57  a_20  1.0
    x_20_57  t_57  1.0
    x_20_58  OBJ  8.0
    x_20_58  a_20  1.0
    x_20_58  t_58  1.0
    x_20_59  OBJ  31.0
    x_20_59  a_20  1.0
    x_20_59  t_59  1.0
    x_21_0  OBJ  69.0
    x_21_0  a_21  1.0
    x_21_0  t_0  1.0
    x_21_1  OBJ  59.0
    x_21_1  a_21  1.0
    x_21_1  t_1  1.0
    x_21_2  OBJ  82.0
    x_21_2  a_21  1.0
    x_21_2  t_2  1.0
    x_21_3  OBJ  98.0
    x_21_3  a_21  1.0
    x_21_3  t_3  1.0
    x_21_4  OBJ  56.0
    x_21_4  a_21  1.0
    x_21_4  t_4  1.0
    x_21_5  OBJ  64.0
    x_21_5  a_21  1.0
    x_21_5  t_5  1.0
    x_21_6  OBJ  9.0
    x_21_6  a_21  1.0
    x_21_6  t_6  1.0
    x_21_7  OBJ  59.0
    x_21_7  a_21  1.0
    x_21_7  t_7  1.0
    x_21_8  OBJ  93.0
    x_21_8  a_21  1.0
    x_21_8  t_8  1.0
    x_21_9  OBJ  36.0
    x_21_9  a_21  1.0
    x_21_9  t_9  1.0
    x_21_10  OBJ  70.0
    x_21_10  a_21  1.0
    x_21_10  t_10  1.0
    x_21_11  OBJ  51.0
    x_21_11  a_21  1.0
    x_21_11  t_11  1.0
    x_21_12  OBJ  87.0
    x_21_12  a_21  1.0
    x_21_12  t_12  1.0
    x_21_13  OBJ  49.0
    x_21_13  a_21  1.0
    x_21_13  t_13  1.0
    x_21_14  OBJ  11.0
    x_21_14  a_21  1.0
    x_21_14  t_14  1.0
    x_21_15  OBJ  68.0
    x_21_15  a_21  1.0
    x_21_15  t_15  1.0
    x_21_16  OBJ  3.0
    x_21_16  a_21  1.0
    x_21_16  t_16  1.0
    x_21_17  OBJ  54.0
    x_21_17  a_21  1.0
    x_21_17  t_17  1.0
    x_21_18  OBJ  6.0
    x_21_18  a_21  1.0
    x_21_18  t_18  1.0
    x_21_19  OBJ  32.0
    x_21_19  a_21  1.0
    x_21_19  t_19  1.0
    x_21_20  OBJ  13.0
    x_21_20  a_21  1.0
    x_21_20  t_20  1.0
    x_21_21  OBJ  19.0
    x_21_21  a_21  1.0
    x_21_21  t_21  1.0
    x_21_22  OBJ  37.0
    x_21_22  a_21  1.0
    x_21_22  t_22  1.0
    x_21_23  OBJ  98.0
    x_21_23  a_21  1.0
    x_21_23  t_23  1.0
    x_21_24  OBJ  56.0
    x_21_24  a_21  1.0
    x_21_24  t_24  1.0
    x_21_25  OBJ  62.0
    x_21_25  a_21  1.0
    x_21_25  t_25  1.0
    x_21_26  OBJ  54.0
    x_21_26  a_21  1.0
    x_21_26  t_26  1.0
    x_21_27  OBJ  18.0
    x_21_27  a_21  1.0
    x_21_27  t_27  1.0
    x_21_28  OBJ  95.0
    x_21_28  a_21  1.0
    x_21_28  t_28  1.0
    x_21_29  OBJ  34.0
    x_21_29  a_21  1.0
    x_21_29  t_29  1.0
    x_21_30  OBJ  50.0
    x_21_30  a_21  1.0
    x_21_30  t_30  1.0
    x_21_31  OBJ  65.0
    x_21_31  a_21  1.0
    x_21_31  t_31  1.0
    x_21_32  OBJ  26.0
    x_21_32  a_21  1.0
    x_21_32  t_32  1.0
    x_21_33  OBJ  24.0
    x_21_33  a_21  1.0
    x_21_33  t_33  1.0
    x_21_34  OBJ  79.0
    x_21_34  a_21  1.0
    x_21_34  t_34  1.0
    x_21_35  OBJ  89.0
    x_21_35  a_21  1.0
    x_21_35  t_35  1.0
    x_21_36  OBJ  15.0
    x_21_36  a_21  1.0
    x_21_36  t_36  1.0
    x_21_37  OBJ  54.0
    x_21_37  a_21  1.0
    x_21_37  t_37  1.0
    x_21_38  OBJ  71.0
    x_21_38  a_21  1.0
    x_21_38  t_38  1.0
    x_21_39  OBJ  68.0
    x_21_39  a_21  1.0
    x_21_39  t_39  1.0
    x_21_40  OBJ  35.0
    x_21_40  a_21  1.0
    x_21_40  t_40  1.0
    x_21_41  OBJ  66.0
    x_21_41  a_21  1.0
    x_21_41  t_41  1.0
    x_21_42  OBJ  16.0
    x_21_42  a_21  1.0
    x_21_42  t_42  1.0
    x_21_43  OBJ  17.0
    x_21_43  a_21  1.0
    x_21_43  t_43  1.0
    x_21_44  OBJ  92.0
    x_21_44  a_21  1.0
    x_21_44  t_44  1.0
    x_21_45  OBJ  93.0
    x_21_45  a_21  1.0
    x_21_45  t_45  1.0
    x_21_46  OBJ  86.0
    x_21_46  a_21  1.0
    x_21_46  t_46  1.0
    x_21_47  OBJ  84.0
    x_21_47  a_21  1.0
    x_21_47  t_47  1.0
    x_21_48  OBJ  62.0
    x_21_48  a_21  1.0
    x_21_48  t_48  1.0
    x_21_49  OBJ  15.0
    x_21_49  a_21  1.0
    x_21_49  t_49  1.0
    x_21_50  OBJ  47.0
    x_21_50  a_21  1.0
    x_21_50  t_50  1.0
    x_21_51  OBJ  57.0
    x_21_51  a_21  1.0
    x_21_51  t_51  1.0
    x_21_52  OBJ  29.0
    x_21_52  a_21  1.0
    x_21_52  t_52  1.0
    x_21_53  OBJ  53.0
    x_21_53  a_21  1.0
    x_21_53  t_53  1.0
    x_21_54  OBJ  34.0
    x_21_54  a_21  1.0
    x_21_54  t_54  1.0
    x_21_55  OBJ  31.0
    x_21_55  a_21  1.0
    x_21_55  t_55  1.0
    x_21_56  OBJ  82.0
    x_21_56  a_21  1.0
    x_21_56  t_56  1.0
    x_21_57  OBJ  38.0
    x_21_57  a_21  1.0
    x_21_57  t_57  1.0
    x_21_58  OBJ  55.0
    x_21_58  a_21  1.0
    x_21_58  t_58  1.0
    x_21_59  OBJ  26.0
    x_21_59  a_21  1.0
    x_21_59  t_59  1.0
    x_22_0  OBJ  79.0
    x_22_0  a_22  1.0
    x_22_0  t_0  1.0
    x_22_1  OBJ  63.0
    x_22_1  a_22  1.0
    x_22_1  t_1  1.0
    x_22_2  OBJ  16.0
    x_22_2  a_22  1.0
    x_22_2  t_2  1.0
    x_22_3  OBJ  43.0
    x_22_3  a_22  1.0
    x_22_3  t_3  1.0
    x_22_4  OBJ  49.0
    x_22_4  a_22  1.0
    x_22_4  t_4  1.0
    x_22_5  OBJ  10.0
    x_22_5  a_22  1.0
    x_22_5  t_5  1.0
    x_22_6  OBJ  93.0
    x_22_6  a_22  1.0
    x_22_6  t_6  1.0
    x_22_7  OBJ  23.0
    x_22_7  a_22  1.0
    x_22_7  t_7  1.0
    x_22_8  OBJ  9.0
    x_22_8  a_22  1.0
    x_22_8  t_8  1.0
    x_22_9  OBJ  16.0
    x_22_9  a_22  1.0
    x_22_9  t_9  1.0
    x_22_10  OBJ  74.0
    x_22_10  a_22  1.0
    x_22_10  t_10  1.0
    x_22_11  OBJ  63.0
    x_22_11  a_22  1.0
    x_22_11  t_11  1.0
    x_22_12  OBJ  23.0
    x_22_12  a_22  1.0
    x_22_12  t_12  1.0
    x_22_13  OBJ  55.0
    x_22_13  a_22  1.0
    x_22_13  t_13  1.0
    x_22_14  OBJ  58.0
    x_22_14  a_22  1.0
    x_22_14  t_14  1.0
    x_22_15  OBJ  39.0
    x_22_15  a_22  1.0
    x_22_15  t_15  1.0
    x_22_16  OBJ  30.0
    x_22_16  a_22  1.0
    x_22_16  t_16  1.0
    x_22_17  OBJ  55.0
    x_22_17  a_22  1.0
    x_22_17  t_17  1.0
    x_22_18  OBJ  64.0
    x_22_18  a_22  1.0
    x_22_18  t_18  1.0
    x_22_19  OBJ  63.0
    x_22_19  a_22  1.0
    x_22_19  t_19  1.0
    x_22_20  OBJ  69.0
    x_22_20  a_22  1.0
    x_22_20  t_20  1.0
    x_22_21  OBJ  22.0
    x_22_21  a_22  1.0
    x_22_21  t_21  1.0
    x_22_22  OBJ  97.0
    x_22_22  a_22  1.0
    x_22_22  t_22  1.0
    x_22_23  OBJ  6.0
    x_22_23  a_22  1.0
    x_22_23  t_23  1.0
    x_22_24  OBJ  38.0
    x_22_24  a_22  1.0
    x_22_24  t_24  1.0
    x_22_25  OBJ  96.0
    x_22_25  a_22  1.0
    x_22_25  t_25  1.0
    x_22_26  OBJ  4.0
    x_22_26  a_22  1.0
    x_22_26  t_26  1.0
    x_22_27  OBJ  19.0
    x_22_27  a_22  1.0
    x_22_27  t_27  1.0
    x_22_28  OBJ  86.0
    x_22_28  a_22  1.0
    x_22_28  t_28  1.0
    x_22_29  OBJ  24.0
    x_22_29  a_22  1.0
    x_22_29  t_29  1.0
    x_22_30  OBJ  29.0
    x_22_30  a_22  1.0
    x_22_30  t_30  1.0
    x_22_31  OBJ  70.0
    x_22_31  a_22  1.0
    x_22_31  t_31  1.0
    x_22_32  OBJ  33.0
    x_22_32  a_22  1.0
    x_22_32  t_32  1.0
    x_22_33  OBJ  98.0
    x_22_33  a_22  1.0
    x_22_33  t_33  1.0
    x_22_34  OBJ  12.0
    x_22_34  a_22  1.0
    x_22_34  t_34  1.0
    x_22_35  OBJ  13.0
    x_22_35  a_22  1.0
    x_22_35  t_35  1.0
    x_22_36  OBJ  85.0
    x_22_36  a_22  1.0
    x_22_36  t_36  1.0
    x_22_37  OBJ  40.0
    x_22_37  a_22  1.0
    x_22_37  t_37  1.0
    x_22_38  OBJ  49.0
    x_22_38  a_22  1.0
    x_22_38  t_38  1.0
    x_22_39  OBJ  85.0
    x_22_39  a_22  1.0
    x_22_39  t_39  1.0
    x_22_40  OBJ  67.0
    x_22_40  a_22  1.0
    x_22_40  t_40  1.0
    x_22_41  OBJ  9.0
    x_22_41  a_22  1.0
    x_22_41  t_41  1.0
    x_22_42  OBJ  71.0
    x_22_42  a_22  1.0
    x_22_42  t_42  1.0
    x_22_43  OBJ  25.0
    x_22_43  a_22  1.0
    x_22_43  t_43  1.0
    x_22_44  OBJ  71.0
    x_22_44  a_22  1.0
    x_22_44  t_44  1.0
    x_22_45  OBJ  61.0
    x_22_45  a_22  1.0
    x_22_45  t_45  1.0
    x_22_46  OBJ  81.0
    x_22_46  a_22  1.0
    x_22_46  t_46  1.0
    x_22_47  OBJ  83.0
    x_22_47  a_22  1.0
    x_22_47  t_47  1.0
    x_22_48  OBJ  91.0
    x_22_48  a_22  1.0
    x_22_48  t_48  1.0
    x_22_49  OBJ  11.0
    x_22_49  a_22  1.0
    x_22_49  t_49  1.0
    x_22_50  OBJ  10.0
    x_22_50  a_22  1.0
    x_22_50  t_50  1.0
    x_22_51  OBJ  42.0
    x_22_51  a_22  1.0
    x_22_51  t_51  1.0
    x_22_52  OBJ  38.0
    x_22_52  a_22  1.0
    x_22_52  t_52  1.0
    x_22_53  OBJ  59.0
    x_22_53  a_22  1.0
    x_22_53  t_53  1.0
    x_22_54  OBJ  85.0
    x_22_54  a_22  1.0
    x_22_54  t_54  1.0
    x_22_55  OBJ  55.0
    x_22_55  a_22  1.0
    x_22_55  t_55  1.0
    x_22_56  OBJ  64.0
    x_22_56  a_22  1.0
    x_22_56  t_56  1.0
    x_22_57  OBJ  54.0
    x_22_57  a_22  1.0
    x_22_57  t_57  1.0
    x_22_58  OBJ  51.0
    x_22_58  a_22  1.0
    x_22_58  t_58  1.0
    x_22_59  OBJ  99.0
    x_22_59  a_22  1.0
    x_22_59  t_59  1.0
    x_23_0  OBJ  59.0
    x_23_0  a_23  1.0
    x_23_0  t_0  1.0
    x_23_1  OBJ  98.0
    x_23_1  a_23  1.0
    x_23_1  t_1  1.0
    x_23_2  OBJ  44.0
    x_23_2  a_23  1.0
    x_23_2  t_2  1.0
    x_23_3  OBJ  21.0
    x_23_3  a_23  1.0
    x_23_3  t_3  1.0
    x_23_4  OBJ  65.0
    x_23_4  a_23  1.0
    x_23_4  t_4  1.0
    x_23_5  OBJ  26.0
    x_23_5  a_23  1.0
    x_23_5  t_5  1.0
    x_23_6  OBJ  4.0
    x_23_6  a_23  1.0
    x_23_6  t_6  1.0
    x_23_7  OBJ  40.0
    x_23_7  a_23  1.0
    x_23_7  t_7  1.0
    x_23_8  OBJ  64.0
    x_23_8  a_23  1.0
    x_23_8  t_8  1.0
    x_23_9  OBJ  10.0
    x_23_9  a_23  1.0
    x_23_9  t_9  1.0
    x_23_10  OBJ  36.0
    x_23_10  a_23  1.0
    x_23_10  t_10  1.0
    x_23_11  OBJ  15.0
    x_23_11  a_23  1.0
    x_23_11  t_11  1.0
    x_23_12  OBJ  81.0
    x_23_12  a_23  1.0
    x_23_12  t_12  1.0
    x_23_13  OBJ  56.0
    x_23_13  a_23  1.0
    x_23_13  t_13  1.0
    x_23_14  OBJ  13.0
    x_23_14  a_23  1.0
    x_23_14  t_14  1.0
    x_23_15  OBJ  98.0
    x_23_15  a_23  1.0
    x_23_15  t_15  1.0
    x_23_16  OBJ  22.0
    x_23_16  a_23  1.0
    x_23_16  t_16  1.0
    x_23_17  OBJ  30.0
    x_23_17  a_23  1.0
    x_23_17  t_17  1.0
    x_23_18  OBJ  64.0
    x_23_18  a_23  1.0
    x_23_18  t_18  1.0
    x_23_19  OBJ  20.0
    x_23_19  a_23  1.0
    x_23_19  t_19  1.0
    x_23_20  OBJ  84.0
    x_23_20  a_23  1.0
    x_23_20  t_20  1.0
    x_23_21  OBJ  62.0
    x_23_21  a_23  1.0
    x_23_21  t_21  1.0
    x_23_22  OBJ  27.0
    x_23_22  a_23  1.0
    x_23_22  t_22  1.0
    x_23_23  OBJ  30.0
    x_23_23  a_23  1.0
    x_23_23  t_23  1.0
    x_23_24  OBJ  18.0
    x_23_24  a_23  1.0
    x_23_24  t_24  1.0
    x_23_25  OBJ  2.0
    x_23_25  a_23  1.0
    x_23_25  t_25  1.0
    x_23_26  OBJ  4.0
    x_23_26  a_23  1.0
    x_23_26  t_26  1.0
    x_23_27  OBJ  10.0
    x_23_27  a_23  1.0
    x_23_27  t_27  1.0
    x_23_28  OBJ  63.0
    x_23_28  a_23  1.0
    x_23_28  t_28  1.0
    x_23_29  OBJ  87.0
    x_23_29  a_23  1.0
    x_23_29  t_29  1.0
    x_23_30  OBJ  90.0
    x_23_30  a_23  1.0
    x_23_30  t_30  1.0
    x_23_31  OBJ  11.0
    x_23_31  a_23  1.0
    x_23_31  t_31  1.0
    x_23_32  OBJ  70.0
    x_23_32  a_23  1.0
    x_23_32  t_32  1.0
    x_23_33  OBJ  64.0
    x_23_33  a_23  1.0
    x_23_33  t_33  1.0
    x_23_34  OBJ  8.0
    x_23_34  a_23  1.0
    x_23_34  t_34  1.0
    x_23_35  OBJ  42.0
    x_23_35  a_23  1.0
    x_23_35  t_35  1.0
    x_23_36  OBJ  2.0
    x_23_36  a_23  1.0
    x_23_36  t_36  1.0
    x_23_37  OBJ  77.0
    x_23_37  a_23  1.0
    x_23_37  t_37  1.0
    x_23_38  OBJ  62.0
    x_23_38  a_23  1.0
    x_23_38  t_38  1.0
    x_23_39  OBJ  51.0
    x_23_39  a_23  1.0
    x_23_39  t_39  1.0
    x_23_40  OBJ  45.0
    x_23_40  a_23  1.0
    x_23_40  t_40  1.0
    x_23_41  OBJ  23.0
    x_23_41  a_23  1.0
    x_23_41  t_41  1.0
    x_23_42  OBJ  38.0
    x_23_42  a_23  1.0
    x_23_42  t_42  1.0
    x_23_43  OBJ  21.0
    x_23_43  a_23  1.0
    x_23_43  t_43  1.0
    x_23_44  OBJ  26.0
    x_23_44  a_23  1.0
    x_23_44  t_44  1.0
    x_23_45  OBJ  24.0
    x_23_45  a_23  1.0
    x_23_45  t_45  1.0
    x_23_46  OBJ  3.0
    x_23_46  a_23  1.0
    x_23_46  t_46  1.0
    x_23_47  OBJ  24.0
    x_23_47  a_23  1.0
    x_23_47  t_47  1.0
    x_23_48  OBJ  75.0
    x_23_48  a_23  1.0
    x_23_48  t_48  1.0
    x_23_49  OBJ  25.0
    x_23_49  a_23  1.0
    x_23_49  t_49  1.0
    x_23_50  OBJ  8.0
    x_23_50  a_23  1.0
    x_23_50  t_50  1.0
    x_23_51  OBJ  30.0
    x_23_51  a_23  1.0
    x_23_51  t_51  1.0
    x_23_52  OBJ  56.0
    x_23_52  a_23  1.0
    x_23_52  t_52  1.0
    x_23_53  OBJ  60.0
    x_23_53  a_23  1.0
    x_23_53  t_53  1.0
    x_23_54  OBJ  67.0
    x_23_54  a_23  1.0
    x_23_54  t_54  1.0
    x_23_55  OBJ  53.0
    x_23_55  a_23  1.0
    x_23_55  t_55  1.0
    x_23_56  OBJ  57.0
    x_23_56  a_23  1.0
    x_23_56  t_56  1.0
    x_23_57  OBJ  7.0
    x_23_57  a_23  1.0
    x_23_57  t_57  1.0
    x_23_58  OBJ  16.0
    x_23_58  a_23  1.0
    x_23_58  t_58  1.0
    x_23_59  OBJ  42.0
    x_23_59  a_23  1.0
    x_23_59  t_59  1.0
    x_24_0  OBJ  5.0
    x_24_0  a_24  1.0
    x_24_0  t_0  1.0
    x_24_1  OBJ  93.0
    x_24_1  a_24  1.0
    x_24_1  t_1  1.0
    x_24_2  OBJ  56.0
    x_24_2  a_24  1.0
    x_24_2  t_2  1.0
    x_24_3  OBJ  94.0
    x_24_3  a_24  1.0
    x_24_3  t_3  1.0
    x_24_4  OBJ  3.0
    x_24_4  a_24  1.0
    x_24_4  t_4  1.0
    x_24_5  OBJ  32.0
    x_24_5  a_24  1.0
    x_24_5  t_5  1.0
    x_24_6  OBJ  82.0
    x_24_6  a_24  1.0
    x_24_6  t_6  1.0
    x_24_7  OBJ  16.0
    x_24_7  a_24  1.0
    x_24_7  t_7  1.0
    x_24_8  OBJ  65.0
    x_24_8  a_24  1.0
    x_24_8  t_8  1.0
    x_24_9  OBJ  29.0
    x_24_9  a_24  1.0
    x_24_9  t_9  1.0
    x_24_10  OBJ  9.0
    x_24_10  a_24  1.0
    x_24_10  t_10  1.0
    x_24_11  OBJ  14.0
    x_24_11  a_24  1.0
    x_24_11  t_11  1.0
    x_24_12  OBJ  16.0
    x_24_12  a_24  1.0
    x_24_12  t_12  1.0
    x_24_13  OBJ  26.0
    x_24_13  a_24  1.0
    x_24_13  t_13  1.0
    x_24_14  OBJ  78.0
    x_24_14  a_24  1.0
    x_24_14  t_14  1.0
    x_24_15  OBJ  92.0
    x_24_15  a_24  1.0
    x_24_15  t_15  1.0
    x_24_16  OBJ  64.0
    x_24_16  a_24  1.0
    x_24_16  t_16  1.0
    x_24_17  OBJ  87.0
    x_24_17  a_24  1.0
    x_24_17  t_17  1.0
    x_24_18  OBJ  89.0
    x_24_18  a_24  1.0
    x_24_18  t_18  1.0
    x_24_19  OBJ  45.0
    x_24_19  a_24  1.0
    x_24_19  t_19  1.0
    x_24_20  OBJ  33.0
    x_24_20  a_24  1.0
    x_24_20  t_20  1.0
    x_24_21  OBJ  55.0
    x_24_21  a_24  1.0
    x_24_21  t_21  1.0
    x_24_22  OBJ  3.0
    x_24_22  a_24  1.0
    x_24_22  t_22  1.0
    x_24_23  OBJ  70.0
    x_24_23  a_24  1.0
    x_24_23  t_23  1.0
    x_24_24  OBJ  83.0
    x_24_24  a_24  1.0
    x_24_24  t_24  1.0
    x_24_25  OBJ  70.0
    x_24_25  a_24  1.0
    x_24_25  t_25  1.0
    x_24_26  OBJ  60.0
    x_24_26  a_24  1.0
    x_24_26  t_26  1.0
    x_24_27  OBJ  69.0
    x_24_27  a_24  1.0
    x_24_27  t_27  1.0
    x_24_28  OBJ  16.0
    x_24_28  a_24  1.0
    x_24_28  t_28  1.0
    x_24_29  OBJ  73.0
    x_24_29  a_24  1.0
    x_24_29  t_29  1.0
    x_24_30  OBJ  19.0
    x_24_30  a_24  1.0
    x_24_30  t_30  1.0
    x_24_31  OBJ  59.0
    x_24_31  a_24  1.0
    x_24_31  t_31  1.0
    x_24_32  OBJ  60.0
    x_24_32  a_24  1.0
    x_24_32  t_32  1.0
    x_24_33  OBJ  14.0
    x_24_33  a_24  1.0
    x_24_33  t_33  1.0
    x_24_34  OBJ  24.0
    x_24_34  a_24  1.0
    x_24_34  t_34  1.0
    x_24_35  OBJ  69.0
    x_24_35  a_24  1.0
    x_24_35  t_35  1.0
    x_24_36  OBJ  93.0
    x_24_36  a_24  1.0
    x_24_36  t_36  1.0
    x_24_37  OBJ  67.0
    x_24_37  a_24  1.0
    x_24_37  t_37  1.0
    x_24_38  OBJ  97.0
    x_24_38  a_24  1.0
    x_24_38  t_38  1.0
    x_24_39  OBJ  17.0
    x_24_39  a_24  1.0
    x_24_39  t_39  1.0
    x_24_40  OBJ  15.0
    x_24_40  a_24  1.0
    x_24_40  t_40  1.0
    x_24_41  OBJ  20.0
    x_24_41  a_24  1.0
    x_24_41  t_41  1.0
    x_24_42  OBJ  67.0
    x_24_42  a_24  1.0
    x_24_42  t_42  1.0
    x_24_43  OBJ  64.0
    x_24_43  a_24  1.0
    x_24_43  t_43  1.0
    x_24_44  OBJ  76.0
    x_24_44  a_24  1.0
    x_24_44  t_44  1.0
    x_24_45  OBJ  39.0
    x_24_45  a_24  1.0
    x_24_45  t_45  1.0
    x_24_46  OBJ  86.0
    x_24_46  a_24  1.0
    x_24_46  t_46  1.0
    x_24_47  OBJ  81.0
    x_24_47  a_24  1.0
    x_24_47  t_47  1.0
    x_24_48  OBJ  95.0
    x_24_48  a_24  1.0
    x_24_48  t_48  1.0
    x_24_49  OBJ  28.0
    x_24_49  a_24  1.0
    x_24_49  t_49  1.0
    x_24_50  OBJ  35.0
    x_24_50  a_24  1.0
    x_24_50  t_50  1.0
    x_24_51  OBJ  66.0
    x_24_51  a_24  1.0
    x_24_51  t_51  1.0
    x_24_52  OBJ  76.0
    x_24_52  a_24  1.0
    x_24_52  t_52  1.0
    x_24_53  OBJ  61.0
    x_24_53  a_24  1.0
    x_24_53  t_53  1.0
    x_24_54  OBJ  40.0
    x_24_54  a_24  1.0
    x_24_54  t_54  1.0
    x_24_55  OBJ  11.0
    x_24_55  a_24  1.0
    x_24_55  t_55  1.0
    x_24_56  OBJ  56.0
    x_24_56  a_24  1.0
    x_24_56  t_56  1.0
    x_24_57  OBJ  28.0
    x_24_57  a_24  1.0
    x_24_57  t_57  1.0
    x_24_58  OBJ  53.0
    x_24_58  a_24  1.0
    x_24_58  t_58  1.0
    x_24_59  OBJ  35.0
    x_24_59  a_24  1.0
    x_24_59  t_59  1.0
    x_25_0  OBJ  24.0
    x_25_0  a_25  1.0
    x_25_0  t_0  1.0
    x_25_1  OBJ  30.0
    x_25_1  a_25  1.0
    x_25_1  t_1  1.0
    x_25_2  OBJ  89.0
    x_25_2  a_25  1.0
    x_25_2  t_2  1.0
    x_25_3  OBJ  10.0
    x_25_3  a_25  1.0
    x_25_3  t_3  1.0
    x_25_4  OBJ  72.0
    x_25_4  a_25  1.0
    x_25_4  t_4  1.0
    x_25_5  OBJ  24.0
    x_25_5  a_25  1.0
    x_25_5  t_5  1.0
    x_25_6  OBJ  35.0
    x_25_6  a_25  1.0
    x_25_6  t_6  1.0
    x_25_7  OBJ  54.0
    x_25_7  a_25  1.0
    x_25_7  t_7  1.0
    x_25_8  OBJ  38.0
    x_25_8  a_25  1.0
    x_25_8  t_8  1.0
    x_25_9  OBJ  23.0
    x_25_9  a_25  1.0
    x_25_9  t_9  1.0
    x_25_10  OBJ  3.0
    x_25_10  a_25  1.0
    x_25_10  t_10  1.0
    x_25_11  OBJ  63.0
    x_25_11  a_25  1.0
    x_25_11  t_11  1.0
    x_25_12  OBJ  27.0
    x_25_12  a_25  1.0
    x_25_12  t_12  1.0
    x_25_13  OBJ  42.0
    x_25_13  a_25  1.0
    x_25_13  t_13  1.0
    x_25_14  OBJ  97.0
    x_25_14  a_25  1.0
    x_25_14  t_14  1.0
    x_25_15  OBJ  46.0
    x_25_15  a_25  1.0
    x_25_15  t_15  1.0
    x_25_16  OBJ  44.0
    x_25_16  a_25  1.0
    x_25_16  t_16  1.0
    x_25_17  OBJ  21.0
    x_25_17  a_25  1.0
    x_25_17  t_17  1.0
    x_25_18  OBJ  78.0
    x_25_18  a_25  1.0
    x_25_18  t_18  1.0
    x_25_19  OBJ  78.0
    x_25_19  a_25  1.0
    x_25_19  t_19  1.0
    x_25_20  OBJ  56.0
    x_25_20  a_25  1.0
    x_25_20  t_20  1.0
    x_25_21  OBJ  8.0
    x_25_21  a_25  1.0
    x_25_21  t_21  1.0
    x_25_22  OBJ  47.0
    x_25_22  a_25  1.0
    x_25_22  t_22  1.0
    x_25_23  OBJ  94.0
    x_25_23  a_25  1.0
    x_25_23  t_23  1.0
    x_25_24  OBJ  67.0
    x_25_24  a_25  1.0
    x_25_24  t_24  1.0
    x_25_25  OBJ  59.0
    x_25_25  a_25  1.0
    x_25_25  t_25  1.0
    x_25_26  OBJ  29.0
    x_25_26  a_25  1.0
    x_25_26  t_26  1.0
    x_25_27  OBJ  94.0
    x_25_27  a_25  1.0
    x_25_27  t_27  1.0
    x_25_28  OBJ  2.0
    x_25_28  a_25  1.0
    x_25_28  t_28  1.0
    x_25_29  OBJ  55.0
    x_25_29  a_25  1.0
    x_25_29  t_29  1.0
    x_25_30  OBJ  49.0
    x_25_30  a_25  1.0
    x_25_30  t_30  1.0
    x_25_31  OBJ  35.0
    x_25_31  a_25  1.0
    x_25_31  t_31  1.0
    x_25_32  OBJ  35.0
    x_25_32  a_25  1.0
    x_25_32  t_32  1.0
    x_25_33  OBJ  37.0
    x_25_33  a_25  1.0
    x_25_33  t_33  1.0
    x_25_34  OBJ  48.0
    x_25_34  a_25  1.0
    x_25_34  t_34  1.0
    x_25_35  OBJ  93.0
    x_25_35  a_25  1.0
    x_25_35  t_35  1.0
    x_25_36  OBJ  9.0
    x_25_36  a_25  1.0
    x_25_36  t_36  1.0
    x_25_37  OBJ  52.0
    x_25_37  a_25  1.0
    x_25_37  t_37  1.0
    x_25_38  OBJ  64.0
    x_25_38  a_25  1.0
    x_25_38  t_38  1.0
    x_25_39  OBJ  40.0
    x_25_39  a_25  1.0
    x_25_39  t_39  1.0
    x_25_40  OBJ  60.0
    x_25_40  a_25  1.0
    x_25_40  t_40  1.0
    x_25_41  OBJ  16.0
    x_25_41  a_25  1.0
    x_25_41  t_41  1.0
    x_25_42  OBJ  63.0
    x_25_42  a_25  1.0
    x_25_42  t_42  1.0
    x_25_43  OBJ  16.0
    x_25_43  a_25  1.0
    x_25_43  t_43  1.0
    x_25_44  OBJ  91.0
    x_25_44  a_25  1.0
    x_25_44  t_44  1.0
    x_25_45  OBJ  42.0
    x_25_45  a_25  1.0
    x_25_45  t_45  1.0
    x_25_46  OBJ  77.0
    x_25_46  a_25  1.0
    x_25_46  t_46  1.0
    x_25_47  OBJ  45.0
    x_25_47  a_25  1.0
    x_25_47  t_47  1.0
    x_25_48  OBJ  52.0
    x_25_48  a_25  1.0
    x_25_48  t_48  1.0
    x_25_49  OBJ  80.0
    x_25_49  a_25  1.0
    x_25_49  t_49  1.0
    x_25_50  OBJ  2.0
    x_25_50  a_25  1.0
    x_25_50  t_50  1.0
    x_25_51  OBJ  13.0
    x_25_51  a_25  1.0
    x_25_51  t_51  1.0
    x_25_52  OBJ  75.0
    x_25_52  a_25  1.0
    x_25_52  t_52  1.0
    x_25_53  OBJ  45.0
    x_25_53  a_25  1.0
    x_25_53  t_53  1.0
    x_25_54  OBJ  16.0
    x_25_54  a_25  1.0
    x_25_54  t_54  1.0
    x_25_55  OBJ  14.0
    x_25_55  a_25  1.0
    x_25_55  t_55  1.0
    x_25_56  OBJ  74.0
    x_25_56  a_25  1.0
    x_25_56  t_56  1.0
    x_25_57  OBJ  26.0
    x_25_57  a_25  1.0
    x_25_57  t_57  1.0
    x_25_58  OBJ  70.0
    x_25_58  a_25  1.0
    x_25_58  t_58  1.0
    x_25_59  OBJ  49.0
    x_25_59  a_25  1.0
    x_25_59  t_59  1.0
    x_26_0  OBJ  67.0
    x_26_0  a_26  1.0
    x_26_0  t_0  1.0
    x_26_1  OBJ  87.0
    x_26_1  a_26  1.0
    x_26_1  t_1  1.0
    x_26_2  OBJ  86.0
    x_26_2  a_26  1.0
    x_26_2  t_2  1.0
    x_26_3  OBJ  14.0
    x_26_3  a_26  1.0
    x_26_3  t_3  1.0
    x_26_4  OBJ  36.0
    x_26_4  a_26  1.0
    x_26_4  t_4  1.0
    x_26_5  OBJ  18.0
    x_26_5  a_26  1.0
    x_26_5  t_5  1.0
    x_26_6  OBJ  44.0
    x_26_6  a_26  1.0
    x_26_6  t_6  1.0
    x_26_7  OBJ  70.0
    x_26_7  a_26  1.0
    x_26_7  t_7  1.0
    x_26_8  OBJ  66.0
    x_26_8  a_26  1.0
    x_26_8  t_8  1.0
    x_26_9  OBJ  53.0
    x_26_9  a_26  1.0
    x_26_9  t_9  1.0
    x_26_10  OBJ  98.0
    x_26_10  a_26  1.0
    x_26_10  t_10  1.0
    x_26_11  OBJ  9.0
    x_26_11  a_26  1.0
    x_26_11  t_11  1.0
    x_26_12  OBJ  40.0
    x_26_12  a_26  1.0
    x_26_12  t_12  1.0
    x_26_13  OBJ  68.0
    x_26_13  a_26  1.0
    x_26_13  t_13  1.0
    x_26_14  OBJ  8.0
    x_26_14  a_26  1.0
    x_26_14  t_14  1.0
    x_26_15  OBJ  95.0
    x_26_15  a_26  1.0
    x_26_15  t_15  1.0
    x_26_16  OBJ  77.0
    x_26_16  a_26  1.0
    x_26_16  t_16  1.0
    x_26_17  OBJ  74.0
    x_26_17  a_26  1.0
    x_26_17  t_17  1.0
    x_26_18  OBJ  67.0
    x_26_18  a_26  1.0
    x_26_18  t_18  1.0
    x_26_19  OBJ  99.0
    x_26_19  a_26  1.0
    x_26_19  t_19  1.0
    x_26_20  OBJ  70.0
    x_26_20  a_26  1.0
    x_26_20  t_20  1.0
    x_26_21  OBJ  74.0
    x_26_21  a_26  1.0
    x_26_21  t_21  1.0
    x_26_22  OBJ  17.0
    x_26_22  a_26  1.0
    x_26_22  t_22  1.0
    x_26_23  OBJ  33.0
    x_26_23  a_26  1.0
    x_26_23  t_23  1.0
    x_26_24  OBJ  73.0
    x_26_24  a_26  1.0
    x_26_24  t_24  1.0
    x_26_25  OBJ  80.0
    x_26_25  a_26  1.0
    x_26_25  t_25  1.0
    x_26_26  OBJ  1.0
    x_26_26  a_26  1.0
    x_26_26  t_26  1.0
    x_26_27  OBJ  57.0
    x_26_27  a_26  1.0
    x_26_27  t_27  1.0
    x_26_28  OBJ  13.0
    x_26_28  a_26  1.0
    x_26_28  t_28  1.0
    x_26_29  OBJ  10.0
    x_26_29  a_26  1.0
    x_26_29  t_29  1.0
    x_26_30  OBJ  29.0
    x_26_30  a_26  1.0
    x_26_30  t_30  1.0
    x_26_31  OBJ  36.0
    x_26_31  a_26  1.0
    x_26_31  t_31  1.0
    x_26_32  OBJ  26.0
    x_26_32  a_26  1.0
    x_26_32  t_32  1.0
    x_26_33  OBJ  94.0
    x_26_33  a_26  1.0
    x_26_33  t_33  1.0
    x_26_34  OBJ  27.0
    x_26_34  a_26  1.0
    x_26_34  t_34  1.0
    x_26_35  OBJ  65.0
    x_26_35  a_26  1.0
    x_26_35  t_35  1.0
    x_26_36  OBJ  72.0
    x_26_36  a_26  1.0
    x_26_36  t_36  1.0
    x_26_37  OBJ  37.0
    x_26_37  a_26  1.0
    x_26_37  t_37  1.0
    x_26_38  OBJ  25.0
    x_26_38  a_26  1.0
    x_26_38  t_38  1.0
    x_26_39  OBJ  71.0
    x_26_39  a_26  1.0
    x_26_39  t_39  1.0
    x_26_40  OBJ  16.0
    x_26_40  a_26  1.0
    x_26_40  t_40  1.0
    x_26_41  OBJ  68.0
    x_26_41  a_26  1.0
    x_26_41  t_41  1.0
    x_26_42  OBJ  90.0
    x_26_42  a_26  1.0
    x_26_42  t_42  1.0
    x_26_43  OBJ  16.0
    x_26_43  a_26  1.0
    x_26_43  t_43  1.0
    x_26_44  OBJ  58.0
    x_26_44  a_26  1.0
    x_26_44  t_44  1.0
    x_26_45  OBJ  46.0
    x_26_45  a_26  1.0
    x_26_45  t_45  1.0
    x_26_46  OBJ  65.0
    x_26_46  a_26  1.0
    x_26_46  t_46  1.0
    x_26_47  OBJ  80.0
    x_26_47  a_26  1.0
    x_26_47  t_47  1.0
    x_26_48  OBJ  22.0
    x_26_48  a_26  1.0
    x_26_48  t_48  1.0
    x_26_49  OBJ  12.0
    x_26_49  a_26  1.0
    x_26_49  t_49  1.0
    x_26_50  OBJ  30.0
    x_26_50  a_26  1.0
    x_26_50  t_50  1.0
    x_26_51  OBJ  55.0
    x_26_51  a_26  1.0
    x_26_51  t_51  1.0
    x_26_52  OBJ  16.0
    x_26_52  a_26  1.0
    x_26_52  t_52  1.0
    x_26_53  OBJ  12.0
    x_26_53  a_26  1.0
    x_26_53  t_53  1.0
    x_26_54  OBJ  37.0
    x_26_54  a_26  1.0
    x_26_54  t_54  1.0
    x_26_55  OBJ  28.0
    x_26_55  a_26  1.0
    x_26_55  t_55  1.0
    x_26_56  OBJ  24.0
    x_26_56  a_26  1.0
    x_26_56  t_56  1.0
    x_26_57  OBJ  76.0
    x_26_57  a_26  1.0
    x_26_57  t_57  1.0
    x_26_58  OBJ  13.0
    x_26_58  a_26  1.0
    x_26_58  t_58  1.0
    x_26_59  OBJ  36.0
    x_26_59  a_26  1.0
    x_26_59  t_59  1.0
    x_27_0  OBJ  97.0
    x_27_0  a_27  1.0
    x_27_0  t_0  1.0
    x_27_1  OBJ  82.0
    x_27_1  a_27  1.0
    x_27_1  t_1  1.0
    x_27_2  OBJ  80.0
    x_27_2  a_27  1.0
    x_27_2  t_2  1.0
    x_27_3  OBJ  72.0
    x_27_3  a_27  1.0
    x_27_3  t_3  1.0
    x_27_4  OBJ  31.0
    x_27_4  a_27  1.0
    x_27_4  t_4  1.0
    x_27_5  OBJ  63.0
    x_27_5  a_27  1.0
    x_27_5  t_5  1.0
    x_27_6  OBJ  45.0
    x_27_6  a_27  1.0
    x_27_6  t_6  1.0
    x_27_7  OBJ  15.0
    x_27_7  a_27  1.0
    x_27_7  t_7  1.0
    x_27_8  OBJ  1.0
    x_27_8  a_27  1.0
    x_27_8  t_8  1.0
    x_27_9  OBJ  45.0
    x_27_9  a_27  1.0
    x_27_9  t_9  1.0
    x_27_10  OBJ  29.0
    x_27_10  a_27  1.0
    x_27_10  t_10  1.0
    x_27_11  OBJ  87.0
    x_27_11  a_27  1.0
    x_27_11  t_11  1.0
    x_27_12  OBJ  43.0
    x_27_12  a_27  1.0
    x_27_12  t_12  1.0
    x_27_13  OBJ  63.0
    x_27_13  a_27  1.0
    x_27_13  t_13  1.0
    x_27_14  OBJ  56.0
    x_27_14  a_27  1.0
    x_27_14  t_14  1.0
    x_27_15  OBJ  7.0
    x_27_15  a_27  1.0
    x_27_15  t_15  1.0
    x_27_16  OBJ  59.0
    x_27_16  a_27  1.0
    x_27_16  t_16  1.0
    x_27_17  OBJ  50.0
    x_27_17  a_27  1.0
    x_27_17  t_17  1.0
    x_27_18  OBJ  98.0
    x_27_18  a_27  1.0
    x_27_18  t_18  1.0
    x_27_19  OBJ  47.0
    x_27_19  a_27  1.0
    x_27_19  t_19  1.0
    x_27_20  OBJ  33.0
    x_27_20  a_27  1.0
    x_27_20  t_20  1.0
    x_27_21  OBJ  49.0
    x_27_21  a_27  1.0
    x_27_21  t_21  1.0
    x_27_22  OBJ  83.0
    x_27_22  a_27  1.0
    x_27_22  t_22  1.0
    x_27_23  OBJ  42.0
    x_27_23  a_27  1.0
    x_27_23  t_23  1.0
    x_27_24  OBJ  96.0
    x_27_24  a_27  1.0
    x_27_24  t_24  1.0
    x_27_25  OBJ  81.0
    x_27_25  a_27  1.0
    x_27_25  t_25  1.0
    x_27_26  OBJ  9.0
    x_27_26  a_27  1.0
    x_27_26  t_26  1.0
    x_27_27  OBJ  53.0
    x_27_27  a_27  1.0
    x_27_27  t_27  1.0
    x_27_28  OBJ  54.0
    x_27_28  a_27  1.0
    x_27_28  t_28  1.0
    x_27_29  OBJ  85.0
    x_27_29  a_27  1.0
    x_27_29  t_29  1.0
    x_27_30  OBJ  81.0
    x_27_30  a_27  1.0
    x_27_30  t_30  1.0
    x_27_31  OBJ  95.0
    x_27_31  a_27  1.0
    x_27_31  t_31  1.0
    x_27_32  OBJ  43.0
    x_27_32  a_27  1.0
    x_27_32  t_32  1.0
    x_27_33  OBJ  89.0
    x_27_33  a_27  1.0
    x_27_33  t_33  1.0
    x_27_34  OBJ  94.0
    x_27_34  a_27  1.0
    x_27_34  t_34  1.0
    x_27_35  OBJ  77.0
    x_27_35  a_27  1.0
    x_27_35  t_35  1.0
    x_27_36  OBJ  21.0
    x_27_36  a_27  1.0
    x_27_36  t_36  1.0
    x_27_37  OBJ  3.0
    x_27_37  a_27  1.0
    x_27_37  t_37  1.0
    x_27_38  OBJ  83.0
    x_27_38  a_27  1.0
    x_27_38  t_38  1.0
    x_27_39  OBJ  1.0
    x_27_39  a_27  1.0
    x_27_39  t_39  1.0
    x_27_40  OBJ  66.0
    x_27_40  a_27  1.0
    x_27_40  t_40  1.0
    x_27_41  OBJ  17.0
    x_27_41  a_27  1.0
    x_27_41  t_41  1.0
    x_27_42  OBJ  70.0
    x_27_42  a_27  1.0
    x_27_42  t_42  1.0
    x_27_43  OBJ  52.0
    x_27_43  a_27  1.0
    x_27_43  t_43  1.0
    x_27_44  OBJ  9.0
    x_27_44  a_27  1.0
    x_27_44  t_44  1.0
    x_27_45  OBJ  30.0
    x_27_45  a_27  1.0
    x_27_45  t_45  1.0
    x_27_46  OBJ  24.0
    x_27_46  a_27  1.0
    x_27_46  t_46  1.0
    x_27_47  OBJ  14.0
    x_27_47  a_27  1.0
    x_27_47  t_47  1.0
    x_27_48  OBJ  87.0
    x_27_48  a_27  1.0
    x_27_48  t_48  1.0
    x_27_49  OBJ  92.0
    x_27_49  a_27  1.0
    x_27_49  t_49  1.0
    x_27_50  OBJ  10.0
    x_27_50  a_27  1.0
    x_27_50  t_50  1.0
    x_27_51  OBJ  43.0
    x_27_51  a_27  1.0
    x_27_51  t_51  1.0
    x_27_52  OBJ  97.0
    x_27_52  a_27  1.0
    x_27_52  t_52  1.0
    x_27_53  OBJ  20.0
    x_27_53  a_27  1.0
    x_27_53  t_53  1.0
    x_27_54  OBJ  97.0
    x_27_54  a_27  1.0
    x_27_54  t_54  1.0
    x_27_55  OBJ  51.0
    x_27_55  a_27  1.0
    x_27_55  t_55  1.0
    x_27_56  OBJ  80.0
    x_27_56  a_27  1.0
    x_27_56  t_56  1.0
    x_27_57  OBJ  98.0
    x_27_57  a_27  1.0
    x_27_57  t_57  1.0
    x_27_58  OBJ  59.0
    x_27_58  a_27  1.0
    x_27_58  t_58  1.0
    x_27_59  OBJ  72.0
    x_27_59  a_27  1.0
    x_27_59  t_59  1.0
    x_28_0  OBJ  1.0
    x_28_0  a_28  1.0
    x_28_0  t_0  1.0
    x_28_1  OBJ  92.0
    x_28_1  a_28  1.0
    x_28_1  t_1  1.0
    x_28_2  OBJ  20.0
    x_28_2  a_28  1.0
    x_28_2  t_2  1.0
    x_28_3  OBJ  12.0
    x_28_3  a_28  1.0
    x_28_3  t_3  1.0
    x_28_4  OBJ  48.0
    x_28_4  a_28  1.0
    x_28_4  t_4  1.0
    x_28_5  OBJ  74.0
    x_28_5  a_28  1.0
    x_28_5  t_5  1.0
    x_28_6  OBJ  51.0
    x_28_6  a_28  1.0
    x_28_6  t_6  1.0
    x_28_7  OBJ  34.0
    x_28_7  a_28  1.0
    x_28_7  t_7  1.0
    x_28_8  OBJ  85.0
    x_28_8  a_28  1.0
    x_28_8  t_8  1.0
    x_28_9  OBJ  36.0
    x_28_9  a_28  1.0
    x_28_9  t_9  1.0
    x_28_10  OBJ  40.0
    x_28_10  a_28  1.0
    x_28_10  t_10  1.0
    x_28_11  OBJ  46.0
    x_28_11  a_28  1.0
    x_28_11  t_11  1.0
    x_28_12  OBJ  78.0
    x_28_12  a_28  1.0
    x_28_12  t_12  1.0
    x_28_13  OBJ  46.0
    x_28_13  a_28  1.0
    x_28_13  t_13  1.0
    x_28_14  OBJ  41.0
    x_28_14  a_28  1.0
    x_28_14  t_14  1.0
    x_28_15  OBJ  79.0
    x_28_15  a_28  1.0
    x_28_15  t_15  1.0
    x_28_16  OBJ  88.0
    x_28_16  a_28  1.0
    x_28_16  t_16  1.0
    x_28_17  OBJ  30.0
    x_28_17  a_28  1.0
    x_28_17  t_17  1.0
    x_28_18  OBJ  6.0
    x_28_18  a_28  1.0
    x_28_18  t_18  1.0
    x_28_19  OBJ  46.0
    x_28_19  a_28  1.0
    x_28_19  t_19  1.0
    x_28_20  OBJ  41.0
    x_28_20  a_28  1.0
    x_28_20  t_20  1.0
    x_28_21  OBJ  43.0
    x_28_21  a_28  1.0
    x_28_21  t_21  1.0
    x_28_22  OBJ  21.0
    x_28_22  a_28  1.0
    x_28_22  t_22  1.0
    x_28_23  OBJ  62.0
    x_28_23  a_28  1.0
    x_28_23  t_23  1.0
    x_28_24  OBJ  62.0
    x_28_24  a_28  1.0
    x_28_24  t_24  1.0
    x_28_25  OBJ  56.0
    x_28_25  a_28  1.0
    x_28_25  t_25  1.0
    x_28_26  OBJ  75.0
    x_28_26  a_28  1.0
    x_28_26  t_26  1.0
    x_28_27  OBJ  5.0
    x_28_27  a_28  1.0
    x_28_27  t_27  1.0
    x_28_28  OBJ  13.0
    x_28_28  a_28  1.0
    x_28_28  t_28  1.0
    x_28_29  OBJ  85.0
    x_28_29  a_28  1.0
    x_28_29  t_29  1.0
    x_28_30  OBJ  8.0
    x_28_30  a_28  1.0
    x_28_30  t_30  1.0
    x_28_31  OBJ  64.0
    x_28_31  a_28  1.0
    x_28_31  t_31  1.0
    x_28_32  OBJ  98.0
    x_28_32  a_28  1.0
    x_28_32  t_32  1.0
    x_28_33  OBJ  16.0
    x_28_33  a_28  1.0
    x_28_33  t_33  1.0
    x_28_34  OBJ  6.0
    x_28_34  a_28  1.0
    x_28_34  t_34  1.0
    x_28_35  OBJ  50.0
    x_28_35  a_28  1.0
    x_28_35  t_35  1.0
    x_28_36  OBJ  64.0
    x_28_36  a_28  1.0
    x_28_36  t_36  1.0
    x_28_37  OBJ  90.0
    x_28_37  a_28  1.0
    x_28_37  t_37  1.0
    x_28_38  OBJ  79.0
    x_28_38  a_28  1.0
    x_28_38  t_38  1.0
    x_28_39  OBJ  88.0
    x_28_39  a_28  1.0
    x_28_39  t_39  1.0
    x_28_40  OBJ  19.0
    x_28_40  a_28  1.0
    x_28_40  t_40  1.0
    x_28_41  OBJ  40.0
    x_28_41  a_28  1.0
    x_28_41  t_41  1.0
    x_28_42  OBJ  28.0
    x_28_42  a_28  1.0
    x_28_42  t_42  1.0
    x_28_43  OBJ  24.0
    x_28_43  a_28  1.0
    x_28_43  t_43  1.0
    x_28_44  OBJ  16.0
    x_28_44  a_28  1.0
    x_28_44  t_44  1.0
    x_28_45  OBJ  95.0
    x_28_45  a_28  1.0
    x_28_45  t_45  1.0
    x_28_46  OBJ  56.0
    x_28_46  a_28  1.0
    x_28_46  t_46  1.0
    x_28_47  OBJ  73.0
    x_28_47  a_28  1.0
    x_28_47  t_47  1.0
    x_28_48  OBJ  4.0
    x_28_48  a_28  1.0
    x_28_48  t_48  1.0
    x_28_49  OBJ  66.0
    x_28_49  a_28  1.0
    x_28_49  t_49  1.0
    x_28_50  OBJ  35.0
    x_28_50  a_28  1.0
    x_28_50  t_50  1.0
    x_28_51  OBJ  41.0
    x_28_51  a_28  1.0
    x_28_51  t_51  1.0
    x_28_52  OBJ  28.0
    x_28_52  a_28  1.0
    x_28_52  t_52  1.0
    x_28_53  OBJ  86.0
    x_28_53  a_28  1.0
    x_28_53  t_53  1.0
    x_28_54  OBJ  21.0
    x_28_54  a_28  1.0
    x_28_54  t_54  1.0
    x_28_55  OBJ  20.0
    x_28_55  a_28  1.0
    x_28_55  t_55  1.0
    x_28_56  OBJ  78.0
    x_28_56  a_28  1.0
    x_28_56  t_56  1.0
    x_28_57  OBJ  82.0
    x_28_57  a_28  1.0
    x_28_57  t_57  1.0
    x_28_58  OBJ  59.0
    x_28_58  a_28  1.0
    x_28_58  t_58  1.0
    x_28_59  OBJ  80.0
    x_28_59  a_28  1.0
    x_28_59  t_59  1.0
    x_29_0  OBJ  16.0
    x_29_0  a_29  1.0
    x_29_0  t_0  1.0
    x_29_1  OBJ  52.0
    x_29_1  a_29  1.0
    x_29_1  t_1  1.0
    x_29_2  OBJ  22.0
    x_29_2  a_29  1.0
    x_29_2  t_2  1.0
    x_29_3  OBJ  37.0
    x_29_3  a_29  1.0
    x_29_3  t_3  1.0
    x_29_4  OBJ  48.0
    x_29_4  a_29  1.0
    x_29_4  t_4  1.0
    x_29_5  OBJ  68.0
    x_29_5  a_29  1.0
    x_29_5  t_5  1.0
    x_29_6  OBJ  27.0
    x_29_6  a_29  1.0
    x_29_6  t_6  1.0
    x_29_7  OBJ  39.0
    x_29_7  a_29  1.0
    x_29_7  t_7  1.0
    x_29_8  OBJ  37.0
    x_29_8  a_29  1.0
    x_29_8  t_8  1.0
    x_29_9  OBJ  41.0
    x_29_9  a_29  1.0
    x_29_9  t_9  1.0
    x_29_10  OBJ  63.0
    x_29_10  a_29  1.0
    x_29_10  t_10  1.0
    x_29_11  OBJ  27.0
    x_29_11  a_29  1.0
    x_29_11  t_11  1.0
    x_29_12  OBJ  89.0
    x_29_12  a_29  1.0
    x_29_12  t_12  1.0
    x_29_13  OBJ  78.0
    x_29_13  a_29  1.0
    x_29_13  t_13  1.0
    x_29_14  OBJ  99.0
    x_29_14  a_29  1.0
    x_29_14  t_14  1.0
    x_29_15  OBJ  16.0
    x_29_15  a_29  1.0
    x_29_15  t_15  1.0
    x_29_16  OBJ  36.0
    x_29_16  a_29  1.0
    x_29_16  t_16  1.0
    x_29_17  OBJ  50.0
    x_29_17  a_29  1.0
    x_29_17  t_17  1.0
    x_29_18  OBJ  50.0
    x_29_18  a_29  1.0
    x_29_18  t_18  1.0
    x_29_19  OBJ  44.0
    x_29_19  a_29  1.0
    x_29_19  t_19  1.0
    x_29_20  OBJ  25.0
    x_29_20  a_29  1.0
    x_29_20  t_20  1.0
    x_29_21  OBJ  98.0
    x_29_21  a_29  1.0
    x_29_21  t_21  1.0
    x_29_22  OBJ  97.0
    x_29_22  a_29  1.0
    x_29_22  t_22  1.0
    x_29_23  OBJ  11.0
    x_29_23  a_29  1.0
    x_29_23  t_23  1.0
    x_29_24  OBJ  99.0
    x_29_24  a_29  1.0
    x_29_24  t_24  1.0
    x_29_25  OBJ  56.0
    x_29_25  a_29  1.0
    x_29_25  t_25  1.0
    x_29_26  OBJ  65.0
    x_29_26  a_29  1.0
    x_29_26  t_26  1.0
    x_29_27  OBJ  22.0
    x_29_27  a_29  1.0
    x_29_27  t_27  1.0
    x_29_28  OBJ  83.0
    x_29_28  a_29  1.0
    x_29_28  t_28  1.0
    x_29_29  OBJ  95.0
    x_29_29  a_29  1.0
    x_29_29  t_29  1.0
    x_29_30  OBJ  72.0
    x_29_30  a_29  1.0
    x_29_30  t_30  1.0
    x_29_31  OBJ  13.0
    x_29_31  a_29  1.0
    x_29_31  t_31  1.0
    x_29_32  OBJ  17.0
    x_29_32  a_29  1.0
    x_29_32  t_32  1.0
    x_29_33  OBJ  91.0
    x_29_33  a_29  1.0
    x_29_33  t_33  1.0
    x_29_34  OBJ  81.0
    x_29_34  a_29  1.0
    x_29_34  t_34  1.0
    x_29_35  OBJ  64.0
    x_29_35  a_29  1.0
    x_29_35  t_35  1.0
    x_29_36  OBJ  70.0
    x_29_36  a_29  1.0
    x_29_36  t_36  1.0
    x_29_37  OBJ  19.0
    x_29_37  a_29  1.0
    x_29_37  t_37  1.0
    x_29_38  OBJ  89.0
    x_29_38  a_29  1.0
    x_29_38  t_38  1.0
    x_29_39  OBJ  42.0
    x_29_39  a_29  1.0
    x_29_39  t_39  1.0
    x_29_40  OBJ  30.0
    x_29_40  a_29  1.0
    x_29_40  t_40  1.0
    x_29_41  OBJ  28.0
    x_29_41  a_29  1.0
    x_29_41  t_41  1.0
    x_29_42  OBJ  60.0
    x_29_42  a_29  1.0
    x_29_42  t_42  1.0
    x_29_43  OBJ  48.0
    x_29_43  a_29  1.0
    x_29_43  t_43  1.0
    x_29_44  OBJ  22.0
    x_29_44  a_29  1.0
    x_29_44  t_44  1.0
    x_29_45  OBJ  82.0
    x_29_45  a_29  1.0
    x_29_45  t_45  1.0
    x_29_46  OBJ  44.0
    x_29_46  a_29  1.0
    x_29_46  t_46  1.0
    x_29_47  OBJ  48.0
    x_29_47  a_29  1.0
    x_29_47  t_47  1.0
    x_29_48  OBJ  62.0
    x_29_48  a_29  1.0
    x_29_48  t_48  1.0
    x_29_49  OBJ  98.0
    x_29_49  a_29  1.0
    x_29_49  t_49  1.0
    x_29_50  OBJ  49.0
    x_29_50  a_29  1.0
    x_29_50  t_50  1.0
    x_29_51  OBJ  91.0
    x_29_51  a_29  1.0
    x_29_51  t_51  1.0
    x_29_52  OBJ  46.0
    x_29_52  a_29  1.0
    x_29_52  t_52  1.0
    x_29_53  OBJ  22.0
    x_29_53  a_29  1.0
    x_29_53  t_53  1.0
    x_29_54  OBJ  66.0
    x_29_54  a_29  1.0
    x_29_54  t_54  1.0
    x_29_55  OBJ  14.0
    x_29_55  a_29  1.0
    x_29_55  t_55  1.0
    x_29_56  OBJ  29.0
    x_29_56  a_29  1.0
    x_29_56  t_56  1.0
    x_29_57  OBJ  68.0
    x_29_57  a_29  1.0
    x_29_57  t_57  1.0
    x_29_58  OBJ  60.0
    x_29_58  a_29  1.0
    x_29_58  t_58  1.0
    x_29_59  OBJ  36.0
    x_29_59  a_29  1.0
    x_29_59  t_59  1.0
    x_30_0  OBJ  8.0
    x_30_0  a_30  1.0
    x_30_0  t_0  1.0
    x_30_1  OBJ  27.0
    x_30_1  a_30  1.0
    x_30_1  t_1  1.0
    x_30_2  OBJ  57.0
    x_30_2  a_30  1.0
    x_30_2  t_2  1.0
    x_30_3  OBJ  92.0
    x_30_3  a_30  1.0
    x_30_3  t_3  1.0
    x_30_4  OBJ  93.0
    x_30_4  a_30  1.0
    x_30_4  t_4  1.0
    x_30_5  OBJ  58.0
    x_30_5  a_30  1.0
    x_30_5  t_5  1.0
    x_30_6  OBJ  14.0
    x_30_6  a_30  1.0
    x_30_6  t_6  1.0
    x_30_7  OBJ  27.0
    x_30_7  a_30  1.0
    x_30_7  t_7  1.0
    x_30_8  OBJ  37.0
    x_30_8  a_30  1.0
    x_30_8  t_8  1.0
    x_30_9  OBJ  56.0
    x_30_9  a_30  1.0
    x_30_9  t_9  1.0
    x_30_10  OBJ  47.0
    x_30_10  a_30  1.0
    x_30_10  t_10  1.0
    x_30_11  OBJ  55.0
    x_30_11  a_30  1.0
    x_30_11  t_11  1.0
    x_30_12  OBJ  97.0
    x_30_12  a_30  1.0
    x_30_12  t_12  1.0
    x_30_13  OBJ  80.0
    x_30_13  a_30  1.0
    x_30_13  t_13  1.0
    x_30_14  OBJ  58.0
    x_30_14  a_30  1.0
    x_30_14  t_14  1.0
    x_30_15  OBJ  41.0
    x_30_15  a_30  1.0
    x_30_15  t_15  1.0
    x_30_16  OBJ  97.0
    x_30_16  a_30  1.0
    x_30_16  t_16  1.0
    x_30_17  OBJ  50.0
    x_30_17  a_30  1.0
    x_30_17  t_17  1.0
    x_30_18  OBJ  35.0
    x_30_18  a_30  1.0
    x_30_18  t_18  1.0
    x_30_19  OBJ  16.0
    x_30_19  a_30  1.0
    x_30_19  t_19  1.0
    x_30_20  OBJ  5.0
    x_30_20  a_30  1.0
    x_30_20  t_20  1.0
    x_30_21  OBJ  85.0
    x_30_21  a_30  1.0
    x_30_21  t_21  1.0
    x_30_22  OBJ  45.0
    x_30_22  a_30  1.0
    x_30_22  t_22  1.0
    x_30_23  OBJ  92.0
    x_30_23  a_30  1.0
    x_30_23  t_23  1.0
    x_30_24  OBJ  84.0
    x_30_24  a_30  1.0
    x_30_24  t_24  1.0
    x_30_25  OBJ  1.0
    x_30_25  a_30  1.0
    x_30_25  t_25  1.0
    x_30_26  OBJ  24.0
    x_30_26  a_30  1.0
    x_30_26  t_26  1.0
    x_30_27  OBJ  75.0
    x_30_27  a_30  1.0
    x_30_27  t_27  1.0
    x_30_28  OBJ  9.0
    x_30_28  a_30  1.0
    x_30_28  t_28  1.0
    x_30_29  OBJ  97.0
    x_30_29  a_30  1.0
    x_30_29  t_29  1.0
    x_30_30  OBJ  22.0
    x_30_30  a_30  1.0
    x_30_30  t_30  1.0
    x_30_31  OBJ  86.0
    x_30_31  a_30  1.0
    x_30_31  t_31  1.0
    x_30_32  OBJ  20.0
    x_30_32  a_30  1.0
    x_30_32  t_32  1.0
    x_30_33  OBJ  80.0
    x_30_33  a_30  1.0
    x_30_33  t_33  1.0
    x_30_34  OBJ  87.0
    x_30_34  a_30  1.0
    x_30_34  t_34  1.0
    x_30_35  OBJ  22.0
    x_30_35  a_30  1.0
    x_30_35  t_35  1.0
    x_30_36  OBJ  98.0
    x_30_36  a_30  1.0
    x_30_36  t_36  1.0
    x_30_37  OBJ  99.0
    x_30_37  a_30  1.0
    x_30_37  t_37  1.0
    x_30_38  OBJ  2.0
    x_30_38  a_30  1.0
    x_30_38  t_38  1.0
    x_30_39  OBJ  37.0
    x_30_39  a_30  1.0
    x_30_39  t_39  1.0
    x_30_40  OBJ  93.0
    x_30_40  a_30  1.0
    x_30_40  t_40  1.0
    x_30_41  OBJ  85.0
    x_30_41  a_30  1.0
    x_30_41  t_41  1.0
    x_30_42  OBJ  29.0
    x_30_42  a_30  1.0
    x_30_42  t_42  1.0
    x_30_43  OBJ  78.0
    x_30_43  a_30  1.0
    x_30_43  t_43  1.0
    x_30_44  OBJ  43.0
    x_30_44  a_30  1.0
    x_30_44  t_44  1.0
    x_30_45  OBJ  61.0
    x_30_45  a_30  1.0
    x_30_45  t_45  1.0
    x_30_46  OBJ  50.0
    x_30_46  a_30  1.0
    x_30_46  t_46  1.0
    x_30_47  OBJ  96.0
    x_30_47  a_30  1.0
    x_30_47  t_47  1.0
    x_30_48  OBJ  56.0
    x_30_48  a_30  1.0
    x_30_48  t_48  1.0
    x_30_49  OBJ  95.0
    x_30_49  a_30  1.0
    x_30_49  t_49  1.0
    x_30_50  OBJ  38.0
    x_30_50  a_30  1.0
    x_30_50  t_50  1.0
    x_30_51  OBJ  44.0
    x_30_51  a_30  1.0
    x_30_51  t_51  1.0
    x_30_52  OBJ  68.0
    x_30_52  a_30  1.0
    x_30_52  t_52  1.0
    x_30_53  OBJ  47.0
    x_30_53  a_30  1.0
    x_30_53  t_53  1.0
    x_30_54  OBJ  99.0
    x_30_54  a_30  1.0
    x_30_54  t_54  1.0
    x_30_55  OBJ  90.0
    x_30_55  a_30  1.0
    x_30_55  t_55  1.0
    x_30_56  OBJ  91.0
    x_30_56  a_30  1.0
    x_30_56  t_56  1.0
    x_30_57  OBJ  45.0
    x_30_57  a_30  1.0
    x_30_57  t_57  1.0
    x_30_58  OBJ  87.0
    x_30_58  a_30  1.0
    x_30_58  t_58  1.0
    x_30_59  OBJ  87.0
    x_30_59  a_30  1.0
    x_30_59  t_59  1.0
    x_31_0  OBJ  39.0
    x_31_0  a_31  1.0
    x_31_0  t_0  1.0
    x_31_1  OBJ  23.0
    x_31_1  a_31  1.0
    x_31_1  t_1  1.0
    x_31_2  OBJ  7.0
    x_31_2  a_31  1.0
    x_31_2  t_2  1.0
    x_31_3  OBJ  25.0
    x_31_3  a_31  1.0
    x_31_3  t_3  1.0
    x_31_4  OBJ  9.0
    x_31_4  a_31  1.0
    x_31_4  t_4  1.0
    x_31_5  OBJ  39.0
    x_31_5  a_31  1.0
    x_31_5  t_5  1.0
    x_31_6  OBJ  41.0
    x_31_6  a_31  1.0
    x_31_6  t_6  1.0
    x_31_7  OBJ  31.0
    x_31_7  a_31  1.0
    x_31_7  t_7  1.0
    x_31_8  OBJ  85.0
    x_31_8  a_31  1.0
    x_31_8  t_8  1.0
    x_31_9  OBJ  45.0
    x_31_9  a_31  1.0
    x_31_9  t_9  1.0
    x_31_10  OBJ  21.0
    x_31_10  a_31  1.0
    x_31_10  t_10  1.0
    x_31_11  OBJ  22.0
    x_31_11  a_31  1.0
    x_31_11  t_11  1.0
    x_31_12  OBJ  18.0
    x_31_12  a_31  1.0
    x_31_12  t_12  1.0
    x_31_13  OBJ  17.0
    x_31_13  a_31  1.0
    x_31_13  t_13  1.0
    x_31_14  OBJ  36.0
    x_31_14  a_31  1.0
    x_31_14  t_14  1.0
    x_31_15  OBJ  38.0
    x_31_15  a_31  1.0
    x_31_15  t_15  1.0
    x_31_16  OBJ  79.0
    x_31_16  a_31  1.0
    x_31_16  t_16  1.0
    x_31_17  OBJ  18.0
    x_31_17  a_31  1.0
    x_31_17  t_17  1.0
    x_31_18  OBJ  99.0
    x_31_18  a_31  1.0
    x_31_18  t_18  1.0
    x_31_19  OBJ  34.0
    x_31_19  a_31  1.0
    x_31_19  t_19  1.0
    x_31_20  OBJ  61.0
    x_31_20  a_31  1.0
    x_31_20  t_20  1.0
    x_31_21  OBJ  40.0
    x_31_21  a_31  1.0
    x_31_21  t_21  1.0
    x_31_22  OBJ  34.0
    x_31_22  a_31  1.0
    x_31_22  t_22  1.0
    x_31_23  OBJ  94.0
    x_31_23  a_31  1.0
    x_31_23  t_23  1.0
    x_31_24  OBJ  38.0
    x_31_24  a_31  1.0
    x_31_24  t_24  1.0
    x_31_25  OBJ  42.0
    x_31_25  a_31  1.0
    x_31_25  t_25  1.0
    x_31_26  OBJ  28.0
    x_31_26  a_31  1.0
    x_31_26  t_26  1.0
    x_31_27  OBJ  59.0
    x_31_27  a_31  1.0
    x_31_27  t_27  1.0
    x_31_28  OBJ  35.0
    x_31_28  a_31  1.0
    x_31_28  t_28  1.0
    x_31_29  OBJ  92.0
    x_31_29  a_31  1.0
    x_31_29  t_29  1.0
    x_31_30  OBJ  68.0
    x_31_30  a_31  1.0
    x_31_30  t_30  1.0
    x_31_31  OBJ  44.0
    x_31_31  a_31  1.0
    x_31_31  t_31  1.0
    x_31_32  OBJ  21.0
    x_31_32  a_31  1.0
    x_31_32  t_32  1.0
    x_31_33  OBJ  28.0
    x_31_33  a_31  1.0
    x_31_33  t_33  1.0
    x_31_34  OBJ  15.0
    x_31_34  a_31  1.0
    x_31_34  t_34  1.0
    x_31_35  OBJ  57.0
    x_31_35  a_31  1.0
    x_31_35  t_35  1.0
    x_31_36  OBJ  86.0
    x_31_36  a_31  1.0
    x_31_36  t_36  1.0
    x_31_37  OBJ  82.0
    x_31_37  a_31  1.0
    x_31_37  t_37  1.0
    x_31_38  OBJ  83.0
    x_31_38  a_31  1.0
    x_31_38  t_38  1.0
    x_31_39  OBJ  29.0
    x_31_39  a_31  1.0
    x_31_39  t_39  1.0
    x_31_40  OBJ  4.0
    x_31_40  a_31  1.0
    x_31_40  t_40  1.0
    x_31_41  OBJ  73.0
    x_31_41  a_31  1.0
    x_31_41  t_41  1.0
    x_31_42  OBJ  56.0
    x_31_42  a_31  1.0
    x_31_42  t_42  1.0
    x_31_43  OBJ  48.0
    x_31_43  a_31  1.0
    x_31_43  t_43  1.0
    x_31_44  OBJ  58.0
    x_31_44  a_31  1.0
    x_31_44  t_44  1.0
    x_31_45  OBJ  53.0
    x_31_45  a_31  1.0
    x_31_45  t_45  1.0
    x_31_46  OBJ  33.0
    x_31_46  a_31  1.0
    x_31_46  t_46  1.0
    x_31_47  OBJ  64.0
    x_31_47  a_31  1.0
    x_31_47  t_47  1.0
    x_31_48  OBJ  38.0
    x_31_48  a_31  1.0
    x_31_48  t_48  1.0
    x_31_49  OBJ  47.0
    x_31_49  a_31  1.0
    x_31_49  t_49  1.0
    x_31_50  OBJ  11.0
    x_31_50  a_31  1.0
    x_31_50  t_50  1.0
    x_31_51  OBJ  19.0
    x_31_51  a_31  1.0
    x_31_51  t_51  1.0
    x_31_52  OBJ  7.0
    x_31_52  a_31  1.0
    x_31_52  t_52  1.0
    x_31_53  OBJ  23.0
    x_31_53  a_31  1.0
    x_31_53  t_53  1.0
    x_31_54  OBJ  12.0
    x_31_54  a_31  1.0
    x_31_54  t_54  1.0
    x_31_55  OBJ  5.0
    x_31_55  a_31  1.0
    x_31_55  t_55  1.0
    x_31_56  OBJ  98.0
    x_31_56  a_31  1.0
    x_31_56  t_56  1.0
    x_31_57  OBJ  88.0
    x_31_57  a_31  1.0
    x_31_57  t_57  1.0
    x_31_58  OBJ  70.0
    x_31_58  a_31  1.0
    x_31_58  t_58  1.0
    x_31_59  OBJ  65.0
    x_31_59  a_31  1.0
    x_31_59  t_59  1.0
    x_32_0  OBJ  26.0
    x_32_0  a_32  1.0
    x_32_0  t_0  1.0
    x_32_1  OBJ  93.0
    x_32_1  a_32  1.0
    x_32_1  t_1  1.0
    x_32_2  OBJ  18.0
    x_32_2  a_32  1.0
    x_32_2  t_2  1.0
    x_32_3  OBJ  32.0
    x_32_3  a_32  1.0
    x_32_3  t_3  1.0
    x_32_4  OBJ  30.0
    x_32_4  a_32  1.0
    x_32_4  t_4  1.0
    x_32_5  OBJ  56.0
    x_32_5  a_32  1.0
    x_32_5  t_5  1.0
    x_32_6  OBJ  16.0
    x_32_6  a_32  1.0
    x_32_6  t_6  1.0
    x_32_7  OBJ  57.0
    x_32_7  a_32  1.0
    x_32_7  t_7  1.0
    x_32_8  OBJ  21.0
    x_32_8  a_32  1.0
    x_32_8  t_8  1.0
    x_32_9  OBJ  14.0
    x_32_9  a_32  1.0
    x_32_9  t_9  1.0
    x_32_10  OBJ  78.0
    x_32_10  a_32  1.0
    x_32_10  t_10  1.0
    x_32_11  OBJ  56.0
    x_32_11  a_32  1.0
    x_32_11  t_11  1.0
    x_32_12  OBJ  93.0
    x_32_12  a_32  1.0
    x_32_12  t_12  1.0
    x_32_13  OBJ  60.0
    x_32_13  a_32  1.0
    x_32_13  t_13  1.0
    x_32_14  OBJ  89.0
    x_32_14  a_32  1.0
    x_32_14  t_14  1.0
    x_32_15  OBJ  43.0
    x_32_15  a_32  1.0
    x_32_15  t_15  1.0
    x_32_16  OBJ  55.0
    x_32_16  a_32  1.0
    x_32_16  t_16  1.0
    x_32_17  OBJ  35.0
    x_32_17  a_32  1.0
    x_32_17  t_17  1.0
    x_32_18  OBJ  41.0
    x_32_18  a_32  1.0
    x_32_18  t_18  1.0
    x_32_19  OBJ  24.0
    x_32_19  a_32  1.0
    x_32_19  t_19  1.0
    x_32_20  OBJ  70.0
    x_32_20  a_32  1.0
    x_32_20  t_20  1.0
    x_32_21  OBJ  8.0
    x_32_21  a_32  1.0
    x_32_21  t_21  1.0
    x_32_22  OBJ  79.0
    x_32_22  a_32  1.0
    x_32_22  t_22  1.0
    x_32_23  OBJ  60.0
    x_32_23  a_32  1.0
    x_32_23  t_23  1.0
    x_32_24  OBJ  35.0
    x_32_24  a_32  1.0
    x_32_24  t_24  1.0
    x_32_25  OBJ  20.0
    x_32_25  a_32  1.0
    x_32_25  t_25  1.0
    x_32_26  OBJ  35.0
    x_32_26  a_32  1.0
    x_32_26  t_26  1.0
    x_32_27  OBJ  8.0
    x_32_27  a_32  1.0
    x_32_27  t_27  1.0
    x_32_28  OBJ  27.0
    x_32_28  a_32  1.0
    x_32_28  t_28  1.0
    x_32_29  OBJ  98.0
    x_32_29  a_32  1.0
    x_32_29  t_29  1.0
    x_32_30  OBJ  52.0
    x_32_30  a_32  1.0
    x_32_30  t_30  1.0
    x_32_31  OBJ  89.0
    x_32_31  a_32  1.0
    x_32_31  t_31  1.0
    x_32_32  OBJ  39.0
    x_32_32  a_32  1.0
    x_32_32  t_32  1.0
    x_32_33  OBJ  36.0
    x_32_33  a_32  1.0
    x_32_33  t_33  1.0
    x_32_34  OBJ  32.0
    x_32_34  a_32  1.0
    x_32_34  t_34  1.0
    x_32_35  OBJ  47.0
    x_32_35  a_32  1.0
    x_32_35  t_35  1.0
    x_32_36  OBJ  40.0
    x_32_36  a_32  1.0
    x_32_36  t_36  1.0
    x_32_37  OBJ  21.0
    x_32_37  a_32  1.0
    x_32_37  t_37  1.0
    x_32_38  OBJ  1.0
    x_32_38  a_32  1.0
    x_32_38  t_38  1.0
    x_32_39  OBJ  98.0
    x_32_39  a_32  1.0
    x_32_39  t_39  1.0
    x_32_40  OBJ  29.0
    x_32_40  a_32  1.0
    x_32_40  t_40  1.0
    x_32_41  OBJ  30.0
    x_32_41  a_32  1.0
    x_32_41  t_41  1.0
    x_32_42  OBJ  25.0
    x_32_42  a_32  1.0
    x_32_42  t_42  1.0
    x_32_43  OBJ  83.0
    x_32_43  a_32  1.0
    x_32_43  t_43  1.0
    x_32_44  OBJ  58.0
    x_32_44  a_32  1.0
    x_32_44  t_44  1.0
    x_32_45  OBJ  74.0
    x_32_45  a_32  1.0
    x_32_45  t_45  1.0
    x_32_46  OBJ  14.0
    x_32_46  a_32  1.0
    x_32_46  t_46  1.0
    x_32_47  OBJ  2.0
    x_32_47  a_32  1.0
    x_32_47  t_47  1.0
    x_32_48  OBJ  43.0
    x_32_48  a_32  1.0
    x_32_48  t_48  1.0
    x_32_49  OBJ  4.0
    x_32_49  a_32  1.0
    x_32_49  t_49  1.0
    x_32_50  OBJ  96.0
    x_32_50  a_32  1.0
    x_32_50  t_50  1.0
    x_32_51  OBJ  44.0
    x_32_51  a_32  1.0
    x_32_51  t_51  1.0
    x_32_52  OBJ  85.0
    x_32_52  a_32  1.0
    x_32_52  t_52  1.0
    x_32_53  OBJ  4.0
    x_32_53  a_32  1.0
    x_32_53  t_53  1.0
    x_32_54  OBJ  36.0
    x_32_54  a_32  1.0
    x_32_54  t_54  1.0
    x_32_55  OBJ  91.0
    x_32_55  a_32  1.0
    x_32_55  t_55  1.0
    x_32_56  OBJ  25.0
    x_32_56  a_32  1.0
    x_32_56  t_56  1.0
    x_32_57  OBJ  97.0
    x_32_57  a_32  1.0
    x_32_57  t_57  1.0
    x_32_58  OBJ  88.0
    x_32_58  a_32  1.0
    x_32_58  t_58  1.0
    x_32_59  OBJ  61.0
    x_32_59  a_32  1.0
    x_32_59  t_59  1.0
    x_33_0  OBJ  66.0
    x_33_0  a_33  1.0
    x_33_0  t_0  1.0
    x_33_1  OBJ  31.0
    x_33_1  a_33  1.0
    x_33_1  t_1  1.0
    x_33_2  OBJ  89.0
    x_33_2  a_33  1.0
    x_33_2  t_2  1.0
    x_33_3  OBJ  22.0
    x_33_3  a_33  1.0
    x_33_3  t_3  1.0
    x_33_4  OBJ  40.0
    x_33_4  a_33  1.0
    x_33_4  t_4  1.0
    x_33_5  OBJ  14.0
    x_33_5  a_33  1.0
    x_33_5  t_5  1.0
    x_33_6  OBJ  78.0
    x_33_6  a_33  1.0
    x_33_6  t_6  1.0
    x_33_7  OBJ  57.0
    x_33_7  a_33  1.0
    x_33_7  t_7  1.0
    x_33_8  OBJ  82.0
    x_33_8  a_33  1.0
    x_33_8  t_8  1.0
    x_33_9  OBJ  16.0
    x_33_9  a_33  1.0
    x_33_9  t_9  1.0
    x_33_10  OBJ  1.0
    x_33_10  a_33  1.0
    x_33_10  t_10  1.0
    x_33_11  OBJ  22.0
    x_33_11  a_33  1.0
    x_33_11  t_11  1.0
    x_33_12  OBJ  46.0
    x_33_12  a_33  1.0
    x_33_12  t_12  1.0
    x_33_13  OBJ  72.0
    x_33_13  a_33  1.0
    x_33_13  t_13  1.0
    x_33_14  OBJ  52.0
    x_33_14  a_33  1.0
    x_33_14  t_14  1.0
    x_33_15  OBJ  87.0
    x_33_15  a_33  1.0
    x_33_15  t_15  1.0
    x_33_16  OBJ  83.0
    x_33_16  a_33  1.0
    x_33_16  t_16  1.0
    x_33_17  OBJ  63.0
    x_33_17  a_33  1.0
    x_33_17  t_17  1.0
    x_33_18  OBJ  34.0
    x_33_18  a_33  1.0
    x_33_18  t_18  1.0
    x_33_19  OBJ  95.0
    x_33_19  a_33  1.0
    x_33_19  t_19  1.0
    x_33_20  OBJ  93.0
    x_33_20  a_33  1.0
    x_33_20  t_20  1.0
    x_33_21  OBJ  81.0
    x_33_21  a_33  1.0
    x_33_21  t_21  1.0
    x_33_22  OBJ  63.0
    x_33_22  a_33  1.0
    x_33_22  t_22  1.0
    x_33_23  OBJ  43.0
    x_33_23  a_33  1.0
    x_33_23  t_23  1.0
    x_33_24  OBJ  17.0
    x_33_24  a_33  1.0
    x_33_24  t_24  1.0
    x_33_25  OBJ  36.0
    x_33_25  a_33  1.0
    x_33_25  t_25  1.0
    x_33_26  OBJ  71.0
    x_33_26  a_33  1.0
    x_33_26  t_26  1.0
    x_33_27  OBJ  20.0
    x_33_27  a_33  1.0
    x_33_27  t_27  1.0
    x_33_28  OBJ  97.0
    x_33_28  a_33  1.0
    x_33_28  t_28  1.0
    x_33_29  OBJ  80.0
    x_33_29  a_33  1.0
    x_33_29  t_29  1.0
    x_33_30  OBJ  78.0
    x_33_30  a_33  1.0
    x_33_30  t_30  1.0
    x_33_31  OBJ  51.0
    x_33_31  a_33  1.0
    x_33_31  t_31  1.0
    x_33_32  OBJ  21.0
    x_33_32  a_33  1.0
    x_33_32  t_32  1.0
    x_33_33  OBJ  87.0
    x_33_33  a_33  1.0
    x_33_33  t_33  1.0
    x_33_34  OBJ  35.0
    x_33_34  a_33  1.0
    x_33_34  t_34  1.0
    x_33_35  OBJ  49.0
    x_33_35  a_33  1.0
    x_33_35  t_35  1.0
    x_33_36  OBJ  5.0
    x_33_36  a_33  1.0
    x_33_36  t_36  1.0
    x_33_37  OBJ  87.0
    x_33_37  a_33  1.0
    x_33_37  t_37  1.0
    x_33_38  OBJ  54.0
    x_33_38  a_33  1.0
    x_33_38  t_38  1.0
    x_33_39  OBJ  72.0
    x_33_39  a_33  1.0
    x_33_39  t_39  1.0
    x_33_40  OBJ  15.0
    x_33_40  a_33  1.0
    x_33_40  t_40  1.0
    x_33_41  OBJ  57.0
    x_33_41  a_33  1.0
    x_33_41  t_41  1.0
    x_33_42  OBJ  66.0
    x_33_42  a_33  1.0
    x_33_42  t_42  1.0
    x_33_43  OBJ  74.0
    x_33_43  a_33  1.0
    x_33_43  t_43  1.0
    x_33_44  OBJ  87.0
    x_33_44  a_33  1.0
    x_33_44  t_44  1.0
    x_33_45  OBJ  73.0
    x_33_45  a_33  1.0
    x_33_45  t_45  1.0
    x_33_46  OBJ  90.0
    x_33_46  a_33  1.0
    x_33_46  t_46  1.0
    x_33_47  OBJ  5.0
    x_33_47  a_33  1.0
    x_33_47  t_47  1.0
    x_33_48  OBJ  54.0
    x_33_48  a_33  1.0
    x_33_48  t_48  1.0
    x_33_49  OBJ  81.0
    x_33_49  a_33  1.0
    x_33_49  t_49  1.0
    x_33_50  OBJ  95.0
    x_33_50  a_33  1.0
    x_33_50  t_50  1.0
    x_33_51  OBJ  11.0
    x_33_51  a_33  1.0
    x_33_51  t_51  1.0
    x_33_52  OBJ  29.0
    x_33_52  a_33  1.0
    x_33_52  t_52  1.0
    x_33_53  OBJ  54.0
    x_33_53  a_33  1.0
    x_33_53  t_53  1.0
    x_33_54  OBJ  52.0
    x_33_54  a_33  1.0
    x_33_54  t_54  1.0
    x_33_55  OBJ  49.0
    x_33_55  a_33  1.0
    x_33_55  t_55  1.0
    x_33_56  OBJ  49.0
    x_33_56  a_33  1.0
    x_33_56  t_56  1.0
    x_33_57  OBJ  76.0
    x_33_57  a_33  1.0
    x_33_57  t_57  1.0
    x_33_58  OBJ  5.0
    x_33_58  a_33  1.0
    x_33_58  t_58  1.0
    x_33_59  OBJ  22.0
    x_33_59  a_33  1.0
    x_33_59  t_59  1.0
    x_34_0  OBJ  57.0
    x_34_0  a_34  1.0
    x_34_0  t_0  1.0
    x_34_1  OBJ  70.0
    x_34_1  a_34  1.0
    x_34_1  t_1  1.0
    x_34_2  OBJ  51.0
    x_34_2  a_34  1.0
    x_34_2  t_2  1.0
    x_34_3  OBJ  79.0
    x_34_3  a_34  1.0
    x_34_3  t_3  1.0
    x_34_4  OBJ  40.0
    x_34_4  a_34  1.0
    x_34_4  t_4  1.0
    x_34_5  OBJ  35.0
    x_34_5  a_34  1.0
    x_34_5  t_5  1.0
    x_34_6  OBJ  29.0
    x_34_6  a_34  1.0
    x_34_6  t_6  1.0
    x_34_7  OBJ  58.0
    x_34_7  a_34  1.0
    x_34_7  t_7  1.0
    x_34_8  OBJ  90.0
    x_34_8  a_34  1.0
    x_34_8  t_8  1.0
    x_34_9  OBJ  41.0
    x_34_9  a_34  1.0
    x_34_9  t_9  1.0
    x_34_10  OBJ  34.0
    x_34_10  a_34  1.0
    x_34_10  t_10  1.0
    x_34_11  OBJ  75.0
    x_34_11  a_34  1.0
    x_34_11  t_11  1.0
    x_34_12  OBJ  88.0
    x_34_12  a_34  1.0
    x_34_12  t_12  1.0
    x_34_13  OBJ  88.0
    x_34_13  a_34  1.0
    x_34_13  t_13  1.0
    x_34_14  OBJ  15.0
    x_34_14  a_34  1.0
    x_34_14  t_14  1.0
    x_34_15  OBJ  51.0
    x_34_15  a_34  1.0
    x_34_15  t_15  1.0
    x_34_16  OBJ  95.0
    x_34_16  a_34  1.0
    x_34_16  t_16  1.0
    x_34_17  OBJ  2.0
    x_34_17  a_34  1.0
    x_34_17  t_17  1.0
    x_34_18  OBJ  66.0
    x_34_18  a_34  1.0
    x_34_18  t_18  1.0
    x_34_19  OBJ  92.0
    x_34_19  a_34  1.0
    x_34_19  t_19  1.0
    x_34_20  OBJ  17.0
    x_34_20  a_34  1.0
    x_34_20  t_20  1.0
    x_34_21  OBJ  59.0
    x_34_21  a_34  1.0
    x_34_21  t_21  1.0
    x_34_22  OBJ  63.0
    x_34_22  a_34  1.0
    x_34_22  t_22  1.0
    x_34_23  OBJ  18.0
    x_34_23  a_34  1.0
    x_34_23  t_23  1.0
    x_34_24  OBJ  14.0
    x_34_24  a_34  1.0
    x_34_24  t_24  1.0
    x_34_25  OBJ  73.0
    x_34_25  a_34  1.0
    x_34_25  t_25  1.0
    x_34_26  OBJ  44.0
    x_34_26  a_34  1.0
    x_34_26  t_26  1.0
    x_34_27  OBJ  45.0
    x_34_27  a_34  1.0
    x_34_27  t_27  1.0
    x_34_28  OBJ  34.0
    x_34_28  a_34  1.0
    x_34_28  t_28  1.0
    x_34_29  OBJ  18.0
    x_34_29  a_34  1.0
    x_34_29  t_29  1.0
    x_34_30  OBJ  67.0
    x_34_30  a_34  1.0
    x_34_30  t_30  1.0
    x_34_31  OBJ  34.0
    x_34_31  a_34  1.0
    x_34_31  t_31  1.0
    x_34_32  OBJ  17.0
    x_34_32  a_34  1.0
    x_34_32  t_32  1.0
    x_34_33  OBJ  61.0
    x_34_33  a_34  1.0
    x_34_33  t_33  1.0
    x_34_34  OBJ  25.0
    x_34_34  a_34  1.0
    x_34_34  t_34  1.0
    x_34_35  OBJ  34.0
    x_34_35  a_34  1.0
    x_34_35  t_35  1.0
    x_34_36  OBJ  19.0
    x_34_36  a_34  1.0
    x_34_36  t_36  1.0
    x_34_37  OBJ  14.0
    x_34_37  a_34  1.0
    x_34_37  t_37  1.0
    x_34_38  OBJ  47.0
    x_34_38  a_34  1.0
    x_34_38  t_38  1.0
    x_34_39  OBJ  6.0
    x_34_39  a_34  1.0
    x_34_39  t_39  1.0
    x_34_40  OBJ  90.0
    x_34_40  a_34  1.0
    x_34_40  t_40  1.0
    x_34_41  OBJ  39.0
    x_34_41  a_34  1.0
    x_34_41  t_41  1.0
    x_34_42  OBJ  40.0
    x_34_42  a_34  1.0
    x_34_42  t_42  1.0
    x_34_43  OBJ  73.0
    x_34_43  a_34  1.0
    x_34_43  t_43  1.0
    x_34_44  OBJ  29.0
    x_34_44  a_34  1.0
    x_34_44  t_44  1.0
    x_34_45  OBJ  35.0
    x_34_45  a_34  1.0
    x_34_45  t_45  1.0
    x_34_46  OBJ  40.0
    x_34_46  a_34  1.0
    x_34_46  t_46  1.0
    x_34_47  OBJ  41.0
    x_34_47  a_34  1.0
    x_34_47  t_47  1.0
    x_34_48  OBJ  25.0
    x_34_48  a_34  1.0
    x_34_48  t_48  1.0
    x_34_49  OBJ  80.0
    x_34_49  a_34  1.0
    x_34_49  t_49  1.0
    x_34_50  OBJ  23.0
    x_34_50  a_34  1.0
    x_34_50  t_50  1.0
    x_34_51  OBJ  64.0
    x_34_51  a_34  1.0
    x_34_51  t_51  1.0
    x_34_52  OBJ  38.0
    x_34_52  a_34  1.0
    x_34_52  t_52  1.0
    x_34_53  OBJ  98.0
    x_34_53  a_34  1.0
    x_34_53  t_53  1.0
    x_34_54  OBJ  78.0
    x_34_54  a_34  1.0
    x_34_54  t_54  1.0
    x_34_55  OBJ  83.0
    x_34_55  a_34  1.0
    x_34_55  t_55  1.0
    x_34_56  OBJ  44.0
    x_34_56  a_34  1.0
    x_34_56  t_56  1.0
    x_34_57  OBJ  94.0
    x_34_57  a_34  1.0
    x_34_57  t_57  1.0
    x_34_58  OBJ  48.0
    x_34_58  a_34  1.0
    x_34_58  t_58  1.0
    x_34_59  OBJ  51.0
    x_34_59  a_34  1.0
    x_34_59  t_59  1.0
    x_35_0  OBJ  78.0
    x_35_0  a_35  1.0
    x_35_0  t_0  1.0
    x_35_1  OBJ  77.0
    x_35_1  a_35  1.0
    x_35_1  t_1  1.0
    x_35_2  OBJ  17.0
    x_35_2  a_35  1.0
    x_35_2  t_2  1.0
    x_35_3  OBJ  99.0
    x_35_3  a_35  1.0
    x_35_3  t_3  1.0
    x_35_4  OBJ  26.0
    x_35_4  a_35  1.0
    x_35_4  t_4  1.0
    x_35_5  OBJ  2.0
    x_35_5  a_35  1.0
    x_35_5  t_5  1.0
    x_35_6  OBJ  25.0
    x_35_6  a_35  1.0
    x_35_6  t_6  1.0
    x_35_7  OBJ  47.0
    x_35_7  a_35  1.0
    x_35_7  t_7  1.0
    x_35_8  OBJ  16.0
    x_35_8  a_35  1.0
    x_35_8  t_8  1.0
    x_35_9  OBJ  74.0
    x_35_9  a_35  1.0
    x_35_9  t_9  1.0
    x_35_10  OBJ  84.0
    x_35_10  a_35  1.0
    x_35_10  t_10  1.0
    x_35_11  OBJ  23.0
    x_35_11  a_35  1.0
    x_35_11  t_11  1.0
    x_35_12  OBJ  34.0
    x_35_12  a_35  1.0
    x_35_12  t_12  1.0
    x_35_13  OBJ  7.0
    x_35_13  a_35  1.0
    x_35_13  t_13  1.0
    x_35_14  OBJ  66.0
    x_35_14  a_35  1.0
    x_35_14  t_14  1.0
    x_35_15  OBJ  50.0
    x_35_15  a_35  1.0
    x_35_15  t_15  1.0
    x_35_16  OBJ  42.0
    x_35_16  a_35  1.0
    x_35_16  t_16  1.0
    x_35_17  OBJ  7.0
    x_35_17  a_35  1.0
    x_35_17  t_17  1.0
    x_35_18  OBJ  54.0
    x_35_18  a_35  1.0
    x_35_18  t_18  1.0
    x_35_19  OBJ  16.0
    x_35_19  a_35  1.0
    x_35_19  t_19  1.0
    x_35_20  OBJ  8.0
    x_35_20  a_35  1.0
    x_35_20  t_20  1.0
    x_35_21  OBJ  5.0
    x_35_21  a_35  1.0
    x_35_21  t_21  1.0
    x_35_22  OBJ  12.0
    x_35_22  a_35  1.0
    x_35_22  t_22  1.0
    x_35_23  OBJ  73.0
    x_35_23  a_35  1.0
    x_35_23  t_23  1.0
    x_35_24  OBJ  58.0
    x_35_24  a_35  1.0
    x_35_24  t_24  1.0
    x_35_25  OBJ  5.0
    x_35_25  a_35  1.0
    x_35_25  t_25  1.0
    x_35_26  OBJ  28.0
    x_35_26  a_35  1.0
    x_35_26  t_26  1.0
    x_35_27  OBJ  92.0
    x_35_27  a_35  1.0
    x_35_27  t_27  1.0
    x_35_28  OBJ  98.0
    x_35_28  a_35  1.0
    x_35_28  t_28  1.0
    x_35_29  OBJ  56.0
    x_35_29  a_35  1.0
    x_35_29  t_29  1.0
    x_35_30  OBJ  9.0
    x_35_30  a_35  1.0
    x_35_30  t_30  1.0
    x_35_31  OBJ  40.0
    x_35_31  a_35  1.0
    x_35_31  t_31  1.0
    x_35_32  OBJ  76.0
    x_35_32  a_35  1.0
    x_35_32  t_32  1.0
    x_35_33  OBJ  15.0
    x_35_33  a_35  1.0
    x_35_33  t_33  1.0
    x_35_34  OBJ  23.0
    x_35_34  a_35  1.0
    x_35_34  t_34  1.0
    x_35_35  OBJ  39.0
    x_35_35  a_35  1.0
    x_35_35  t_35  1.0
    x_35_36  OBJ  23.0
    x_35_36  a_35  1.0
    x_35_36  t_36  1.0
    x_35_37  OBJ  26.0
    x_35_37  a_35  1.0
    x_35_37  t_37  1.0
    x_35_38  OBJ  42.0
    x_35_38  a_35  1.0
    x_35_38  t_38  1.0
    x_35_39  OBJ  86.0
    x_35_39  a_35  1.0
    x_35_39  t_39  1.0
    x_35_40  OBJ  92.0
    x_35_40  a_35  1.0
    x_35_40  t_40  1.0
    x_35_41  OBJ  51.0
    x_35_41  a_35  1.0
    x_35_41  t_41  1.0
    x_35_42  OBJ  25.0
    x_35_42  a_35  1.0
    x_35_42  t_42  1.0
    x_35_43  OBJ  2.0
    x_35_43  a_35  1.0
    x_35_43  t_43  1.0
    x_35_44  OBJ  74.0
    x_35_44  a_35  1.0
    x_35_44  t_44  1.0
    x_35_45  OBJ  93.0
    x_35_45  a_35  1.0
    x_35_45  t_45  1.0
    x_35_46  OBJ  53.0
    x_35_46  a_35  1.0
    x_35_46  t_46  1.0
    x_35_47  OBJ  98.0
    x_35_47  a_35  1.0
    x_35_47  t_47  1.0
    x_35_48  OBJ  99.0
    x_35_48  a_35  1.0
    x_35_48  t_48  1.0
    x_35_49  OBJ  99.0
    x_35_49  a_35  1.0
    x_35_49  t_49  1.0
    x_35_50  OBJ  86.0
    x_35_50  a_35  1.0
    x_35_50  t_50  1.0
    x_35_51  OBJ  27.0
    x_35_51  a_35  1.0
    x_35_51  t_51  1.0
    x_35_52  OBJ  82.0
    x_35_52  a_35  1.0
    x_35_52  t_52  1.0
    x_35_53  OBJ  50.0
    x_35_53  a_35  1.0
    x_35_53  t_53  1.0
    x_35_54  OBJ  77.0
    x_35_54  a_35  1.0
    x_35_54  t_54  1.0
    x_35_55  OBJ  71.0
    x_35_55  a_35  1.0
    x_35_55  t_55  1.0
    x_35_56  OBJ  37.0
    x_35_56  a_35  1.0
    x_35_56  t_56  1.0
    x_35_57  OBJ  11.0
    x_35_57  a_35  1.0
    x_35_57  t_57  1.0
    x_35_58  OBJ  83.0
    x_35_58  a_35  1.0
    x_35_58  t_58  1.0
    x_35_59  OBJ  43.0
    x_35_59  a_35  1.0
    x_35_59  t_59  1.0
    x_36_0  OBJ  86.0
    x_36_0  a_36  1.0
    x_36_0  t_0  1.0
    x_36_1  OBJ  32.0
    x_36_1  a_36  1.0
    x_36_1  t_1  1.0
    x_36_2  OBJ  67.0
    x_36_2  a_36  1.0
    x_36_2  t_2  1.0
    x_36_3  OBJ  86.0
    x_36_3  a_36  1.0
    x_36_3  t_3  1.0
    x_36_4  OBJ  4.0
    x_36_4  a_36  1.0
    x_36_4  t_4  1.0
    x_36_5  OBJ  3.0
    x_36_5  a_36  1.0
    x_36_5  t_5  1.0
    x_36_6  OBJ  76.0
    x_36_6  a_36  1.0
    x_36_6  t_6  1.0
    x_36_7  OBJ  92.0
    x_36_7  a_36  1.0
    x_36_7  t_7  1.0
    x_36_8  OBJ  97.0
    x_36_8  a_36  1.0
    x_36_8  t_8  1.0
    x_36_9  OBJ  2.0
    x_36_9  a_36  1.0
    x_36_9  t_9  1.0
    x_36_10  OBJ  20.0
    x_36_10  a_36  1.0
    x_36_10  t_10  1.0
    x_36_11  OBJ  92.0
    x_36_11  a_36  1.0
    x_36_11  t_11  1.0
    x_36_12  OBJ  58.0
    x_36_12  a_36  1.0
    x_36_12  t_12  1.0
    x_36_13  OBJ  46.0
    x_36_13  a_36  1.0
    x_36_13  t_13  1.0
    x_36_14  OBJ  33.0
    x_36_14  a_36  1.0
    x_36_14  t_14  1.0
    x_36_15  OBJ  19.0
    x_36_15  a_36  1.0
    x_36_15  t_15  1.0
    x_36_16  OBJ  28.0
    x_36_16  a_36  1.0
    x_36_16  t_16  1.0
    x_36_17  OBJ  32.0
    x_36_17  a_36  1.0
    x_36_17  t_17  1.0
    x_36_18  OBJ  56.0
    x_36_18  a_36  1.0
    x_36_18  t_18  1.0
    x_36_19  OBJ  93.0
    x_36_19  a_36  1.0
    x_36_19  t_19  1.0
    x_36_20  OBJ  56.0
    x_36_20  a_36  1.0
    x_36_20  t_20  1.0
    x_36_21  OBJ  19.0
    x_36_21  a_36  1.0
    x_36_21  t_21  1.0
    x_36_22  OBJ  8.0
    x_36_22  a_36  1.0
    x_36_22  t_22  1.0
    x_36_23  OBJ  81.0
    x_36_23  a_36  1.0
    x_36_23  t_23  1.0
    x_36_24  OBJ  86.0
    x_36_24  a_36  1.0
    x_36_24  t_24  1.0
    x_36_25  OBJ  89.0
    x_36_25  a_36  1.0
    x_36_25  t_25  1.0
    x_36_26  OBJ  98.0
    x_36_26  a_36  1.0
    x_36_26  t_26  1.0
    x_36_27  OBJ  30.0
    x_36_27  a_36  1.0
    x_36_27  t_27  1.0
    x_36_28  OBJ  35.0
    x_36_28  a_36  1.0
    x_36_28  t_28  1.0
    x_36_29  OBJ  58.0
    x_36_29  a_36  1.0
    x_36_29  t_29  1.0
    x_36_30  OBJ  8.0
    x_36_30  a_36  1.0
    x_36_30  t_30  1.0
    x_36_31  OBJ  52.0
    x_36_31  a_36  1.0
    x_36_31  t_31  1.0
    x_36_32  OBJ  38.0
    x_36_32  a_36  1.0
    x_36_32  t_32  1.0
    x_36_33  OBJ  93.0
    x_36_33  a_36  1.0
    x_36_33  t_33  1.0
    x_36_34  OBJ  87.0
    x_36_34  a_36  1.0
    x_36_34  t_34  1.0
    x_36_35  OBJ  19.0
    x_36_35  a_36  1.0
    x_36_35  t_35  1.0
    x_36_36  OBJ  9.0
    x_36_36  a_36  1.0
    x_36_36  t_36  1.0
    x_36_37  OBJ  38.0
    x_36_37  a_36  1.0
    x_36_37  t_37  1.0
    x_36_38  OBJ  98.0
    x_36_38  a_36  1.0
    x_36_38  t_38  1.0
    x_36_39  OBJ  66.0
    x_36_39  a_36  1.0
    x_36_39  t_39  1.0
    x_36_40  OBJ  20.0
    x_36_40  a_36  1.0
    x_36_40  t_40  1.0
    x_36_41  OBJ  15.0
    x_36_41  a_36  1.0
    x_36_41  t_41  1.0
    x_36_42  OBJ  19.0
    x_36_42  a_36  1.0
    x_36_42  t_42  1.0
    x_36_43  OBJ  26.0
    x_36_43  a_36  1.0
    x_36_43  t_43  1.0
    x_36_44  OBJ  54.0
    x_36_44  a_36  1.0
    x_36_44  t_44  1.0
    x_36_45  OBJ  77.0
    x_36_45  a_36  1.0
    x_36_45  t_45  1.0
    x_36_46  OBJ  68.0
    x_36_46  a_36  1.0
    x_36_46  t_46  1.0
    x_36_47  OBJ  64.0
    x_36_47  a_36  1.0
    x_36_47  t_47  1.0
    x_36_48  OBJ  34.0
    x_36_48  a_36  1.0
    x_36_48  t_48  1.0
    x_36_49  OBJ  56.0
    x_36_49  a_36  1.0
    x_36_49  t_49  1.0
    x_36_50  OBJ  27.0
    x_36_50  a_36  1.0
    x_36_50  t_50  1.0
    x_36_51  OBJ  86.0
    x_36_51  a_36  1.0
    x_36_51  t_51  1.0
    x_36_52  OBJ  36.0
    x_36_52  a_36  1.0
    x_36_52  t_52  1.0
    x_36_53  OBJ  25.0
    x_36_53  a_36  1.0
    x_36_53  t_53  1.0
    x_36_54  OBJ  60.0
    x_36_54  a_36  1.0
    x_36_54  t_54  1.0
    x_36_55  OBJ  91.0
    x_36_55  a_36  1.0
    x_36_55  t_55  1.0
    x_36_56  OBJ  16.0
    x_36_56  a_36  1.0
    x_36_56  t_56  1.0
    x_36_57  OBJ  33.0
    x_36_57  a_36  1.0
    x_36_57  t_57  1.0
    x_36_58  OBJ  27.0
    x_36_58  a_36  1.0
    x_36_58  t_58  1.0
    x_36_59  OBJ  91.0
    x_36_59  a_36  1.0
    x_36_59  t_59  1.0
    x_37_0  OBJ  89.0
    x_37_0  a_37  1.0
    x_37_0  t_0  1.0
    x_37_1  OBJ  73.0
    x_37_1  a_37  1.0
    x_37_1  t_1  1.0
    x_37_2  OBJ  96.0
    x_37_2  a_37  1.0
    x_37_2  t_2  1.0
    x_37_3  OBJ  72.0
    x_37_3  a_37  1.0
    x_37_3  t_3  1.0
    x_37_4  OBJ  7.0
    x_37_4  a_37  1.0
    x_37_4  t_4  1.0
    x_37_5  OBJ  61.0
    x_37_5  a_37  1.0
    x_37_5  t_5  1.0
    x_37_6  OBJ  81.0
    x_37_6  a_37  1.0
    x_37_6  t_6  1.0
    x_37_7  OBJ  77.0
    x_37_7  a_37  1.0
    x_37_7  t_7  1.0
    x_37_8  OBJ  27.0
    x_37_8  a_37  1.0
    x_37_8  t_8  1.0
    x_37_9  OBJ  31.0
    x_37_9  a_37  1.0
    x_37_9  t_9  1.0
    x_37_10  OBJ  29.0
    x_37_10  a_37  1.0
    x_37_10  t_10  1.0
    x_37_11  OBJ  73.0
    x_37_11  a_37  1.0
    x_37_11  t_11  1.0
    x_37_12  OBJ  44.0
    x_37_12  a_37  1.0
    x_37_12  t_12  1.0
    x_37_13  OBJ  12.0
    x_37_13  a_37  1.0
    x_37_13  t_13  1.0
    x_37_14  OBJ  49.0
    x_37_14  a_37  1.0
    x_37_14  t_14  1.0
    x_37_15  OBJ  65.0
    x_37_15  a_37  1.0
    x_37_15  t_15  1.0
    x_37_16  OBJ  16.0
    x_37_16  a_37  1.0
    x_37_16  t_16  1.0
    x_37_17  OBJ  97.0
    x_37_17  a_37  1.0
    x_37_17  t_17  1.0
    x_37_18  OBJ  62.0
    x_37_18  a_37  1.0
    x_37_18  t_18  1.0
    x_37_19  OBJ  96.0
    x_37_19  a_37  1.0
    x_37_19  t_19  1.0
    x_37_20  OBJ  53.0
    x_37_20  a_37  1.0
    x_37_20  t_20  1.0
    x_37_21  OBJ  25.0
    x_37_21  a_37  1.0
    x_37_21  t_21  1.0
    x_37_22  OBJ  62.0
    x_37_22  a_37  1.0
    x_37_22  t_22  1.0
    x_37_23  OBJ  90.0
    x_37_23  a_37  1.0
    x_37_23  t_23  1.0
    x_37_24  OBJ  21.0
    x_37_24  a_37  1.0
    x_37_24  t_24  1.0
    x_37_25  OBJ  60.0
    x_37_25  a_37  1.0
    x_37_25  t_25  1.0
    x_37_26  OBJ  70.0
    x_37_26  a_37  1.0
    x_37_26  t_26  1.0
    x_37_27  OBJ  44.0
    x_37_27  a_37  1.0
    x_37_27  t_27  1.0
    x_37_28  OBJ  37.0
    x_37_28  a_37  1.0
    x_37_28  t_28  1.0
    x_37_29  OBJ  38.0
    x_37_29  a_37  1.0
    x_37_29  t_29  1.0
    x_37_30  OBJ  23.0
    x_37_30  a_37  1.0
    x_37_30  t_30  1.0
    x_37_31  OBJ  45.0
    x_37_31  a_37  1.0
    x_37_31  t_31  1.0
    x_37_32  OBJ  46.0
    x_37_32  a_37  1.0
    x_37_32  t_32  1.0
    x_37_33  OBJ  45.0
    x_37_33  a_37  1.0
    x_37_33  t_33  1.0
    x_37_34  OBJ  6.0
    x_37_34  a_37  1.0
    x_37_34  t_34  1.0
    x_37_35  OBJ  95.0
    x_37_35  a_37  1.0
    x_37_35  t_35  1.0
    x_37_36  OBJ  4.0
    x_37_36  a_37  1.0
    x_37_36  t_36  1.0
    x_37_37  OBJ  76.0
    x_37_37  a_37  1.0
    x_37_37  t_37  1.0
    x_37_38  OBJ  4.0
    x_37_38  a_37  1.0
    x_37_38  t_38  1.0
    x_37_39  OBJ  16.0
    x_37_39  a_37  1.0
    x_37_39  t_39  1.0
    x_37_40  OBJ  42.0
    x_37_40  a_37  1.0
    x_37_40  t_40  1.0
    x_37_41  OBJ  78.0
    x_37_41  a_37  1.0
    x_37_41  t_41  1.0
    x_37_42  OBJ  80.0
    x_37_42  a_37  1.0
    x_37_42  t_42  1.0
    x_37_43  OBJ  60.0
    x_37_43  a_37  1.0
    x_37_43  t_43  1.0
    x_37_44  OBJ  33.0
    x_37_44  a_37  1.0
    x_37_44  t_44  1.0
    x_37_45  OBJ  99.0
    x_37_45  a_37  1.0
    x_37_45  t_45  1.0
    x_37_46  OBJ  14.0
    x_37_46  a_37  1.0
    x_37_46  t_46  1.0
    x_37_47  OBJ  29.0
    x_37_47  a_37  1.0
    x_37_47  t_47  1.0
    x_37_48  OBJ  62.0
    x_37_48  a_37  1.0
    x_37_48  t_48  1.0
    x_37_49  OBJ  74.0
    x_37_49  a_37  1.0
    x_37_49  t_49  1.0
    x_37_50  OBJ  88.0
    x_37_50  a_37  1.0
    x_37_50  t_50  1.0
    x_37_51  OBJ  52.0
    x_37_51  a_37  1.0
    x_37_51  t_51  1.0
    x_37_52  OBJ  50.0
    x_37_52  a_37  1.0
    x_37_52  t_52  1.0
    x_37_53  OBJ  23.0
    x_37_53  a_37  1.0
    x_37_53  t_53  1.0
    x_37_54  OBJ  38.0
    x_37_54  a_37  1.0
    x_37_54  t_54  1.0
    x_37_55  OBJ  12.0
    x_37_55  a_37  1.0
    x_37_55  t_55  1.0
    x_37_56  OBJ  48.0
    x_37_56  a_37  1.0
    x_37_56  t_56  1.0
    x_37_57  OBJ  89.0
    x_37_57  a_37  1.0
    x_37_57  t_57  1.0
    x_37_58  OBJ  18.0
    x_37_58  a_37  1.0
    x_37_58  t_58  1.0
    x_37_59  OBJ  2.0
    x_37_59  a_37  1.0
    x_37_59  t_59  1.0
    x_38_0  OBJ  63.0
    x_38_0  a_38  1.0
    x_38_0  t_0  1.0
    x_38_1  OBJ  26.0
    x_38_1  a_38  1.0
    x_38_1  t_1  1.0
    x_38_2  OBJ  14.0
    x_38_2  a_38  1.0
    x_38_2  t_2  1.0
    x_38_3  OBJ  47.0
    x_38_3  a_38  1.0
    x_38_3  t_3  1.0
    x_38_4  OBJ  38.0
    x_38_4  a_38  1.0
    x_38_4  t_4  1.0
    x_38_5  OBJ  29.0
    x_38_5  a_38  1.0
    x_38_5  t_5  1.0
    x_38_6  OBJ  42.0
    x_38_6  a_38  1.0
    x_38_6  t_6  1.0
    x_38_7  OBJ  55.0
    x_38_7  a_38  1.0
    x_38_7  t_7  1.0
    x_38_8  OBJ  97.0
    x_38_8  a_38  1.0
    x_38_8  t_8  1.0
    x_38_9  OBJ  18.0
    x_38_9  a_38  1.0
    x_38_9  t_9  1.0
    x_38_10  OBJ  31.0
    x_38_10  a_38  1.0
    x_38_10  t_10  1.0
    x_38_11  OBJ  78.0
    x_38_11  a_38  1.0
    x_38_11  t_11  1.0
    x_38_12  OBJ  34.0
    x_38_12  a_38  1.0
    x_38_12  t_12  1.0
    x_38_13  OBJ  58.0
    x_38_13  a_38  1.0
    x_38_13  t_13  1.0
    x_38_14  OBJ  42.0
    x_38_14  a_38  1.0
    x_38_14  t_14  1.0
    x_38_15  OBJ  64.0
    x_38_15  a_38  1.0
    x_38_15  t_15  1.0
    x_38_16  OBJ  21.0
    x_38_16  a_38  1.0
    x_38_16  t_16  1.0
    x_38_17  OBJ  97.0
    x_38_17  a_38  1.0
    x_38_17  t_17  1.0
    x_38_18  OBJ  27.0
    x_38_18  a_38  1.0
    x_38_18  t_18  1.0
    x_38_19  OBJ  17.0
    x_38_19  a_38  1.0
    x_38_19  t_19  1.0
    x_38_20  OBJ  64.0
    x_38_20  a_38  1.0
    x_38_20  t_20  1.0
    x_38_21  OBJ  47.0
    x_38_21  a_38  1.0
    x_38_21  t_21  1.0
    x_38_22  OBJ  3.0
    x_38_22  a_38  1.0
    x_38_22  t_22  1.0
    x_38_23  OBJ  16.0
    x_38_23  a_38  1.0
    x_38_23  t_23  1.0
    x_38_24  OBJ  22.0
    x_38_24  a_38  1.0
    x_38_24  t_24  1.0
    x_38_25  OBJ  30.0
    x_38_25  a_38  1.0
    x_38_25  t_25  1.0
    x_38_26  OBJ  21.0
    x_38_26  a_38  1.0
    x_38_26  t_26  1.0
    x_38_27  OBJ  50.0
    x_38_27  a_38  1.0
    x_38_27  t_27  1.0
    x_38_28  OBJ  10.0
    x_38_28  a_38  1.0
    x_38_28  t_28  1.0
    x_38_29  OBJ  76.0
    x_38_29  a_38  1.0
    x_38_29  t_29  1.0
    x_38_30  OBJ  19.0
    x_38_30  a_38  1.0
    x_38_30  t_30  1.0
    x_38_31  OBJ  19.0
    x_38_31  a_38  1.0
    x_38_31  t_31  1.0
    x_38_32  OBJ  84.0
    x_38_32  a_38  1.0
    x_38_32  t_32  1.0
    x_38_33  OBJ  81.0
    x_38_33  a_38  1.0
    x_38_33  t_33  1.0
    x_38_34  OBJ  51.0
    x_38_34  a_38  1.0
    x_38_34  t_34  1.0
    x_38_35  OBJ  73.0
    x_38_35  a_38  1.0
    x_38_35  t_35  1.0
    x_38_36  OBJ  75.0
    x_38_36  a_38  1.0
    x_38_36  t_36  1.0
    x_38_37  OBJ  48.0
    x_38_37  a_38  1.0
    x_38_37  t_37  1.0
    x_38_38  OBJ  61.0
    x_38_38  a_38  1.0
    x_38_38  t_38  1.0
    x_38_39  OBJ  87.0
    x_38_39  a_38  1.0
    x_38_39  t_39  1.0
    x_38_40  OBJ  57.0
    x_38_40  a_38  1.0
    x_38_40  t_40  1.0
    x_38_41  OBJ  43.0
    x_38_41  a_38  1.0
    x_38_41  t_41  1.0
    x_38_42  OBJ  63.0
    x_38_42  a_38  1.0
    x_38_42  t_42  1.0
    x_38_43  OBJ  98.0
    x_38_43  a_38  1.0
    x_38_43  t_43  1.0
    x_38_44  OBJ  92.0
    x_38_44  a_38  1.0
    x_38_44  t_44  1.0
    x_38_45  OBJ  96.0
    x_38_45  a_38  1.0
    x_38_45  t_45  1.0
    x_38_46  OBJ  18.0
    x_38_46  a_38  1.0
    x_38_46  t_46  1.0
    x_38_47  OBJ  42.0
    x_38_47  a_38  1.0
    x_38_47  t_47  1.0
    x_38_48  OBJ  22.0
    x_38_48  a_38  1.0
    x_38_48  t_48  1.0
    x_38_49  OBJ  95.0
    x_38_49  a_38  1.0
    x_38_49  t_49  1.0
    x_38_50  OBJ  49.0
    x_38_50  a_38  1.0
    x_38_50  t_50  1.0
    x_38_51  OBJ  77.0
    x_38_51  a_38  1.0
    x_38_51  t_51  1.0
    x_38_52  OBJ  42.0
    x_38_52  a_38  1.0
    x_38_52  t_52  1.0
    x_38_53  OBJ  53.0
    x_38_53  a_38  1.0
    x_38_53  t_53  1.0
    x_38_54  OBJ  76.0
    x_38_54  a_38  1.0
    x_38_54  t_54  1.0
    x_38_55  OBJ  61.0
    x_38_55  a_38  1.0
    x_38_55  t_55  1.0
    x_38_56  OBJ  43.0
    x_38_56  a_38  1.0
    x_38_56  t_56  1.0
    x_38_57  OBJ  80.0
    x_38_57  a_38  1.0
    x_38_57  t_57  1.0
    x_38_58  OBJ  75.0
    x_38_58  a_38  1.0
    x_38_58  t_58  1.0
    x_38_59  OBJ  96.0
    x_38_59  a_38  1.0
    x_38_59  t_59  1.0
    x_39_0  OBJ  64.0
    x_39_0  a_39  1.0
    x_39_0  t_0  1.0
    x_39_1  OBJ  90.0
    x_39_1  a_39  1.0
    x_39_1  t_1  1.0
    x_39_2  OBJ  42.0
    x_39_2  a_39  1.0
    x_39_2  t_2  1.0
    x_39_3  OBJ  95.0
    x_39_3  a_39  1.0
    x_39_3  t_3  1.0
    x_39_4  OBJ  94.0
    x_39_4  a_39  1.0
    x_39_4  t_4  1.0
    x_39_5  OBJ  40.0
    x_39_5  a_39  1.0
    x_39_5  t_5  1.0
    x_39_6  OBJ  71.0
    x_39_6  a_39  1.0
    x_39_6  t_6  1.0
    x_39_7  OBJ  1.0
    x_39_7  a_39  1.0
    x_39_7  t_7  1.0
    x_39_8  OBJ  18.0
    x_39_8  a_39  1.0
    x_39_8  t_8  1.0
    x_39_9  OBJ  14.0
    x_39_9  a_39  1.0
    x_39_9  t_9  1.0
    x_39_10  OBJ  30.0
    x_39_10  a_39  1.0
    x_39_10  t_10  1.0
    x_39_11  OBJ  38.0
    x_39_11  a_39  1.0
    x_39_11  t_11  1.0
    x_39_12  OBJ  98.0
    x_39_12  a_39  1.0
    x_39_12  t_12  1.0
    x_39_13  OBJ  10.0
    x_39_13  a_39  1.0
    x_39_13  t_13  1.0
    x_39_14  OBJ  26.0
    x_39_14  a_39  1.0
    x_39_14  t_14  1.0
    x_39_15  OBJ  54.0
    x_39_15  a_39  1.0
    x_39_15  t_15  1.0
    x_39_16  OBJ  49.0
    x_39_16  a_39  1.0
    x_39_16  t_16  1.0
    x_39_17  OBJ  12.0
    x_39_17  a_39  1.0
    x_39_17  t_17  1.0
    x_39_18  OBJ  88.0
    x_39_18  a_39  1.0
    x_39_18  t_18  1.0
    x_39_19  OBJ  31.0
    x_39_19  a_39  1.0
    x_39_19  t_19  1.0
    x_39_20  OBJ  37.0
    x_39_20  a_39  1.0
    x_39_20  t_20  1.0
    x_39_21  OBJ  31.0
    x_39_21  a_39  1.0
    x_39_21  t_21  1.0
    x_39_22  OBJ  17.0
    x_39_22  a_39  1.0
    x_39_22  t_22  1.0
    x_39_23  OBJ  91.0
    x_39_23  a_39  1.0
    x_39_23  t_23  1.0
    x_39_24  OBJ  76.0
    x_39_24  a_39  1.0
    x_39_24  t_24  1.0
    x_39_25  OBJ  47.0
    x_39_25  a_39  1.0
    x_39_25  t_25  1.0
    x_39_26  OBJ  23.0
    x_39_26  a_39  1.0
    x_39_26  t_26  1.0
    x_39_27  OBJ  12.0
    x_39_27  a_39  1.0
    x_39_27  t_27  1.0
    x_39_28  OBJ  89.0
    x_39_28  a_39  1.0
    x_39_28  t_28  1.0
    x_39_29  OBJ  75.0
    x_39_29  a_39  1.0
    x_39_29  t_29  1.0
    x_39_30  OBJ  76.0
    x_39_30  a_39  1.0
    x_39_30  t_30  1.0
    x_39_31  OBJ  93.0
    x_39_31  a_39  1.0
    x_39_31  t_31  1.0
    x_39_32  OBJ  62.0
    x_39_32  a_39  1.0
    x_39_32  t_32  1.0
    x_39_33  OBJ  71.0
    x_39_33  a_39  1.0
    x_39_33  t_33  1.0
    x_39_34  OBJ  52.0
    x_39_34  a_39  1.0
    x_39_34  t_34  1.0
    x_39_35  OBJ  1.0
    x_39_35  a_39  1.0
    x_39_35  t_35  1.0
    x_39_36  OBJ  21.0
    x_39_36  a_39  1.0
    x_39_36  t_36  1.0
    x_39_37  OBJ  84.0
    x_39_37  a_39  1.0
    x_39_37  t_37  1.0
    x_39_38  OBJ  32.0
    x_39_38  a_39  1.0
    x_39_38  t_38  1.0
    x_39_39  OBJ  22.0
    x_39_39  a_39  1.0
    x_39_39  t_39  1.0
    x_39_40  OBJ  83.0
    x_39_40  a_39  1.0
    x_39_40  t_40  1.0
    x_39_41  OBJ  82.0
    x_39_41  a_39  1.0
    x_39_41  t_41  1.0
    x_39_42  OBJ  14.0
    x_39_42  a_39  1.0
    x_39_42  t_42  1.0
    x_39_43  OBJ  82.0
    x_39_43  a_39  1.0
    x_39_43  t_43  1.0
    x_39_44  OBJ  70.0
    x_39_44  a_39  1.0
    x_39_44  t_44  1.0
    x_39_45  OBJ  68.0
    x_39_45  a_39  1.0
    x_39_45  t_45  1.0
    x_39_46  OBJ  62.0
    x_39_46  a_39  1.0
    x_39_46  t_46  1.0
    x_39_47  OBJ  8.0
    x_39_47  a_39  1.0
    x_39_47  t_47  1.0
    x_39_48  OBJ  37.0
    x_39_48  a_39  1.0
    x_39_48  t_48  1.0
    x_39_49  OBJ  37.0
    x_39_49  a_39  1.0
    x_39_49  t_49  1.0
    x_39_50  OBJ  23.0
    x_39_50  a_39  1.0
    x_39_50  t_50  1.0
    x_39_51  OBJ  13.0
    x_39_51  a_39  1.0
    x_39_51  t_51  1.0
    x_39_52  OBJ  7.0
    x_39_52  a_39  1.0
    x_39_52  t_52  1.0
    x_39_53  OBJ  78.0
    x_39_53  a_39  1.0
    x_39_53  t_53  1.0
    x_39_54  OBJ  78.0
    x_39_54  a_39  1.0
    x_39_54  t_54  1.0
    x_39_55  OBJ  7.0
    x_39_55  a_39  1.0
    x_39_55  t_55  1.0
    x_39_56  OBJ  3.0
    x_39_56  a_39  1.0
    x_39_56  t_56  1.0
    x_39_57  OBJ  44.0
    x_39_57  a_39  1.0
    x_39_57  t_57  1.0
    x_39_58  OBJ  34.0
    x_39_58  a_39  1.0
    x_39_58  t_58  1.0
    x_39_59  OBJ  74.0
    x_39_59  a_39  1.0
    x_39_59  t_59  1.0
    x_40_0  OBJ  33.0
    x_40_0  a_40  1.0
    x_40_0  t_0  1.0
    x_40_1  OBJ  82.0
    x_40_1  a_40  1.0
    x_40_1  t_1  1.0
    x_40_2  OBJ  56.0
    x_40_2  a_40  1.0
    x_40_2  t_2  1.0
    x_40_3  OBJ  43.0
    x_40_3  a_40  1.0
    x_40_3  t_3  1.0
    x_40_4  OBJ  41.0
    x_40_4  a_40  1.0
    x_40_4  t_4  1.0
    x_40_5  OBJ  9.0
    x_40_5  a_40  1.0
    x_40_5  t_5  1.0
    x_40_6  OBJ  45.0
    x_40_6  a_40  1.0
    x_40_6  t_6  1.0
    x_40_7  OBJ  87.0
    x_40_7  a_40  1.0
    x_40_7  t_7  1.0
    x_40_8  OBJ  5.0
    x_40_8  a_40  1.0
    x_40_8  t_8  1.0
    x_40_9  OBJ  30.0
    x_40_9  a_40  1.0
    x_40_9  t_9  1.0
    x_40_10  OBJ  83.0
    x_40_10  a_40  1.0
    x_40_10  t_10  1.0
    x_40_11  OBJ  49.0
    x_40_11  a_40  1.0
    x_40_11  t_11  1.0
    x_40_12  OBJ  58.0
    x_40_12  a_40  1.0
    x_40_12  t_12  1.0
    x_40_13  OBJ  1.0
    x_40_13  a_40  1.0
    x_40_13  t_13  1.0
    x_40_14  OBJ  13.0
    x_40_14  a_40  1.0
    x_40_14  t_14  1.0
    x_40_15  OBJ  30.0
    x_40_15  a_40  1.0
    x_40_15  t_15  1.0
    x_40_16  OBJ  25.0
    x_40_16  a_40  1.0
    x_40_16  t_16  1.0
    x_40_17  OBJ  94.0
    x_40_17  a_40  1.0
    x_40_17  t_17  1.0
    x_40_18  OBJ  26.0
    x_40_18  a_40  1.0
    x_40_18  t_18  1.0
    x_40_19  OBJ  73.0
    x_40_19  a_40  1.0
    x_40_19  t_19  1.0
    x_40_20  OBJ  31.0
    x_40_20  a_40  1.0
    x_40_20  t_20  1.0
    x_40_21  OBJ  71.0
    x_40_21  a_40  1.0
    x_40_21  t_21  1.0
    x_40_22  OBJ  57.0
    x_40_22  a_40  1.0
    x_40_22  t_22  1.0
    x_40_23  OBJ  57.0
    x_40_23  a_40  1.0
    x_40_23  t_23  1.0
    x_40_24  OBJ  59.0
    x_40_24  a_40  1.0
    x_40_24  t_24  1.0
    x_40_25  OBJ  14.0
    x_40_25  a_40  1.0
    x_40_25  t_25  1.0
    x_40_26  OBJ  76.0
    x_40_26  a_40  1.0
    x_40_26  t_26  1.0
    x_40_27  OBJ  23.0
    x_40_27  a_40  1.0
    x_40_27  t_27  1.0
    x_40_28  OBJ  49.0
    x_40_28  a_40  1.0
    x_40_28  t_28  1.0
    x_40_29  OBJ  95.0
    x_40_29  a_40  1.0
    x_40_29  t_29  1.0
    x_40_30  OBJ  15.0
    x_40_30  a_40  1.0
    x_40_30  t_30  1.0
    x_40_31  OBJ  11.0
    x_40_31  a_40  1.0
    x_40_31  t_31  1.0
    x_40_32  OBJ  58.0
    x_40_32  a_40  1.0
    x_40_32  t_32  1.0
    x_40_33  OBJ  66.0
    x_40_33  a_40  1.0
    x_40_33  t_33  1.0
    x_40_34  OBJ  35.0
    x_40_34  a_40  1.0
    x_40_34  t_34  1.0
    x_40_35  OBJ  37.0
    x_40_35  a_40  1.0
    x_40_35  t_35  1.0
    x_40_36  OBJ  13.0
    x_40_36  a_40  1.0
    x_40_36  t_36  1.0
    x_40_37  OBJ  73.0
    x_40_37  a_40  1.0
    x_40_37  t_37  1.0
    x_40_38  OBJ  71.0
    x_40_38  a_40  1.0
    x_40_38  t_38  1.0
    x_40_39  OBJ  15.0
    x_40_39  a_40  1.0
    x_40_39  t_39  1.0
    x_40_40  OBJ  13.0
    x_40_40  a_40  1.0
    x_40_40  t_40  1.0
    x_40_41  OBJ  11.0
    x_40_41  a_40  1.0
    x_40_41  t_41  1.0
    x_40_42  OBJ  35.0
    x_40_42  a_40  1.0
    x_40_42  t_42  1.0
    x_40_43  OBJ  54.0
    x_40_43  a_40  1.0
    x_40_43  t_43  1.0
    x_40_44  OBJ  6.0
    x_40_44  a_40  1.0
    x_40_44  t_44  1.0
    x_40_45  OBJ  26.0
    x_40_45  a_40  1.0
    x_40_45  t_45  1.0
    x_40_46  OBJ  41.0
    x_40_46  a_40  1.0
    x_40_46  t_46  1.0
    x_40_47  OBJ  78.0
    x_40_47  a_40  1.0
    x_40_47  t_47  1.0
    x_40_48  OBJ  49.0
    x_40_48  a_40  1.0
    x_40_48  t_48  1.0
    x_40_49  OBJ  99.0
    x_40_49  a_40  1.0
    x_40_49  t_49  1.0
    x_40_50  OBJ  8.0
    x_40_50  a_40  1.0
    x_40_50  t_50  1.0
    x_40_51  OBJ  14.0
    x_40_51  a_40  1.0
    x_40_51  t_51  1.0
    x_40_52  OBJ  16.0
    x_40_52  a_40  1.0
    x_40_52  t_52  1.0
    x_40_53  OBJ  25.0
    x_40_53  a_40  1.0
    x_40_53  t_53  1.0
    x_40_54  OBJ  75.0
    x_40_54  a_40  1.0
    x_40_54  t_54  1.0
    x_40_55  OBJ  18.0
    x_40_55  a_40  1.0
    x_40_55  t_55  1.0
    x_40_56  OBJ  97.0
    x_40_56  a_40  1.0
    x_40_56  t_56  1.0
    x_40_57  OBJ  39.0
    x_40_57  a_40  1.0
    x_40_57  t_57  1.0
    x_40_58  OBJ  7.0
    x_40_58  a_40  1.0
    x_40_58  t_58  1.0
    x_40_59  OBJ  24.0
    x_40_59  a_40  1.0
    x_40_59  t_59  1.0
    x_41_0  OBJ  96.0
    x_41_0  a_41  1.0
    x_41_0  t_0  1.0
    x_41_1  OBJ  61.0
    x_41_1  a_41  1.0
    x_41_1  t_1  1.0
    x_41_2  OBJ  94.0
    x_41_2  a_41  1.0
    x_41_2  t_2  1.0
    x_41_3  OBJ  38.0
    x_41_3  a_41  1.0
    x_41_3  t_3  1.0
    x_41_4  OBJ  59.0
    x_41_4  a_41  1.0
    x_41_4  t_4  1.0
    x_41_5  OBJ  52.0
    x_41_5  a_41  1.0
    x_41_5  t_5  1.0
    x_41_6  OBJ  99.0
    x_41_6  a_41  1.0
    x_41_6  t_6  1.0
    x_41_7  OBJ  86.0
    x_41_7  a_41  1.0
    x_41_7  t_7  1.0
    x_41_8  OBJ  24.0
    x_41_8  a_41  1.0
    x_41_8  t_8  1.0
    x_41_9  OBJ  86.0
    x_41_9  a_41  1.0
    x_41_9  t_9  1.0
    x_41_10  OBJ  41.0
    x_41_10  a_41  1.0
    x_41_10  t_10  1.0
    x_41_11  OBJ  18.0
    x_41_11  a_41  1.0
    x_41_11  t_11  1.0
    x_41_12  OBJ  13.0
    x_41_12  a_41  1.0
    x_41_12  t_12  1.0
    x_41_13  OBJ  26.0
    x_41_13  a_41  1.0
    x_41_13  t_13  1.0
    x_41_14  OBJ  39.0
    x_41_14  a_41  1.0
    x_41_14  t_14  1.0
    x_41_15  OBJ  57.0
    x_41_15  a_41  1.0
    x_41_15  t_15  1.0
    x_41_16  OBJ  4.0
    x_41_16  a_41  1.0
    x_41_16  t_16  1.0
    x_41_17  OBJ  47.0
    x_41_17  a_41  1.0
    x_41_17  t_17  1.0
    x_41_18  OBJ  5.0
    x_41_18  a_41  1.0
    x_41_18  t_18  1.0
    x_41_19  OBJ  4.0
    x_41_19  a_41  1.0
    x_41_19  t_19  1.0
    x_41_20  OBJ  9.0
    x_41_20  a_41  1.0
    x_41_20  t_20  1.0
    x_41_21  OBJ  73.0
    x_41_21  a_41  1.0
    x_41_21  t_21  1.0
    x_41_22  OBJ  46.0
    x_41_22  a_41  1.0
    x_41_22  t_22  1.0
    x_41_23  OBJ  79.0
    x_41_23  a_41  1.0
    x_41_23  t_23  1.0
    x_41_24  OBJ  45.0
    x_41_24  a_41  1.0
    x_41_24  t_24  1.0
    x_41_25  OBJ  43.0
    x_41_25  a_41  1.0
    x_41_25  t_25  1.0
    x_41_26  OBJ  42.0
    x_41_26  a_41  1.0
    x_41_26  t_26  1.0
    x_41_27  OBJ  13.0
    x_41_27  a_41  1.0
    x_41_27  t_27  1.0
    x_41_28  OBJ  76.0
    x_41_28  a_41  1.0
    x_41_28  t_28  1.0
    x_41_29  OBJ  70.0
    x_41_29  a_41  1.0
    x_41_29  t_29  1.0
    x_41_30  OBJ  19.0
    x_41_30  a_41  1.0
    x_41_30  t_30  1.0
    x_41_31  OBJ  7.0
    x_41_31  a_41  1.0
    x_41_31  t_31  1.0
    x_41_32  OBJ  20.0
    x_41_32  a_41  1.0
    x_41_32  t_32  1.0
    x_41_33  OBJ  7.0
    x_41_33  a_41  1.0
    x_41_33  t_33  1.0
    x_41_34  OBJ  34.0
    x_41_34  a_41  1.0
    x_41_34  t_34  1.0
    x_41_35  OBJ  57.0
    x_41_35  a_41  1.0
    x_41_35  t_35  1.0
    x_41_36  OBJ  19.0
    x_41_36  a_41  1.0
    x_41_36  t_36  1.0
    x_41_37  OBJ  44.0
    x_41_37  a_41  1.0
    x_41_37  t_37  1.0
    x_41_38  OBJ  93.0
    x_41_38  a_41  1.0
    x_41_38  t_38  1.0
    x_41_39  OBJ  98.0
    x_41_39  a_41  1.0
    x_41_39  t_39  1.0
    x_41_40  OBJ  8.0
    x_41_40  a_41  1.0
    x_41_40  t_40  1.0
    x_41_41  OBJ  25.0
    x_41_41  a_41  1.0
    x_41_41  t_41  1.0
    x_41_42  OBJ  38.0
    x_41_42  a_41  1.0
    x_41_42  t_42  1.0
    x_41_43  OBJ  18.0
    x_41_43  a_41  1.0
    x_41_43  t_43  1.0
    x_41_44  OBJ  37.0
    x_41_44  a_41  1.0
    x_41_44  t_44  1.0
    x_41_45  OBJ  32.0
    x_41_45  a_41  1.0
    x_41_45  t_45  1.0
    x_41_46  OBJ  58.0
    x_41_46  a_41  1.0
    x_41_46  t_46  1.0
    x_41_47  OBJ  87.0
    x_41_47  a_41  1.0
    x_41_47  t_47  1.0
    x_41_48  OBJ  53.0
    x_41_48  a_41  1.0
    x_41_48  t_48  1.0
    x_41_49  OBJ  69.0
    x_41_49  a_41  1.0
    x_41_49  t_49  1.0
    x_41_50  OBJ  46.0
    x_41_50  a_41  1.0
    x_41_50  t_50  1.0
    x_41_51  OBJ  1.0
    x_41_51  a_41  1.0
    x_41_51  t_51  1.0
    x_41_52  OBJ  84.0
    x_41_52  a_41  1.0
    x_41_52  t_52  1.0
    x_41_53  OBJ  13.0
    x_41_53  a_41  1.0
    x_41_53  t_53  1.0
    x_41_54  OBJ  12.0
    x_41_54  a_41  1.0
    x_41_54  t_54  1.0
    x_41_55  OBJ  95.0
    x_41_55  a_41  1.0
    x_41_55  t_55  1.0
    x_41_56  OBJ  57.0
    x_41_56  a_41  1.0
    x_41_56  t_56  1.0
    x_41_57  OBJ  57.0
    x_41_57  a_41  1.0
    x_41_57  t_57  1.0
    x_41_58  OBJ  61.0
    x_41_58  a_41  1.0
    x_41_58  t_58  1.0
    x_41_59  OBJ  42.0
    x_41_59  a_41  1.0
    x_41_59  t_59  1.0
    x_42_0  OBJ  60.0
    x_42_0  a_42  1.0
    x_42_0  t_0  1.0
    x_42_1  OBJ  8.0
    x_42_1  a_42  1.0
    x_42_1  t_1  1.0
    x_42_2  OBJ  7.0
    x_42_2  a_42  1.0
    x_42_2  t_2  1.0
    x_42_3  OBJ  23.0
    x_42_3  a_42  1.0
    x_42_3  t_3  1.0
    x_42_4  OBJ  41.0
    x_42_4  a_42  1.0
    x_42_4  t_4  1.0
    x_42_5  OBJ  2.0
    x_42_5  a_42  1.0
    x_42_5  t_5  1.0
    x_42_6  OBJ  33.0
    x_42_6  a_42  1.0
    x_42_6  t_6  1.0
    x_42_7  OBJ  85.0
    x_42_7  a_42  1.0
    x_42_7  t_7  1.0
    x_42_8  OBJ  21.0
    x_42_8  a_42  1.0
    x_42_8  t_8  1.0
    x_42_9  OBJ  93.0
    x_42_9  a_42  1.0
    x_42_9  t_9  1.0
    x_42_10  OBJ  33.0
    x_42_10  a_42  1.0
    x_42_10  t_10  1.0
    x_42_11  OBJ  54.0
    x_42_11  a_42  1.0
    x_42_11  t_11  1.0
    x_42_12  OBJ  59.0
    x_42_12  a_42  1.0
    x_42_12  t_12  1.0
    x_42_13  OBJ  79.0
    x_42_13  a_42  1.0
    x_42_13  t_13  1.0
    x_42_14  OBJ  77.0
    x_42_14  a_42  1.0
    x_42_14  t_14  1.0
    x_42_15  OBJ  14.0
    x_42_15  a_42  1.0
    x_42_15  t_15  1.0
    x_42_16  OBJ  67.0
    x_42_16  a_42  1.0
    x_42_16  t_16  1.0
    x_42_17  OBJ  28.0
    x_42_17  a_42  1.0
    x_42_17  t_17  1.0
    x_42_18  OBJ  21.0
    x_42_18  a_42  1.0
    x_42_18  t_18  1.0
    x_42_19  OBJ  62.0
    x_42_19  a_42  1.0
    x_42_19  t_19  1.0
    x_42_20  OBJ  42.0
    x_42_20  a_42  1.0
    x_42_20  t_20  1.0
    x_42_21  OBJ  68.0
    x_42_21  a_42  1.0
    x_42_21  t_21  1.0
    x_42_22  OBJ  47.0
    x_42_22  a_42  1.0
    x_42_22  t_22  1.0
    x_42_23  OBJ  60.0
    x_42_23  a_42  1.0
    x_42_23  t_23  1.0
    x_42_24  OBJ  61.0
    x_42_24  a_42  1.0
    x_42_24  t_24  1.0
    x_42_25  OBJ  10.0
    x_42_25  a_42  1.0
    x_42_25  t_25  1.0
    x_42_26  OBJ  80.0
    x_42_26  a_42  1.0
    x_42_26  t_26  1.0
    x_42_27  OBJ  93.0
    x_42_27  a_42  1.0
    x_42_27  t_27  1.0
    x_42_28  OBJ  40.0
    x_42_28  a_42  1.0
    x_42_28  t_28  1.0
    x_42_29  OBJ  25.0
    x_42_29  a_42  1.0
    x_42_29  t_29  1.0
    x_42_30  OBJ  69.0
    x_42_30  a_42  1.0
    x_42_30  t_30  1.0
    x_42_31  OBJ  68.0
    x_42_31  a_42  1.0
    x_42_31  t_31  1.0
    x_42_32  OBJ  24.0
    x_42_32  a_42  1.0
    x_42_32  t_32  1.0
    x_42_33  OBJ  86.0
    x_42_33  a_42  1.0
    x_42_33  t_33  1.0
    x_42_34  OBJ  55.0
    x_42_34  a_42  1.0
    x_42_34  t_34  1.0
    x_42_35  OBJ  14.0
    x_42_35  a_42  1.0
    x_42_35  t_35  1.0
    x_42_36  OBJ  69.0
    x_42_36  a_42  1.0
    x_42_36  t_36  1.0
    x_42_37  OBJ  46.0
    x_42_37  a_42  1.0
    x_42_37  t_37  1.0
    x_42_38  OBJ  25.0
    x_42_38  a_42  1.0
    x_42_38  t_38  1.0
    x_42_39  OBJ  62.0
    x_42_39  a_42  1.0
    x_42_39  t_39  1.0
    x_42_40  OBJ  96.0
    x_42_40  a_42  1.0
    x_42_40  t_40  1.0
    x_42_41  OBJ  99.0
    x_42_41  a_42  1.0
    x_42_41  t_41  1.0
    x_42_42  OBJ  93.0
    x_42_42  a_42  1.0
    x_42_42  t_42  1.0
    x_42_43  OBJ  71.0
    x_42_43  a_42  1.0
    x_42_43  t_43  1.0
    x_42_44  OBJ  99.0
    x_42_44  a_42  1.0
    x_42_44  t_44  1.0
    x_42_45  OBJ  43.0
    x_42_45  a_42  1.0
    x_42_45  t_45  1.0
    x_42_46  OBJ  79.0
    x_42_46  a_42  1.0
    x_42_46  t_46  1.0
    x_42_47  OBJ  69.0
    x_42_47  a_42  1.0
    x_42_47  t_47  1.0
    x_42_48  OBJ  98.0
    x_42_48  a_42  1.0
    x_42_48  t_48  1.0
    x_42_49  OBJ  51.0
    x_42_49  a_42  1.0
    x_42_49  t_49  1.0
    x_42_50  OBJ  54.0
    x_42_50  a_42  1.0
    x_42_50  t_50  1.0
    x_42_51  OBJ  11.0
    x_42_51  a_42  1.0
    x_42_51  t_51  1.0
    x_42_52  OBJ  96.0
    x_42_52  a_42  1.0
    x_42_52  t_52  1.0
    x_42_53  OBJ  22.0
    x_42_53  a_42  1.0
    x_42_53  t_53  1.0
    x_42_54  OBJ  34.0
    x_42_54  a_42  1.0
    x_42_54  t_54  1.0
    x_42_55  OBJ  62.0
    x_42_55  a_42  1.0
    x_42_55  t_55  1.0
    x_42_56  OBJ  71.0
    x_42_56  a_42  1.0
    x_42_56  t_56  1.0
    x_42_57  OBJ  67.0
    x_42_57  a_42  1.0
    x_42_57  t_57  1.0
    x_42_58  OBJ  36.0
    x_42_58  a_42  1.0
    x_42_58  t_58  1.0
    x_42_59  OBJ  44.0
    x_42_59  a_42  1.0
    x_42_59  t_59  1.0
    x_43_0  OBJ  45.0
    x_43_0  a_43  1.0
    x_43_0  t_0  1.0
    x_43_1  OBJ  26.0
    x_43_1  a_43  1.0
    x_43_1  t_1  1.0
    x_43_2  OBJ  52.0
    x_43_2  a_43  1.0
    x_43_2  t_2  1.0
    x_43_3  OBJ  6.0
    x_43_3  a_43  1.0
    x_43_3  t_3  1.0
    x_43_4  OBJ  29.0
    x_43_4  a_43  1.0
    x_43_4  t_4  1.0
    x_43_5  OBJ  75.0
    x_43_5  a_43  1.0
    x_43_5  t_5  1.0
    x_43_6  OBJ  59.0
    x_43_6  a_43  1.0
    x_43_6  t_6  1.0
    x_43_7  OBJ  20.0
    x_43_7  a_43  1.0
    x_43_7  t_7  1.0
    x_43_8  OBJ  65.0
    x_43_8  a_43  1.0
    x_43_8  t_8  1.0
    x_43_9  OBJ  71.0
    x_43_9  a_43  1.0
    x_43_9  t_9  1.0
    x_43_10  OBJ  66.0
    x_43_10  a_43  1.0
    x_43_10  t_10  1.0
    x_43_11  OBJ  94.0
    x_43_11  a_43  1.0
    x_43_11  t_11  1.0
    x_43_12  OBJ  67.0
    x_43_12  a_43  1.0
    x_43_12  t_12  1.0
    x_43_13  OBJ  82.0
    x_43_13  a_43  1.0
    x_43_13  t_13  1.0
    x_43_14  OBJ  2.0
    x_43_14  a_43  1.0
    x_43_14  t_14  1.0
    x_43_15  OBJ  59.0
    x_43_15  a_43  1.0
    x_43_15  t_15  1.0
    x_43_16  OBJ  73.0
    x_43_16  a_43  1.0
    x_43_16  t_16  1.0
    x_43_17  OBJ  6.0
    x_43_17  a_43  1.0
    x_43_17  t_17  1.0
    x_43_18  OBJ  9.0
    x_43_18  a_43  1.0
    x_43_18  t_18  1.0
    x_43_19  OBJ  70.0
    x_43_19  a_43  1.0
    x_43_19  t_19  1.0
    x_43_20  OBJ  83.0
    x_43_20  a_43  1.0
    x_43_20  t_20  1.0
    x_43_21  OBJ  98.0
    x_43_21  a_43  1.0
    x_43_21  t_21  1.0
    x_43_22  OBJ  94.0
    x_43_22  a_43  1.0
    x_43_22  t_22  1.0
    x_43_23  OBJ  31.0
    x_43_23  a_43  1.0
    x_43_23  t_23  1.0
    x_43_24  OBJ  90.0
    x_43_24  a_43  1.0
    x_43_24  t_24  1.0
    x_43_25  OBJ  84.0
    x_43_25  a_43  1.0
    x_43_25  t_25  1.0
    x_43_26  OBJ  99.0
    x_43_26  a_43  1.0
    x_43_26  t_26  1.0
    x_43_27  OBJ  54.0
    x_43_27  a_43  1.0
    x_43_27  t_27  1.0
    x_43_28  OBJ  52.0
    x_43_28  a_43  1.0
    x_43_28  t_28  1.0
    x_43_29  OBJ  78.0
    x_43_29  a_43  1.0
    x_43_29  t_29  1.0
    x_43_30  OBJ  24.0
    x_43_30  a_43  1.0
    x_43_30  t_30  1.0
    x_43_31  OBJ  73.0
    x_43_31  a_43  1.0
    x_43_31  t_31  1.0
    x_43_32  OBJ  36.0
    x_43_32  a_43  1.0
    x_43_32  t_32  1.0
    x_43_33  OBJ  30.0
    x_43_33  a_43  1.0
    x_43_33  t_33  1.0
    x_43_34  OBJ  9.0
    x_43_34  a_43  1.0
    x_43_34  t_34  1.0
    x_43_35  OBJ  48.0
    x_43_35  a_43  1.0
    x_43_35  t_35  1.0
    x_43_36  OBJ  26.0
    x_43_36  a_43  1.0
    x_43_36  t_36  1.0
    x_43_37  OBJ  10.0
    x_43_37  a_43  1.0
    x_43_37  t_37  1.0
    x_43_38  OBJ  94.0
    x_43_38  a_43  1.0
    x_43_38  t_38  1.0
    x_43_39  OBJ  12.0
    x_43_39  a_43  1.0
    x_43_39  t_39  1.0
    x_43_40  OBJ  58.0
    x_43_40  a_43  1.0
    x_43_40  t_40  1.0
    x_43_41  OBJ  29.0
    x_43_41  a_43  1.0
    x_43_41  t_41  1.0
    x_43_42  OBJ  67.0
    x_43_42  a_43  1.0
    x_43_42  t_42  1.0
    x_43_43  OBJ  71.0
    x_43_43  a_43  1.0
    x_43_43  t_43  1.0
    x_43_44  OBJ  50.0
    x_43_44  a_43  1.0
    x_43_44  t_44  1.0
    x_43_45  OBJ  39.0
    x_43_45  a_43  1.0
    x_43_45  t_45  1.0
    x_43_46  OBJ  90.0
    x_43_46  a_43  1.0
    x_43_46  t_46  1.0
    x_43_47  OBJ  86.0
    x_43_47  a_43  1.0
    x_43_47  t_47  1.0
    x_43_48  OBJ  97.0
    x_43_48  a_43  1.0
    x_43_48  t_48  1.0
    x_43_49  OBJ  66.0
    x_43_49  a_43  1.0
    x_43_49  t_49  1.0
    x_43_50  OBJ  86.0
    x_43_50  a_43  1.0
    x_43_50  t_50  1.0
    x_43_51  OBJ  91.0
    x_43_51  a_43  1.0
    x_43_51  t_51  1.0
    x_43_52  OBJ  69.0
    x_43_52  a_43  1.0
    x_43_52  t_52  1.0
    x_43_53  OBJ  79.0
    x_43_53  a_43  1.0
    x_43_53  t_53  1.0
    x_43_54  OBJ  50.0
    x_43_54  a_43  1.0
    x_43_54  t_54  1.0
    x_43_55  OBJ  44.0
    x_43_55  a_43  1.0
    x_43_55  t_55  1.0
    x_43_56  OBJ  53.0
    x_43_56  a_43  1.0
    x_43_56  t_56  1.0
    x_43_57  OBJ  11.0
    x_43_57  a_43  1.0
    x_43_57  t_57  1.0
    x_43_58  OBJ  56.0
    x_43_58  a_43  1.0
    x_43_58  t_58  1.0
    x_43_59  OBJ  49.0
    x_43_59  a_43  1.0
    x_43_59  t_59  1.0
    x_44_0  OBJ  15.0
    x_44_0  a_44  1.0
    x_44_0  t_0  1.0
    x_44_1  OBJ  51.0
    x_44_1  a_44  1.0
    x_44_1  t_1  1.0
    x_44_2  OBJ  37.0
    x_44_2  a_44  1.0
    x_44_2  t_2  1.0
    x_44_3  OBJ  11.0
    x_44_3  a_44  1.0
    x_44_3  t_3  1.0
    x_44_4  OBJ  69.0
    x_44_4  a_44  1.0
    x_44_4  t_4  1.0
    x_44_5  OBJ  15.0
    x_44_5  a_44  1.0
    x_44_5  t_5  1.0
    x_44_6  OBJ  66.0
    x_44_6  a_44  1.0
    x_44_6  t_6  1.0
    x_44_7  OBJ  98.0
    x_44_7  a_44  1.0
    x_44_7  t_7  1.0
    x_44_8  OBJ  9.0
    x_44_8  a_44  1.0
    x_44_8  t_8  1.0
    x_44_9  OBJ  82.0
    x_44_9  a_44  1.0
    x_44_9  t_9  1.0
    x_44_10  OBJ  43.0
    x_44_10  a_44  1.0
    x_44_10  t_10  1.0
    x_44_11  OBJ  36.0
    x_44_11  a_44  1.0
    x_44_11  t_11  1.0
    x_44_12  OBJ  7.0
    x_44_12  a_44  1.0
    x_44_12  t_12  1.0
    x_44_13  OBJ  3.0
    x_44_13  a_44  1.0
    x_44_13  t_13  1.0
    x_44_14  OBJ  92.0
    x_44_14  a_44  1.0
    x_44_14  t_14  1.0
    x_44_15  OBJ  27.0
    x_44_15  a_44  1.0
    x_44_15  t_15  1.0
    x_44_16  OBJ  59.0
    x_44_16  a_44  1.0
    x_44_16  t_16  1.0
    x_44_17  OBJ  55.0
    x_44_17  a_44  1.0
    x_44_17  t_17  1.0
    x_44_18  OBJ  71.0
    x_44_18  a_44  1.0
    x_44_18  t_18  1.0
    x_44_19  OBJ  96.0
    x_44_19  a_44  1.0
    x_44_19  t_19  1.0
    x_44_20  OBJ  85.0
    x_44_20  a_44  1.0
    x_44_20  t_20  1.0
    x_44_21  OBJ  3.0
    x_44_21  a_44  1.0
    x_44_21  t_21  1.0
    x_44_22  OBJ  40.0
    x_44_22  a_44  1.0
    x_44_22  t_22  1.0
    x_44_23  OBJ  72.0
    x_44_23  a_44  1.0
    x_44_23  t_23  1.0
    x_44_24  OBJ  25.0
    x_44_24  a_44  1.0
    x_44_24  t_24  1.0
    x_44_25  OBJ  95.0
    x_44_25  a_44  1.0
    x_44_25  t_25  1.0
    x_44_26  OBJ  57.0
    x_44_26  a_44  1.0
    x_44_26  t_26  1.0
    x_44_27  OBJ  96.0
    x_44_27  a_44  1.0
    x_44_27  t_27  1.0
    x_44_28  OBJ  59.0
    x_44_28  a_44  1.0
    x_44_28  t_28  1.0
    x_44_29  OBJ  59.0
    x_44_29  a_44  1.0
    x_44_29  t_29  1.0
    x_44_30  OBJ  62.0
    x_44_30  a_44  1.0
    x_44_30  t_30  1.0
    x_44_31  OBJ  78.0
    x_44_31  a_44  1.0
    x_44_31  t_31  1.0
    x_44_32  OBJ  24.0
    x_44_32  a_44  1.0
    x_44_32  t_32  1.0
    x_44_33  OBJ  68.0
    x_44_33  a_44  1.0
    x_44_33  t_33  1.0
    x_44_34  OBJ  43.0
    x_44_34  a_44  1.0
    x_44_34  t_34  1.0
    x_44_35  OBJ  2.0
    x_44_35  a_44  1.0
    x_44_35  t_35  1.0
    x_44_36  OBJ  46.0
    x_44_36  a_44  1.0
    x_44_36  t_36  1.0
    x_44_37  OBJ  28.0
    x_44_37  a_44  1.0
    x_44_37  t_37  1.0
    x_44_38  OBJ  99.0
    x_44_38  a_44  1.0
    x_44_38  t_38  1.0
    x_44_39  OBJ  94.0
    x_44_39  a_44  1.0
    x_44_39  t_39  1.0
    x_44_40  OBJ  4.0
    x_44_40  a_44  1.0
    x_44_40  t_40  1.0
    x_44_41  OBJ  10.0
    x_44_41  a_44  1.0
    x_44_41  t_41  1.0
    x_44_42  OBJ  76.0
    x_44_42  a_44  1.0
    x_44_42  t_42  1.0
    x_44_43  OBJ  16.0
    x_44_43  a_44  1.0
    x_44_43  t_43  1.0
    x_44_44  OBJ  4.0
    x_44_44  a_44  1.0
    x_44_44  t_44  1.0
    x_44_45  OBJ  62.0
    x_44_45  a_44  1.0
    x_44_45  t_45  1.0
    x_44_46  OBJ  15.0
    x_44_46  a_44  1.0
    x_44_46  t_46  1.0
    x_44_47  OBJ  89.0
    x_44_47  a_44  1.0
    x_44_47  t_47  1.0
    x_44_48  OBJ  46.0
    x_44_48  a_44  1.0
    x_44_48  t_48  1.0
    x_44_49  OBJ  37.0
    x_44_49  a_44  1.0
    x_44_49  t_49  1.0
    x_44_50  OBJ  1.0
    x_44_50  a_44  1.0
    x_44_50  t_50  1.0
    x_44_51  OBJ  60.0
    x_44_51  a_44  1.0
    x_44_51  t_51  1.0
    x_44_52  OBJ  17.0
    x_44_52  a_44  1.0
    x_44_52  t_52  1.0
    x_44_53  OBJ  97.0
    x_44_53  a_44  1.0
    x_44_53  t_53  1.0
    x_44_54  OBJ  73.0
    x_44_54  a_44  1.0
    x_44_54  t_54  1.0
    x_44_55  OBJ  83.0
    x_44_55  a_44  1.0
    x_44_55  t_55  1.0
    x_44_56  OBJ  2.0
    x_44_56  a_44  1.0
    x_44_56  t_56  1.0
    x_44_57  OBJ  2.0
    x_44_57  a_44  1.0
    x_44_57  t_57  1.0
    x_44_58  OBJ  22.0
    x_44_58  a_44  1.0
    x_44_58  t_58  1.0
    x_44_59  OBJ  67.0
    x_44_59  a_44  1.0
    x_44_59  t_59  1.0
    x_45_0  OBJ  47.0
    x_45_0  a_45  1.0
    x_45_0  t_0  1.0
    x_45_1  OBJ  11.0
    x_45_1  a_45  1.0
    x_45_1  t_1  1.0
    x_45_2  OBJ  81.0
    x_45_2  a_45  1.0
    x_45_2  t_2  1.0
    x_45_3  OBJ  95.0
    x_45_3  a_45  1.0
    x_45_3  t_3  1.0
    x_45_4  OBJ  59.0
    x_45_4  a_45  1.0
    x_45_4  t_4  1.0
    x_45_5  OBJ  72.0
    x_45_5  a_45  1.0
    x_45_5  t_5  1.0
    x_45_6  OBJ  71.0
    x_45_6  a_45  1.0
    x_45_6  t_6  1.0
    x_45_7  OBJ  90.0
    x_45_7  a_45  1.0
    x_45_7  t_7  1.0
    x_45_8  OBJ  95.0
    x_45_8  a_45  1.0
    x_45_8  t_8  1.0
    x_45_9  OBJ  49.0
    x_45_9  a_45  1.0
    x_45_9  t_9  1.0
    x_45_10  OBJ  69.0
    x_45_10  a_45  1.0
    x_45_10  t_10  1.0
    x_45_11  OBJ  6.0
    x_45_11  a_45  1.0
    x_45_11  t_11  1.0
    x_45_12  OBJ  48.0
    x_45_12  a_45  1.0
    x_45_12  t_12  1.0
    x_45_13  OBJ  21.0
    x_45_13  a_45  1.0
    x_45_13  t_13  1.0
    x_45_14  OBJ  83.0
    x_45_14  a_45  1.0
    x_45_14  t_14  1.0
    x_45_15  OBJ  9.0
    x_45_15  a_45  1.0
    x_45_15  t_15  1.0
    x_45_16  OBJ  71.0
    x_45_16  a_45  1.0
    x_45_16  t_16  1.0
    x_45_17  OBJ  75.0
    x_45_17  a_45  1.0
    x_45_17  t_17  1.0
    x_45_18  OBJ  54.0
    x_45_18  a_45  1.0
    x_45_18  t_18  1.0
    x_45_19  OBJ  87.0
    x_45_19  a_45  1.0
    x_45_19  t_19  1.0
    x_45_20  OBJ  13.0
    x_45_20  a_45  1.0
    x_45_20  t_20  1.0
    x_45_21  OBJ  45.0
    x_45_21  a_45  1.0
    x_45_21  t_21  1.0
    x_45_22  OBJ  20.0
    x_45_22  a_45  1.0
    x_45_22  t_22  1.0
    x_45_23  OBJ  83.0
    x_45_23  a_45  1.0
    x_45_23  t_23  1.0
    x_45_24  OBJ  25.0
    x_45_24  a_45  1.0
    x_45_24  t_24  1.0
    x_45_25  OBJ  22.0
    x_45_25  a_45  1.0
    x_45_25  t_25  1.0
    x_45_26  OBJ  35.0
    x_45_26  a_45  1.0
    x_45_26  t_26  1.0
    x_45_27  OBJ  44.0
    x_45_27  a_45  1.0
    x_45_27  t_27  1.0
    x_45_28  OBJ  99.0
    x_45_28  a_45  1.0
    x_45_28  t_28  1.0
    x_45_29  OBJ  42.0
    x_45_29  a_45  1.0
    x_45_29  t_29  1.0
    x_45_30  OBJ  56.0
    x_45_30  a_45  1.0
    x_45_30  t_30  1.0
    x_45_31  OBJ  49.0
    x_45_31  a_45  1.0
    x_45_31  t_31  1.0
    x_45_32  OBJ  42.0
    x_45_32  a_45  1.0
    x_45_32  t_32  1.0
    x_45_33  OBJ  3.0
    x_45_33  a_45  1.0
    x_45_33  t_33  1.0
    x_45_34  OBJ  10.0
    x_45_34  a_45  1.0
    x_45_34  t_34  1.0
    x_45_35  OBJ  17.0
    x_45_35  a_45  1.0
    x_45_35  t_35  1.0
    x_45_36  OBJ  33.0
    x_45_36  a_45  1.0
    x_45_36  t_36  1.0
    x_45_37  OBJ  11.0
    x_45_37  a_45  1.0
    x_45_37  t_37  1.0
    x_45_38  OBJ  65.0
    x_45_38  a_45  1.0
    x_45_38  t_38  1.0
    x_45_39  OBJ  65.0
    x_45_39  a_45  1.0
    x_45_39  t_39  1.0
    x_45_40  OBJ  40.0
    x_45_40  a_45  1.0
    x_45_40  t_40  1.0
    x_45_41  OBJ  48.0
    x_45_41  a_45  1.0
    x_45_41  t_41  1.0
    x_45_42  OBJ  80.0
    x_45_42  a_45  1.0
    x_45_42  t_42  1.0
    x_45_43  OBJ  99.0
    x_45_43  a_45  1.0
    x_45_43  t_43  1.0
    x_45_44  OBJ  1.0
    x_45_44  a_45  1.0
    x_45_44  t_44  1.0
    x_45_45  OBJ  63.0
    x_45_45  a_45  1.0
    x_45_45  t_45  1.0
    x_45_46  OBJ  48.0
    x_45_46  a_45  1.0
    x_45_46  t_46  1.0
    x_45_47  OBJ  21.0
    x_45_47  a_45  1.0
    x_45_47  t_47  1.0
    x_45_48  OBJ  4.0
    x_45_48  a_45  1.0
    x_45_48  t_48  1.0
    x_45_49  OBJ  11.0
    x_45_49  a_45  1.0
    x_45_49  t_49  1.0
    x_45_50  OBJ  81.0
    x_45_50  a_45  1.0
    x_45_50  t_50  1.0
    x_45_51  OBJ  68.0
    x_45_51  a_45  1.0
    x_45_51  t_51  1.0
    x_45_52  OBJ  78.0
    x_45_52  a_45  1.0
    x_45_52  t_52  1.0
    x_45_53  OBJ  82.0
    x_45_53  a_45  1.0
    x_45_53  t_53  1.0
    x_45_54  OBJ  70.0
    x_45_54  a_45  1.0
    x_45_54  t_54  1.0
    x_45_55  OBJ  14.0
    x_45_55  a_45  1.0
    x_45_55  t_55  1.0
    x_45_56  OBJ  54.0
    x_45_56  a_45  1.0
    x_45_56  t_56  1.0
    x_45_57  OBJ  52.0
    x_45_57  a_45  1.0
    x_45_57  t_57  1.0
    x_45_58  OBJ  99.0
    x_45_58  a_45  1.0
    x_45_58  t_58  1.0
    x_45_59  OBJ  95.0
    x_45_59  a_45  1.0
    x_45_59  t_59  1.0
    x_46_0  OBJ  24.0
    x_46_0  a_46  1.0
    x_46_0  t_0  1.0
    x_46_1  OBJ  90.0
    x_46_1  a_46  1.0
    x_46_1  t_1  1.0
    x_46_2  OBJ  92.0
    x_46_2  a_46  1.0
    x_46_2  t_2  1.0
    x_46_3  OBJ  12.0
    x_46_3  a_46  1.0
    x_46_3  t_3  1.0
    x_46_4  OBJ  59.0
    x_46_4  a_46  1.0
    x_46_4  t_4  1.0
    x_46_5  OBJ  49.0
    x_46_5  a_46  1.0
    x_46_5  t_5  1.0
    x_46_6  OBJ  56.0
    x_46_6  a_46  1.0
    x_46_6  t_6  1.0
    x_46_7  OBJ  87.0
    x_46_7  a_46  1.0
    x_46_7  t_7  1.0
    x_46_8  OBJ  61.0
    x_46_8  a_46  1.0
    x_46_8  t_8  1.0
    x_46_9  OBJ  60.0
    x_46_9  a_46  1.0
    x_46_9  t_9  1.0
    x_46_10  OBJ  36.0
    x_46_10  a_46  1.0
    x_46_10  t_10  1.0
    x_46_11  OBJ  3.0
    x_46_11  a_46  1.0
    x_46_11  t_11  1.0
    x_46_12  OBJ  80.0
    x_46_12  a_46  1.0
    x_46_12  t_12  1.0
    x_46_13  OBJ  35.0
    x_46_13  a_46  1.0
    x_46_13  t_13  1.0
    x_46_14  OBJ  35.0
    x_46_14  a_46  1.0
    x_46_14  t_14  1.0
    x_46_15  OBJ  28.0
    x_46_15  a_46  1.0
    x_46_15  t_15  1.0
    x_46_16  OBJ  50.0
    x_46_16  a_46  1.0
    x_46_16  t_16  1.0
    x_46_17  OBJ  34.0
    x_46_17  a_46  1.0
    x_46_17  t_17  1.0
    x_46_18  OBJ  69.0
    x_46_18  a_46  1.0
    x_46_18  t_18  1.0
    x_46_19  OBJ  97.0
    x_46_19  a_46  1.0
    x_46_19  t_19  1.0
    x_46_20  OBJ  66.0
    x_46_20  a_46  1.0
    x_46_20  t_20  1.0
    x_46_21  OBJ  81.0
    x_46_21  a_46  1.0
    x_46_21  t_21  1.0
    x_46_22  OBJ  53.0
    x_46_22  a_46  1.0
    x_46_22  t_22  1.0
    x_46_23  OBJ  99.0
    x_46_23  a_46  1.0
    x_46_23  t_23  1.0
    x_46_24  OBJ  74.0
    x_46_24  a_46  1.0
    x_46_24  t_24  1.0
    x_46_25  OBJ  79.0
    x_46_25  a_46  1.0
    x_46_25  t_25  1.0
    x_46_26  OBJ  25.0
    x_46_26  a_46  1.0
    x_46_26  t_26  1.0
    x_46_27  OBJ  96.0
    x_46_27  a_46  1.0
    x_46_27  t_27  1.0
    x_46_28  OBJ  89.0
    x_46_28  a_46  1.0
    x_46_28  t_28  1.0
    x_46_29  OBJ  42.0
    x_46_29  a_46  1.0
    x_46_29  t_29  1.0
    x_46_30  OBJ  66.0
    x_46_30  a_46  1.0
    x_46_30  t_30  1.0
    x_46_31  OBJ  93.0
    x_46_31  a_46  1.0
    x_46_31  t_31  1.0
    x_46_32  OBJ  95.0
    x_46_32  a_46  1.0
    x_46_32  t_32  1.0
    x_46_33  OBJ  55.0
    x_46_33  a_46  1.0
    x_46_33  t_33  1.0
    x_46_34  OBJ  92.0
    x_46_34  a_46  1.0
    x_46_34  t_34  1.0
    x_46_35  OBJ  81.0
    x_46_35  a_46  1.0
    x_46_35  t_35  1.0
    x_46_36  OBJ  20.0
    x_46_36  a_46  1.0
    x_46_36  t_36  1.0
    x_46_37  OBJ  20.0
    x_46_37  a_46  1.0
    x_46_37  t_37  1.0
    x_46_38  OBJ  45.0
    x_46_38  a_46  1.0
    x_46_38  t_38  1.0
    x_46_39  OBJ  87.0
    x_46_39  a_46  1.0
    x_46_39  t_39  1.0
    x_46_40  OBJ  61.0
    x_46_40  a_46  1.0
    x_46_40  t_40  1.0
    x_46_41  OBJ  40.0
    x_46_41  a_46  1.0
    x_46_41  t_41  1.0
    x_46_42  OBJ  14.0
    x_46_42  a_46  1.0
    x_46_42  t_42  1.0
    x_46_43  OBJ  94.0
    x_46_43  a_46  1.0
    x_46_43  t_43  1.0
    x_46_44  OBJ  88.0
    x_46_44  a_46  1.0
    x_46_44  t_44  1.0
    x_46_45  OBJ  31.0
    x_46_45  a_46  1.0
    x_46_45  t_45  1.0
    x_46_46  OBJ  40.0
    x_46_46  a_46  1.0
    x_46_46  t_46  1.0
    x_46_47  OBJ  40.0
    x_46_47  a_46  1.0
    x_46_47  t_47  1.0
    x_46_48  OBJ  85.0
    x_46_48  a_46  1.0
    x_46_48  t_48  1.0
    x_46_49  OBJ  51.0
    x_46_49  a_46  1.0
    x_46_49  t_49  1.0
    x_46_50  OBJ  13.0
    x_46_50  a_46  1.0
    x_46_50  t_50  1.0
    x_46_51  OBJ  88.0
    x_46_51  a_46  1.0
    x_46_51  t_51  1.0
    x_46_52  OBJ  60.0
    x_46_52  a_46  1.0
    x_46_52  t_52  1.0
    x_46_53  OBJ  73.0
    x_46_53  a_46  1.0
    x_46_53  t_53  1.0
    x_46_54  OBJ  79.0
    x_46_54  a_46  1.0
    x_46_54  t_54  1.0
    x_46_55  OBJ  26.0
    x_46_55  a_46  1.0
    x_46_55  t_55  1.0
    x_46_56  OBJ  68.0
    x_46_56  a_46  1.0
    x_46_56  t_56  1.0
    x_46_57  OBJ  50.0
    x_46_57  a_46  1.0
    x_46_57  t_57  1.0
    x_46_58  OBJ  32.0
    x_46_58  a_46  1.0
    x_46_58  t_58  1.0
    x_46_59  OBJ  85.0
    x_46_59  a_46  1.0
    x_46_59  t_59  1.0
    x_47_0  OBJ  98.0
    x_47_0  a_47  1.0
    x_47_0  t_0  1.0
    x_47_1  OBJ  88.0
    x_47_1  a_47  1.0
    x_47_1  t_1  1.0
    x_47_2  OBJ  88.0
    x_47_2  a_47  1.0
    x_47_2  t_2  1.0
    x_47_3  OBJ  74.0
    x_47_3  a_47  1.0
    x_47_3  t_3  1.0
    x_47_4  OBJ  12.0
    x_47_4  a_47  1.0
    x_47_4  t_4  1.0
    x_47_5  OBJ  33.0
    x_47_5  a_47  1.0
    x_47_5  t_5  1.0
    x_47_6  OBJ  63.0
    x_47_6  a_47  1.0
    x_47_6  t_6  1.0
    x_47_7  OBJ  92.0
    x_47_7  a_47  1.0
    x_47_7  t_7  1.0
    x_47_8  OBJ  34.0
    x_47_8  a_47  1.0
    x_47_8  t_8  1.0
    x_47_9  OBJ  39.0
    x_47_9  a_47  1.0
    x_47_9  t_9  1.0
    x_47_10  OBJ  99.0
    x_47_10  a_47  1.0
    x_47_10  t_10  1.0
    x_47_11  OBJ  73.0
    x_47_11  a_47  1.0
    x_47_11  t_11  1.0
    x_47_12  OBJ  55.0
    x_47_12  a_47  1.0
    x_47_12  t_12  1.0
    x_47_13  OBJ  80.0
    x_47_13  a_47  1.0
    x_47_13  t_13  1.0
    x_47_14  OBJ  21.0
    x_47_14  a_47  1.0
    x_47_14  t_14  1.0
    x_47_15  OBJ  69.0
    x_47_15  a_47  1.0
    x_47_15  t_15  1.0
    x_47_16  OBJ  37.0
    x_47_16  a_47  1.0
    x_47_16  t_16  1.0
    x_47_17  OBJ  6.0
    x_47_17  a_47  1.0
    x_47_17  t_17  1.0
    x_47_18  OBJ  66.0
    x_47_18  a_47  1.0
    x_47_18  t_18  1.0
    x_47_19  OBJ  22.0
    x_47_19  a_47  1.0
    x_47_19  t_19  1.0
    x_47_20  OBJ  27.0
    x_47_20  a_47  1.0
    x_47_20  t_20  1.0
    x_47_21  OBJ  78.0
    x_47_21  a_47  1.0
    x_47_21  t_21  1.0
    x_47_22  OBJ  78.0
    x_47_22  a_47  1.0
    x_47_22  t_22  1.0
    x_47_23  OBJ  65.0
    x_47_23  a_47  1.0
    x_47_23  t_23  1.0
    x_47_24  OBJ  47.0
    x_47_24  a_47  1.0
    x_47_24  t_24  1.0
    x_47_25  OBJ  84.0
    x_47_25  a_47  1.0
    x_47_25  t_25  1.0
    x_47_26  OBJ  74.0
    x_47_26  a_47  1.0
    x_47_26  t_26  1.0
    x_47_27  OBJ  70.0
    x_47_27  a_47  1.0
    x_47_27  t_27  1.0
    x_47_28  OBJ  84.0
    x_47_28  a_47  1.0
    x_47_28  t_28  1.0
    x_47_29  OBJ  68.0
    x_47_29  a_47  1.0
    x_47_29  t_29  1.0
    x_47_30  OBJ  98.0
    x_47_30  a_47  1.0
    x_47_30  t_30  1.0
    x_47_31  OBJ  88.0
    x_47_31  a_47  1.0
    x_47_31  t_31  1.0
    x_47_32  OBJ  78.0
    x_47_32  a_47  1.0
    x_47_32  t_32  1.0
    x_47_33  OBJ  92.0
    x_47_33  a_47  1.0
    x_47_33  t_33  1.0
    x_47_34  OBJ  56.0
    x_47_34  a_47  1.0
    x_47_34  t_34  1.0
    x_47_35  OBJ  29.0
    x_47_35  a_47  1.0
    x_47_35  t_35  1.0
    x_47_36  OBJ  72.0
    x_47_36  a_47  1.0
    x_47_36  t_36  1.0
    x_47_37  OBJ  83.0
    x_47_37  a_47  1.0
    x_47_37  t_37  1.0
    x_47_38  OBJ  33.0
    x_47_38  a_47  1.0
    x_47_38  t_38  1.0
    x_47_39  OBJ  96.0
    x_47_39  a_47  1.0
    x_47_39  t_39  1.0
    x_47_40  OBJ  3.0
    x_47_40  a_47  1.0
    x_47_40  t_40  1.0
    x_47_41  OBJ  12.0
    x_47_41  a_47  1.0
    x_47_41  t_41  1.0
    x_47_42  OBJ  68.0
    x_47_42  a_47  1.0
    x_47_42  t_42  1.0
    x_47_43  OBJ  44.0
    x_47_43  a_47  1.0
    x_47_43  t_43  1.0
    x_47_44  OBJ  8.0
    x_47_44  a_47  1.0
    x_47_44  t_44  1.0
    x_47_45  OBJ  54.0
    x_47_45  a_47  1.0
    x_47_45  t_45  1.0
    x_47_46  OBJ  88.0
    x_47_46  a_47  1.0
    x_47_46  t_46  1.0
    x_47_47  OBJ  56.0
    x_47_47  a_47  1.0
    x_47_47  t_47  1.0
    x_47_48  OBJ  88.0
    x_47_48  a_47  1.0
    x_47_48  t_48  1.0
    x_47_49  OBJ  86.0
    x_47_49  a_47  1.0
    x_47_49  t_49  1.0
    x_47_50  OBJ  5.0
    x_47_50  a_47  1.0
    x_47_50  t_50  1.0
    x_47_51  OBJ  1.0
    x_47_51  a_47  1.0
    x_47_51  t_51  1.0
    x_47_52  OBJ  12.0
    x_47_52  a_47  1.0
    x_47_52  t_52  1.0
    x_47_53  OBJ  7.0
    x_47_53  a_47  1.0
    x_47_53  t_53  1.0
    x_47_54  OBJ  97.0
    x_47_54  a_47  1.0
    x_47_54  t_54  1.0
    x_47_55  OBJ  78.0
    x_47_55  a_47  1.0
    x_47_55  t_55  1.0
    x_47_56  OBJ  90.0
    x_47_56  a_47  1.0
    x_47_56  t_56  1.0
    x_47_57  OBJ  28.0
    x_47_57  a_47  1.0
    x_47_57  t_57  1.0
    x_47_58  OBJ  91.0
    x_47_58  a_47  1.0
    x_47_58  t_58  1.0
    x_47_59  OBJ  46.0
    x_47_59  a_47  1.0
    x_47_59  t_59  1.0
    x_48_0  OBJ  70.0
    x_48_0  a_48  1.0
    x_48_0  t_0  1.0
    x_48_1  OBJ  15.0
    x_48_1  a_48  1.0
    x_48_1  t_1  1.0
    x_48_2  OBJ  23.0
    x_48_2  a_48  1.0
    x_48_2  t_2  1.0
    x_48_3  OBJ  95.0
    x_48_3  a_48  1.0
    x_48_3  t_3  1.0
    x_48_4  OBJ  32.0
    x_48_4  a_48  1.0
    x_48_4  t_4  1.0
    x_48_5  OBJ  49.0
    x_48_5  a_48  1.0
    x_48_5  t_5  1.0
    x_48_6  OBJ  71.0
    x_48_6  a_48  1.0
    x_48_6  t_6  1.0
    x_48_7  OBJ  7.0
    x_48_7  a_48  1.0
    x_48_7  t_7  1.0
    x_48_8  OBJ  5.0
    x_48_8  a_48  1.0
    x_48_8  t_8  1.0
    x_48_9  OBJ  90.0
    x_48_9  a_48  1.0
    x_48_9  t_9  1.0
    x_48_10  OBJ  2.0
    x_48_10  a_48  1.0
    x_48_10  t_10  1.0
    x_48_11  OBJ  59.0
    x_48_11  a_48  1.0
    x_48_11  t_11  1.0
    x_48_12  OBJ  71.0
    x_48_12  a_48  1.0
    x_48_12  t_12  1.0
    x_48_13  OBJ  26.0
    x_48_13  a_48  1.0
    x_48_13  t_13  1.0
    x_48_14  OBJ  51.0
    x_48_14  a_48  1.0
    x_48_14  t_14  1.0
    x_48_15  OBJ  10.0
    x_48_15  a_48  1.0
    x_48_15  t_15  1.0
    x_48_16  OBJ  78.0
    x_48_16  a_48  1.0
    x_48_16  t_16  1.0
    x_48_17  OBJ  3.0
    x_48_17  a_48  1.0
    x_48_17  t_17  1.0
    x_48_18  OBJ  50.0
    x_48_18  a_48  1.0
    x_48_18  t_18  1.0
    x_48_19  OBJ  86.0
    x_48_19  a_48  1.0
    x_48_19  t_19  1.0
    x_48_20  OBJ  37.0
    x_48_20  a_48  1.0
    x_48_20  t_20  1.0
    x_48_21  OBJ  13.0
    x_48_21  a_48  1.0
    x_48_21  t_21  1.0
    x_48_22  OBJ  46.0
    x_48_22  a_48  1.0
    x_48_22  t_22  1.0
    x_48_23  OBJ  22.0
    x_48_23  a_48  1.0
    x_48_23  t_23  1.0
    x_48_24  OBJ  99.0
    x_48_24  a_48  1.0
    x_48_24  t_24  1.0
    x_48_25  OBJ  55.0
    x_48_25  a_48  1.0
    x_48_25  t_25  1.0
    x_48_26  OBJ  33.0
    x_48_26  a_48  1.0
    x_48_26  t_26  1.0
    x_48_27  OBJ  7.0
    x_48_27  a_48  1.0
    x_48_27  t_27  1.0
    x_48_28  OBJ  54.0
    x_48_28  a_48  1.0
    x_48_28  t_28  1.0
    x_48_29  OBJ  72.0
    x_48_29  a_48  1.0
    x_48_29  t_29  1.0
    x_48_30  OBJ  26.0
    x_48_30  a_48  1.0
    x_48_30  t_30  1.0
    x_48_31  OBJ  64.0
    x_48_31  a_48  1.0
    x_48_31  t_31  1.0
    x_48_32  OBJ  97.0
    x_48_32  a_48  1.0
    x_48_32  t_32  1.0
    x_48_33  OBJ  65.0
    x_48_33  a_48  1.0
    x_48_33  t_33  1.0
    x_48_34  OBJ  6.0
    x_48_34  a_48  1.0
    x_48_34  t_34  1.0
    x_48_35  OBJ  36.0
    x_48_35  a_48  1.0
    x_48_35  t_35  1.0
    x_48_36  OBJ  45.0
    x_48_36  a_48  1.0
    x_48_36  t_36  1.0
    x_48_37  OBJ  29.0
    x_48_37  a_48  1.0
    x_48_37  t_37  1.0
    x_48_38  OBJ  94.0
    x_48_38  a_48  1.0
    x_48_38  t_38  1.0
    x_48_39  OBJ  77.0
    x_48_39  a_48  1.0
    x_48_39  t_39  1.0
    x_48_40  OBJ  63.0
    x_48_40  a_48  1.0
    x_48_40  t_40  1.0
    x_48_41  OBJ  98.0
    x_48_41  a_48  1.0
    x_48_41  t_41  1.0
    x_48_42  OBJ  25.0
    x_48_42  a_48  1.0
    x_48_42  t_42  1.0
    x_48_43  OBJ  59.0
    x_48_43  a_48  1.0
    x_48_43  t_43  1.0
    x_48_44  OBJ  47.0
    x_48_44  a_48  1.0
    x_48_44  t_44  1.0
    x_48_45  OBJ  91.0
    x_48_45  a_48  1.0
    x_48_45  t_45  1.0
    x_48_46  OBJ  60.0
    x_48_46  a_48  1.0
    x_48_46  t_46  1.0
    x_48_47  OBJ  16.0
    x_48_47  a_48  1.0
    x_48_47  t_47  1.0
    x_48_48  OBJ  89.0
    x_48_48  a_48  1.0
    x_48_48  t_48  1.0
    x_48_49  OBJ  76.0
    x_48_49  a_48  1.0
    x_48_49  t_49  1.0
    x_48_50  OBJ  48.0
    x_48_50  a_48  1.0
    x_48_50  t_50  1.0
    x_48_51  OBJ  24.0
    x_48_51  a_48  1.0
    x_48_51  t_51  1.0
    x_48_52  OBJ  19.0
    x_48_52  a_48  1.0
    x_48_52  t_52  1.0
    x_48_53  OBJ  28.0
    x_48_53  a_48  1.0
    x_48_53  t_53  1.0
    x_48_54  OBJ  67.0
    x_48_54  a_48  1.0
    x_48_54  t_54  1.0
    x_48_55  OBJ  4.0
    x_48_55  a_48  1.0
    x_48_55  t_55  1.0
    x_48_56  OBJ  53.0
    x_48_56  a_48  1.0
    x_48_56  t_56  1.0
    x_48_57  OBJ  93.0
    x_48_57  a_48  1.0
    x_48_57  t_57  1.0
    x_48_58  OBJ  45.0
    x_48_58  a_48  1.0
    x_48_58  t_58  1.0
    x_48_59  OBJ  15.0
    x_48_59  a_48  1.0
    x_48_59  t_59  1.0
    x_49_0  OBJ  95.0
    x_49_0  a_49  1.0
    x_49_0  t_0  1.0
    x_49_1  OBJ  23.0
    x_49_1  a_49  1.0
    x_49_1  t_1  1.0
    x_49_2  OBJ  37.0
    x_49_2  a_49  1.0
    x_49_2  t_2  1.0
    x_49_3  OBJ  35.0
    x_49_3  a_49  1.0
    x_49_3  t_3  1.0
    x_49_4  OBJ  58.0
    x_49_4  a_49  1.0
    x_49_4  t_4  1.0
    x_49_5  OBJ  43.0
    x_49_5  a_49  1.0
    x_49_5  t_5  1.0
    x_49_6  OBJ  86.0
    x_49_6  a_49  1.0
    x_49_6  t_6  1.0
    x_49_7  OBJ  81.0
    x_49_7  a_49  1.0
    x_49_7  t_7  1.0
    x_49_8  OBJ  6.0
    x_49_8  a_49  1.0
    x_49_8  t_8  1.0
    x_49_9  OBJ  9.0
    x_49_9  a_49  1.0
    x_49_9  t_9  1.0
    x_49_10  OBJ  85.0
    x_49_10  a_49  1.0
    x_49_10  t_10  1.0
    x_49_11  OBJ  8.0
    x_49_11  a_49  1.0
    x_49_11  t_11  1.0
    x_49_12  OBJ  98.0
    x_49_12  a_49  1.0
    x_49_12  t_12  1.0
    x_49_13  OBJ  22.0
    x_49_13  a_49  1.0
    x_49_13  t_13  1.0
    x_49_14  OBJ  5.0
    x_49_14  a_49  1.0
    x_49_14  t_14  1.0
    x_49_15  OBJ  88.0
    x_49_15  a_49  1.0
    x_49_15  t_15  1.0
    x_49_16  OBJ  57.0
    x_49_16  a_49  1.0
    x_49_16  t_16  1.0
    x_49_17  OBJ  82.0
    x_49_17  a_49  1.0
    x_49_17  t_17  1.0
    x_49_18  OBJ  26.0
    x_49_18  a_49  1.0
    x_49_18  t_18  1.0
    x_49_19  OBJ  89.0
    x_49_19  a_49  1.0
    x_49_19  t_19  1.0
    x_49_20  OBJ  14.0
    x_49_20  a_49  1.0
    x_49_20  t_20  1.0
    x_49_21  OBJ  51.0
    x_49_21  a_49  1.0
    x_49_21  t_21  1.0
    x_49_22  OBJ  18.0
    x_49_22  a_49  1.0
    x_49_22  t_22  1.0
    x_49_23  OBJ  1.0
    x_49_23  a_49  1.0
    x_49_23  t_23  1.0
    x_49_24  OBJ  14.0
    x_49_24  a_49  1.0
    x_49_24  t_24  1.0
    x_49_25  OBJ  61.0
    x_49_25  a_49  1.0
    x_49_25  t_25  1.0
    x_49_26  OBJ  9.0
    x_49_26  a_49  1.0
    x_49_26  t_26  1.0
    x_49_27  OBJ  28.0
    x_49_27  a_49  1.0
    x_49_27  t_27  1.0
    x_49_28  OBJ  86.0
    x_49_28  a_49  1.0
    x_49_28  t_28  1.0
    x_49_29  OBJ  14.0
    x_49_29  a_49  1.0
    x_49_29  t_29  1.0
    x_49_30  OBJ  44.0
    x_49_30  a_49  1.0
    x_49_30  t_30  1.0
    x_49_31  OBJ  30.0
    x_49_31  a_49  1.0
    x_49_31  t_31  1.0
    x_49_32  OBJ  15.0
    x_49_32  a_49  1.0
    x_49_32  t_32  1.0
    x_49_33  OBJ  72.0
    x_49_33  a_49  1.0
    x_49_33  t_33  1.0
    x_49_34  OBJ  69.0
    x_49_34  a_49  1.0
    x_49_34  t_34  1.0
    x_49_35  OBJ  59.0
    x_49_35  a_49  1.0
    x_49_35  t_35  1.0
    x_49_36  OBJ  90.0
    x_49_36  a_49  1.0
    x_49_36  t_36  1.0
    x_49_37  OBJ  74.0
    x_49_37  a_49  1.0
    x_49_37  t_37  1.0
    x_49_38  OBJ  18.0
    x_49_38  a_49  1.0
    x_49_38  t_38  1.0
    x_49_39  OBJ  62.0
    x_49_39  a_49  1.0
    x_49_39  t_39  1.0
    x_49_40  OBJ  90.0
    x_49_40  a_49  1.0
    x_49_40  t_40  1.0
    x_49_41  OBJ  59.0
    x_49_41  a_49  1.0
    x_49_41  t_41  1.0
    x_49_42  OBJ  69.0
    x_49_42  a_49  1.0
    x_49_42  t_42  1.0
    x_49_43  OBJ  55.0
    x_49_43  a_49  1.0
    x_49_43  t_43  1.0
    x_49_44  OBJ  51.0
    x_49_44  a_49  1.0
    x_49_44  t_44  1.0
    x_49_45  OBJ  77.0
    x_49_45  a_49  1.0
    x_49_45  t_45  1.0
    x_49_46  OBJ  39.0
    x_49_46  a_49  1.0
    x_49_46  t_46  1.0
    x_49_47  OBJ  68.0
    x_49_47  a_49  1.0
    x_49_47  t_47  1.0
    x_49_48  OBJ  75.0
    x_49_48  a_49  1.0
    x_49_48  t_48  1.0
    x_49_49  OBJ  67.0
    x_49_49  a_49  1.0
    x_49_49  t_49  1.0
    x_49_50  OBJ  11.0
    x_49_50  a_49  1.0
    x_49_50  t_50  1.0
    x_49_51  OBJ  34.0
    x_49_51  a_49  1.0
    x_49_51  t_51  1.0
    x_49_52  OBJ  82.0
    x_49_52  a_49  1.0
    x_49_52  t_52  1.0
    x_49_53  OBJ  22.0
    x_49_53  a_49  1.0
    x_49_53  t_53  1.0
    x_49_54  OBJ  44.0
    x_49_54  a_49  1.0
    x_49_54  t_54  1.0
    x_49_55  OBJ  77.0
    x_49_55  a_49  1.0
    x_49_55  t_55  1.0
    x_49_56  OBJ  77.0
    x_49_56  a_49  1.0
    x_49_56  t_56  1.0
    x_49_57  OBJ  63.0
    x_49_57  a_49  1.0
    x_49_57  t_57  1.0
    x_49_58  OBJ  45.0
    x_49_58  a_49  1.0
    x_49_58  t_58  1.0
    x_49_59  OBJ  76.0
    x_49_59  a_49  1.0
    x_49_59  t_59  1.0
    x_50_0  OBJ  95.0
    x_50_0  a_50  1.0
    x_50_0  t_0  1.0
    x_50_1  OBJ  32.0
    x_50_1  a_50  1.0
    x_50_1  t_1  1.0
    x_50_2  OBJ  24.0
    x_50_2  a_50  1.0
    x_50_2  t_2  1.0
    x_50_3  OBJ  2.0
    x_50_3  a_50  1.0
    x_50_3  t_3  1.0
    x_50_4  OBJ  33.0
    x_50_4  a_50  1.0
    x_50_4  t_4  1.0
    x_50_5  OBJ  78.0
    x_50_5  a_50  1.0
    x_50_5  t_5  1.0
    x_50_6  OBJ  37.0
    x_50_6  a_50  1.0
    x_50_6  t_6  1.0
    x_50_7  OBJ  17.0
    x_50_7  a_50  1.0
    x_50_7  t_7  1.0
    x_50_8  OBJ  60.0
    x_50_8  a_50  1.0
    x_50_8  t_8  1.0
    x_50_9  OBJ  75.0
    x_50_9  a_50  1.0
    x_50_9  t_9  1.0
    x_50_10  OBJ  11.0
    x_50_10  a_50  1.0
    x_50_10  t_10  1.0
    x_50_11  OBJ  6.0
    x_50_11  a_50  1.0
    x_50_11  t_11  1.0
    x_50_12  OBJ  82.0
    x_50_12  a_50  1.0
    x_50_12  t_12  1.0
    x_50_13  OBJ  10.0
    x_50_13  a_50  1.0
    x_50_13  t_13  1.0
    x_50_14  OBJ  87.0
    x_50_14  a_50  1.0
    x_50_14  t_14  1.0
    x_50_15  OBJ  12.0
    x_50_15  a_50  1.0
    x_50_15  t_15  1.0
    x_50_16  OBJ  4.0
    x_50_16  a_50  1.0
    x_50_16  t_16  1.0
    x_50_17  OBJ  15.0
    x_50_17  a_50  1.0
    x_50_17  t_17  1.0
    x_50_18  OBJ  19.0
    x_50_18  a_50  1.0
    x_50_18  t_18  1.0
    x_50_19  OBJ  81.0
    x_50_19  a_50  1.0
    x_50_19  t_19  1.0
    x_50_20  OBJ  13.0
    x_50_20  a_50  1.0
    x_50_20  t_20  1.0
    x_50_21  OBJ  3.0
    x_50_21  a_50  1.0
    x_50_21  t_21  1.0
    x_50_22  OBJ  12.0
    x_50_22  a_50  1.0
    x_50_22  t_22  1.0
    x_50_23  OBJ  31.0
    x_50_23  a_50  1.0
    x_50_23  t_23  1.0
    x_50_24  OBJ  69.0
    x_50_24  a_50  1.0
    x_50_24  t_24  1.0
    x_50_25  OBJ  55.0
    x_50_25  a_50  1.0
    x_50_25  t_25  1.0
    x_50_26  OBJ  95.0
    x_50_26  a_50  1.0
    x_50_26  t_26  1.0
    x_50_27  OBJ  54.0
    x_50_27  a_50  1.0
    x_50_27  t_27  1.0
    x_50_28  OBJ  53.0
    x_50_28  a_50  1.0
    x_50_28  t_28  1.0
    x_50_29  OBJ  68.0
    x_50_29  a_50  1.0
    x_50_29  t_29  1.0
    x_50_30  OBJ  3.0
    x_50_30  a_50  1.0
    x_50_30  t_30  1.0
    x_50_31  OBJ  54.0
    x_50_31  a_50  1.0
    x_50_31  t_31  1.0
    x_50_32  OBJ  74.0
    x_50_32  a_50  1.0
    x_50_32  t_32  1.0
    x_50_33  OBJ  14.0
    x_50_33  a_50  1.0
    x_50_33  t_33  1.0
    x_50_34  OBJ  76.0
    x_50_34  a_50  1.0
    x_50_34  t_34  1.0
    x_50_35  OBJ  8.0
    x_50_35  a_50  1.0
    x_50_35  t_35  1.0
    x_50_36  OBJ  74.0
    x_50_36  a_50  1.0
    x_50_36  t_36  1.0
    x_50_37  OBJ  77.0
    x_50_37  a_50  1.0
    x_50_37  t_37  1.0
    x_50_38  OBJ  79.0
    x_50_38  a_50  1.0
    x_50_38  t_38  1.0
    x_50_39  OBJ  29.0
    x_50_39  a_50  1.0
    x_50_39  t_39  1.0
    x_50_40  OBJ  15.0
    x_50_40  a_50  1.0
    x_50_40  t_40  1.0
    x_50_41  OBJ  15.0
    x_50_41  a_50  1.0
    x_50_41  t_41  1.0
    x_50_42  OBJ  34.0
    x_50_42  a_50  1.0
    x_50_42  t_42  1.0
    x_50_43  OBJ  29.0
    x_50_43  a_50  1.0
    x_50_43  t_43  1.0
    x_50_44  OBJ  21.0
    x_50_44  a_50  1.0
    x_50_44  t_44  1.0
    x_50_45  OBJ  13.0
    x_50_45  a_50  1.0
    x_50_45  t_45  1.0
    x_50_46  OBJ  82.0
    x_50_46  a_50  1.0
    x_50_46  t_46  1.0
    x_50_47  OBJ  76.0
    x_50_47  a_50  1.0
    x_50_47  t_47  1.0
    x_50_48  OBJ  47.0
    x_50_48  a_50  1.0
    x_50_48  t_48  1.0
    x_50_49  OBJ  22.0
    x_50_49  a_50  1.0
    x_50_49  t_49  1.0
    x_50_50  OBJ  18.0
    x_50_50  a_50  1.0
    x_50_50  t_50  1.0
    x_50_51  OBJ  58.0
    x_50_51  a_50  1.0
    x_50_51  t_51  1.0
    x_50_52  OBJ  54.0
    x_50_52  a_50  1.0
    x_50_52  t_52  1.0
    x_50_53  OBJ  41.0
    x_50_53  a_50  1.0
    x_50_53  t_53  1.0
    x_50_54  OBJ  27.0
    x_50_54  a_50  1.0
    x_50_54  t_54  1.0
    x_50_55  OBJ  58.0
    x_50_55  a_50  1.0
    x_50_55  t_55  1.0
    x_50_56  OBJ  12.0
    x_50_56  a_50  1.0
    x_50_56  t_56  1.0
    x_50_57  OBJ  92.0
    x_50_57  a_50  1.0
    x_50_57  t_57  1.0
    x_50_58  OBJ  30.0
    x_50_58  a_50  1.0
    x_50_58  t_58  1.0
    x_50_59  OBJ  49.0
    x_50_59  a_50  1.0
    x_50_59  t_59  1.0
    x_51_0  OBJ  84.0
    x_51_0  a_51  1.0
    x_51_0  t_0  1.0
    x_51_1  OBJ  14.0
    x_51_1  a_51  1.0
    x_51_1  t_1  1.0
    x_51_2  OBJ  16.0
    x_51_2  a_51  1.0
    x_51_2  t_2  1.0
    x_51_3  OBJ  69.0
    x_51_3  a_51  1.0
    x_51_3  t_3  1.0
    x_51_4  OBJ  68.0
    x_51_4  a_51  1.0
    x_51_4  t_4  1.0
    x_51_5  OBJ  31.0
    x_51_5  a_51  1.0
    x_51_5  t_5  1.0
    x_51_6  OBJ  60.0
    x_51_6  a_51  1.0
    x_51_6  t_6  1.0
    x_51_7  OBJ  27.0
    x_51_7  a_51  1.0
    x_51_7  t_7  1.0
    x_51_8  OBJ  53.0
    x_51_8  a_51  1.0
    x_51_8  t_8  1.0
    x_51_9  OBJ  82.0
    x_51_9  a_51  1.0
    x_51_9  t_9  1.0
    x_51_10  OBJ  39.0
    x_51_10  a_51  1.0
    x_51_10  t_10  1.0
    x_51_11  OBJ  24.0
    x_51_11  a_51  1.0
    x_51_11  t_11  1.0
    x_51_12  OBJ  61.0
    x_51_12  a_51  1.0
    x_51_12  t_12  1.0
    x_51_13  OBJ  30.0
    x_51_13  a_51  1.0
    x_51_13  t_13  1.0
    x_51_14  OBJ  98.0
    x_51_14  a_51  1.0
    x_51_14  t_14  1.0
    x_51_15  OBJ  44.0
    x_51_15  a_51  1.0
    x_51_15  t_15  1.0
    x_51_16  OBJ  6.0
    x_51_16  a_51  1.0
    x_51_16  t_16  1.0
    x_51_17  OBJ  77.0
    x_51_17  a_51  1.0
    x_51_17  t_17  1.0
    x_51_18  OBJ  10.0
    x_51_18  a_51  1.0
    x_51_18  t_18  1.0
    x_51_19  OBJ  77.0
    x_51_19  a_51  1.0
    x_51_19  t_19  1.0
    x_51_20  OBJ  72.0
    x_51_20  a_51  1.0
    x_51_20  t_20  1.0
    x_51_21  OBJ  39.0
    x_51_21  a_51  1.0
    x_51_21  t_21  1.0
    x_51_22  OBJ  20.0
    x_51_22  a_51  1.0
    x_51_22  t_22  1.0
    x_51_23  OBJ  1.0
    x_51_23  a_51  1.0
    x_51_23  t_23  1.0
    x_51_24  OBJ  62.0
    x_51_24  a_51  1.0
    x_51_24  t_24  1.0
    x_51_25  OBJ  1.0
    x_51_25  a_51  1.0
    x_51_25  t_25  1.0
    x_51_26  OBJ  13.0
    x_51_26  a_51  1.0
    x_51_26  t_26  1.0
    x_51_27  OBJ  12.0
    x_51_27  a_51  1.0
    x_51_27  t_27  1.0
    x_51_28  OBJ  48.0
    x_51_28  a_51  1.0
    x_51_28  t_28  1.0
    x_51_29  OBJ  99.0
    x_51_29  a_51  1.0
    x_51_29  t_29  1.0
    x_51_30  OBJ  30.0
    x_51_30  a_51  1.0
    x_51_30  t_30  1.0
    x_51_31  OBJ  44.0
    x_51_31  a_51  1.0
    x_51_31  t_31  1.0
    x_51_32  OBJ  58.0
    x_51_32  a_51  1.0
    x_51_32  t_32  1.0
    x_51_33  OBJ  50.0
    x_51_33  a_51  1.0
    x_51_33  t_33  1.0
    x_51_34  OBJ  92.0
    x_51_34  a_51  1.0
    x_51_34  t_34  1.0
    x_51_35  OBJ  70.0
    x_51_35  a_51  1.0
    x_51_35  t_35  1.0
    x_51_36  OBJ  48.0
    x_51_36  a_51  1.0
    x_51_36  t_36  1.0
    x_51_37  OBJ  49.0
    x_51_37  a_51  1.0
    x_51_37  t_37  1.0
    x_51_38  OBJ  64.0
    x_51_38  a_51  1.0
    x_51_38  t_38  1.0
    x_51_39  OBJ  17.0
    x_51_39  a_51  1.0
    x_51_39  t_39  1.0
    x_51_40  OBJ  58.0
    x_51_40  a_51  1.0
    x_51_40  t_40  1.0
    x_51_41  OBJ  71.0
    x_51_41  a_51  1.0
    x_51_41  t_41  1.0
    x_51_42  OBJ  4.0
    x_51_42  a_51  1.0
    x_51_42  t_42  1.0
    x_51_43  OBJ  18.0
    x_51_43  a_51  1.0
    x_51_43  t_43  1.0
    x_51_44  OBJ  88.0
    x_51_44  a_51  1.0
    x_51_44  t_44  1.0
    x_51_45  OBJ  34.0
    x_51_45  a_51  1.0
    x_51_45  t_45  1.0
    x_51_46  OBJ  18.0
    x_51_46  a_51  1.0
    x_51_46  t_46  1.0
    x_51_47  OBJ  3.0
    x_51_47  a_51  1.0
    x_51_47  t_47  1.0
    x_51_48  OBJ  44.0
    x_51_48  a_51  1.0
    x_51_48  t_48  1.0
    x_51_49  OBJ  64.0
    x_51_49  a_51  1.0
    x_51_49  t_49  1.0
    x_51_50  OBJ  44.0
    x_51_50  a_51  1.0
    x_51_50  t_50  1.0
    x_51_51  OBJ  80.0
    x_51_51  a_51  1.0
    x_51_51  t_51  1.0
    x_51_52  OBJ  6.0
    x_51_52  a_51  1.0
    x_51_52  t_52  1.0
    x_51_53  OBJ  34.0
    x_51_53  a_51  1.0
    x_51_53  t_53  1.0
    x_51_54  OBJ  64.0
    x_51_54  a_51  1.0
    x_51_54  t_54  1.0
    x_51_55  OBJ  6.0
    x_51_55  a_51  1.0
    x_51_55  t_55  1.0
    x_51_56  OBJ  97.0
    x_51_56  a_51  1.0
    x_51_56  t_56  1.0
    x_51_57  OBJ  35.0
    x_51_57  a_51  1.0
    x_51_57  t_57  1.0
    x_51_58  OBJ  25.0
    x_51_58  a_51  1.0
    x_51_58  t_58  1.0
    x_51_59  OBJ  17.0
    x_51_59  a_51  1.0
    x_51_59  t_59  1.0
    x_52_0  OBJ  24.0
    x_52_0  a_52  1.0
    x_52_0  t_0  1.0
    x_52_1  OBJ  22.0
    x_52_1  a_52  1.0
    x_52_1  t_1  1.0
    x_52_2  OBJ  2.0
    x_52_2  a_52  1.0
    x_52_2  t_2  1.0
    x_52_3  OBJ  66.0
    x_52_3  a_52  1.0
    x_52_3  t_3  1.0
    x_52_4  OBJ  25.0
    x_52_4  a_52  1.0
    x_52_4  t_4  1.0
    x_52_5  OBJ  62.0
    x_52_5  a_52  1.0
    x_52_5  t_5  1.0
    x_52_6  OBJ  72.0
    x_52_6  a_52  1.0
    x_52_6  t_6  1.0
    x_52_7  OBJ  61.0
    x_52_7  a_52  1.0
    x_52_7  t_7  1.0
    x_52_8  OBJ  6.0
    x_52_8  a_52  1.0
    x_52_8  t_8  1.0
    x_52_9  OBJ  42.0
    x_52_9  a_52  1.0
    x_52_9  t_9  1.0
    x_52_10  OBJ  33.0
    x_52_10  a_52  1.0
    x_52_10  t_10  1.0
    x_52_11  OBJ  60.0
    x_52_11  a_52  1.0
    x_52_11  t_11  1.0
    x_52_12  OBJ  20.0
    x_52_12  a_52  1.0
    x_52_12  t_12  1.0
    x_52_13  OBJ  46.0
    x_52_13  a_52  1.0
    x_52_13  t_13  1.0
    x_52_14  OBJ  25.0
    x_52_14  a_52  1.0
    x_52_14  t_14  1.0
    x_52_15  OBJ  38.0
    x_52_15  a_52  1.0
    x_52_15  t_15  1.0
    x_52_16  OBJ  3.0
    x_52_16  a_52  1.0
    x_52_16  t_16  1.0
    x_52_17  OBJ  9.0
    x_52_17  a_52  1.0
    x_52_17  t_17  1.0
    x_52_18  OBJ  33.0
    x_52_18  a_52  1.0
    x_52_18  t_18  1.0
    x_52_19  OBJ  87.0
    x_52_19  a_52  1.0
    x_52_19  t_19  1.0
    x_52_20  OBJ  79.0
    x_52_20  a_52  1.0
    x_52_20  t_20  1.0
    x_52_21  OBJ  37.0
    x_52_21  a_52  1.0
    x_52_21  t_21  1.0
    x_52_22  OBJ  60.0
    x_52_22  a_52  1.0
    x_52_22  t_22  1.0
    x_52_23  OBJ  84.0
    x_52_23  a_52  1.0
    x_52_23  t_23  1.0
    x_52_24  OBJ  2.0
    x_52_24  a_52  1.0
    x_52_24  t_24  1.0
    x_52_25  OBJ  88.0
    x_52_25  a_52  1.0
    x_52_25  t_25  1.0
    x_52_26  OBJ  39.0
    x_52_26  a_52  1.0
    x_52_26  t_26  1.0
    x_52_27  OBJ  40.0
    x_52_27  a_52  1.0
    x_52_27  t_27  1.0
    x_52_28  OBJ  95.0
    x_52_28  a_52  1.0
    x_52_28  t_28  1.0
    x_52_29  OBJ  65.0
    x_52_29  a_52  1.0
    x_52_29  t_29  1.0
    x_52_30  OBJ  44.0
    x_52_30  a_52  1.0
    x_52_30  t_30  1.0
    x_52_31  OBJ  52.0
    x_52_31  a_52  1.0
    x_52_31  t_31  1.0
    x_52_32  OBJ  96.0
    x_52_32  a_52  1.0
    x_52_32  t_32  1.0
    x_52_33  OBJ  80.0
    x_52_33  a_52  1.0
    x_52_33  t_33  1.0
    x_52_34  OBJ  61.0
    x_52_34  a_52  1.0
    x_52_34  t_34  1.0
    x_52_35  OBJ  98.0
    x_52_35  a_52  1.0
    x_52_35  t_35  1.0
    x_52_36  OBJ  64.0
    x_52_36  a_52  1.0
    x_52_36  t_36  1.0
    x_52_37  OBJ  1.0
    x_52_37  a_52  1.0
    x_52_37  t_37  1.0
    x_52_38  OBJ  68.0
    x_52_38  a_52  1.0
    x_52_38  t_38  1.0
    x_52_39  OBJ  86.0
    x_52_39  a_52  1.0
    x_52_39  t_39  1.0
    x_52_40  OBJ  78.0
    x_52_40  a_52  1.0
    x_52_40  t_40  1.0
    x_52_41  OBJ  24.0
    x_52_41  a_52  1.0
    x_52_41  t_41  1.0
    x_52_42  OBJ  88.0
    x_52_42  a_52  1.0
    x_52_42  t_42  1.0
    x_52_43  OBJ  21.0
    x_52_43  a_52  1.0
    x_52_43  t_43  1.0
    x_52_44  OBJ  75.0
    x_52_44  a_52  1.0
    x_52_44  t_44  1.0
    x_52_45  OBJ  70.0
    x_52_45  a_52  1.0
    x_52_45  t_45  1.0
    x_52_46  OBJ  24.0
    x_52_46  a_52  1.0
    x_52_46  t_46  1.0
    x_52_47  OBJ  24.0
    x_52_47  a_52  1.0
    x_52_47  t_47  1.0
    x_52_48  OBJ  20.0
    x_52_48  a_52  1.0
    x_52_48  t_48  1.0
    x_52_49  OBJ  50.0
    x_52_49  a_52  1.0
    x_52_49  t_49  1.0
    x_52_50  OBJ  50.0
    x_52_50  a_52  1.0
    x_52_50  t_50  1.0
    x_52_51  OBJ  14.0
    x_52_51  a_52  1.0
    x_52_51  t_51  1.0
    x_52_52  OBJ  64.0
    x_52_52  a_52  1.0
    x_52_52  t_52  1.0
    x_52_53  OBJ  2.0
    x_52_53  a_52  1.0
    x_52_53  t_53  1.0
    x_52_54  OBJ  2.0
    x_52_54  a_52  1.0
    x_52_54  t_54  1.0
    x_52_55  OBJ  48.0
    x_52_55  a_52  1.0
    x_52_55  t_55  1.0
    x_52_56  OBJ  88.0
    x_52_56  a_52  1.0
    x_52_56  t_56  1.0
    x_52_57  OBJ  16.0
    x_52_57  a_52  1.0
    x_52_57  t_57  1.0
    x_52_58  OBJ  88.0
    x_52_58  a_52  1.0
    x_52_58  t_58  1.0
    x_52_59  OBJ  91.0
    x_52_59  a_52  1.0
    x_52_59  t_59  1.0
    x_53_0  OBJ  46.0
    x_53_0  a_53  1.0
    x_53_0  t_0  1.0
    x_53_1  OBJ  3.0
    x_53_1  a_53  1.0
    x_53_1  t_1  1.0
    x_53_2  OBJ  5.0
    x_53_2  a_53  1.0
    x_53_2  t_2  1.0
    x_53_3  OBJ  12.0
    x_53_3  a_53  1.0
    x_53_3  t_3  1.0
    x_53_4  OBJ  60.0
    x_53_4  a_53  1.0
    x_53_4  t_4  1.0
    x_53_5  OBJ  93.0
    x_53_5  a_53  1.0
    x_53_5  t_5  1.0
    x_53_6  OBJ  93.0
    x_53_6  a_53  1.0
    x_53_6  t_6  1.0
    x_53_7  OBJ  26.0
    x_53_7  a_53  1.0
    x_53_7  t_7  1.0
    x_53_8  OBJ  40.0
    x_53_8  a_53  1.0
    x_53_8  t_8  1.0
    x_53_9  OBJ  62.0
    x_53_9  a_53  1.0
    x_53_9  t_9  1.0
    x_53_10  OBJ  66.0
    x_53_10  a_53  1.0
    x_53_10  t_10  1.0
    x_53_11  OBJ  4.0
    x_53_11  a_53  1.0
    x_53_11  t_11  1.0
    x_53_12  OBJ  93.0
    x_53_12  a_53  1.0
    x_53_12  t_12  1.0
    x_53_13  OBJ  69.0
    x_53_13  a_53  1.0
    x_53_13  t_13  1.0
    x_53_14  OBJ  48.0
    x_53_14  a_53  1.0
    x_53_14  t_14  1.0
    x_53_15  OBJ  51.0
    x_53_15  a_53  1.0
    x_53_15  t_15  1.0
    x_53_16  OBJ  36.0
    x_53_16  a_53  1.0
    x_53_16  t_16  1.0
    x_53_17  OBJ  81.0
    x_53_17  a_53  1.0
    x_53_17  t_17  1.0
    x_53_18  OBJ  26.0
    x_53_18  a_53  1.0
    x_53_18  t_18  1.0
    x_53_19  OBJ  70.0
    x_53_19  a_53  1.0
    x_53_19  t_19  1.0
    x_53_20  OBJ  80.0
    x_53_20  a_53  1.0
    x_53_20  t_20  1.0
    x_53_21  OBJ  66.0
    x_53_21  a_53  1.0
    x_53_21  t_21  1.0
    x_53_22  OBJ  80.0
    x_53_22  a_53  1.0
    x_53_22  t_22  1.0
    x_53_23  OBJ  48.0
    x_53_23  a_53  1.0
    x_53_23  t_23  1.0
    x_53_24  OBJ  15.0
    x_53_24  a_53  1.0
    x_53_24  t_24  1.0
    x_53_25  OBJ  57.0
    x_53_25  a_53  1.0
    x_53_25  t_25  1.0
    x_53_26  OBJ  64.0
    x_53_26  a_53  1.0
    x_53_26  t_26  1.0
    x_53_27  OBJ  77.0
    x_53_27  a_53  1.0
    x_53_27  t_27  1.0
    x_53_28  OBJ  61.0
    x_53_28  a_53  1.0
    x_53_28  t_28  1.0
    x_53_29  OBJ  37.0
    x_53_29  a_53  1.0
    x_53_29  t_29  1.0
    x_53_30  OBJ  56.0
    x_53_30  a_53  1.0
    x_53_30  t_30  1.0
    x_53_31  OBJ  67.0
    x_53_31  a_53  1.0
    x_53_31  t_31  1.0
    x_53_32  OBJ  4.0
    x_53_32  a_53  1.0
    x_53_32  t_32  1.0
    x_53_33  OBJ  13.0
    x_53_33  a_53  1.0
    x_53_33  t_33  1.0
    x_53_34  OBJ  74.0
    x_53_34  a_53  1.0
    x_53_34  t_34  1.0
    x_53_35  OBJ  86.0
    x_53_35  a_53  1.0
    x_53_35  t_35  1.0
    x_53_36  OBJ  17.0
    x_53_36  a_53  1.0
    x_53_36  t_36  1.0
    x_53_37  OBJ  61.0
    x_53_37  a_53  1.0
    x_53_37  t_37  1.0
    x_53_38  OBJ  14.0
    x_53_38  a_53  1.0
    x_53_38  t_38  1.0
    x_53_39  OBJ  15.0
    x_53_39  a_53  1.0
    x_53_39  t_39  1.0
    x_53_40  OBJ  43.0
    x_53_40  a_53  1.0
    x_53_40  t_40  1.0
    x_53_41  OBJ  23.0
    x_53_41  a_53  1.0
    x_53_41  t_41  1.0
    x_53_42  OBJ  7.0
    x_53_42  a_53  1.0
    x_53_42  t_42  1.0
    x_53_43  OBJ  34.0
    x_53_43  a_53  1.0
    x_53_43  t_43  1.0
    x_53_44  OBJ  71.0
    x_53_44  a_53  1.0
    x_53_44  t_44  1.0
    x_53_45  OBJ  8.0
    x_53_45  a_53  1.0
    x_53_45  t_45  1.0
    x_53_46  OBJ  28.0
    x_53_46  a_53  1.0
    x_53_46  t_46  1.0
    x_53_47  OBJ  49.0
    x_53_47  a_53  1.0
    x_53_47  t_47  1.0
    x_53_48  OBJ  84.0
    x_53_48  a_53  1.0
    x_53_48  t_48  1.0
    x_53_49  OBJ  52.0
    x_53_49  a_53  1.0
    x_53_49  t_49  1.0
    x_53_50  OBJ  10.0
    x_53_50  a_53  1.0
    x_53_50  t_50  1.0
    x_53_51  OBJ  55.0
    x_53_51  a_53  1.0
    x_53_51  t_51  1.0
    x_53_52  OBJ  72.0
    x_53_52  a_53  1.0
    x_53_52  t_52  1.0
    x_53_53  OBJ  41.0
    x_53_53  a_53  1.0
    x_53_53  t_53  1.0
    x_53_54  OBJ  70.0
    x_53_54  a_53  1.0
    x_53_54  t_54  1.0
    x_53_55  OBJ  20.0
    x_53_55  a_53  1.0
    x_53_55  t_55  1.0
    x_53_56  OBJ  45.0
    x_53_56  a_53  1.0
    x_53_56  t_56  1.0
    x_53_57  OBJ  74.0
    x_53_57  a_53  1.0
    x_53_57  t_57  1.0
    x_53_58  OBJ  73.0
    x_53_58  a_53  1.0
    x_53_58  t_58  1.0
    x_53_59  OBJ  44.0
    x_53_59  a_53  1.0
    x_53_59  t_59  1.0
    x_54_0  OBJ  86.0
    x_54_0  a_54  1.0
    x_54_0  t_0  1.0
    x_54_1  OBJ  1.0
    x_54_1  a_54  1.0
    x_54_1  t_1  1.0
    x_54_2  OBJ  26.0
    x_54_2  a_54  1.0
    x_54_2  t_2  1.0
    x_54_3  OBJ  75.0
    x_54_3  a_54  1.0
    x_54_3  t_3  1.0
    x_54_4  OBJ  43.0
    x_54_4  a_54  1.0
    x_54_4  t_4  1.0
    x_54_5  OBJ  5.0
    x_54_5  a_54  1.0
    x_54_5  t_5  1.0
    x_54_6  OBJ  56.0
    x_54_6  a_54  1.0
    x_54_6  t_6  1.0
    x_54_7  OBJ  61.0
    x_54_7  a_54  1.0
    x_54_7  t_7  1.0
    x_54_8  OBJ  79.0
    x_54_8  a_54  1.0
    x_54_8  t_8  1.0
    x_54_9  OBJ  54.0
    x_54_9  a_54  1.0
    x_54_9  t_9  1.0
    x_54_10  OBJ  20.0
    x_54_10  a_54  1.0
    x_54_10  t_10  1.0
    x_54_11  OBJ  91.0
    x_54_11  a_54  1.0
    x_54_11  t_11  1.0
    x_54_12  OBJ  23.0
    x_54_12  a_54  1.0
    x_54_12  t_12  1.0
    x_54_13  OBJ  90.0
    x_54_13  a_54  1.0
    x_54_13  t_13  1.0
    x_54_14  OBJ  21.0
    x_54_14  a_54  1.0
    x_54_14  t_14  1.0
    x_54_15  OBJ  36.0
    x_54_15  a_54  1.0
    x_54_15  t_15  1.0
    x_54_16  OBJ  67.0
    x_54_16  a_54  1.0
    x_54_16  t_16  1.0
    x_54_17  OBJ  58.0
    x_54_17  a_54  1.0
    x_54_17  t_17  1.0
    x_54_18  OBJ  66.0
    x_54_18  a_54  1.0
    x_54_18  t_18  1.0
    x_54_19  OBJ  13.0
    x_54_19  a_54  1.0
    x_54_19  t_19  1.0
    x_54_20  OBJ  2.0
    x_54_20  a_54  1.0
    x_54_20  t_20  1.0
    x_54_21  OBJ  53.0
    x_54_21  a_54  1.0
    x_54_21  t_21  1.0
    x_54_22  OBJ  47.0
    x_54_22  a_54  1.0
    x_54_22  t_22  1.0
    x_54_23  OBJ  30.0
    x_54_23  a_54  1.0
    x_54_23  t_23  1.0
    x_54_24  OBJ  3.0
    x_54_24  a_54  1.0
    x_54_24  t_24  1.0
    x_54_25  OBJ  42.0
    x_54_25  a_54  1.0
    x_54_25  t_25  1.0
    x_54_26  OBJ  26.0
    x_54_26  a_54  1.0
    x_54_26  t_26  1.0
    x_54_27  OBJ  38.0
    x_54_27  a_54  1.0
    x_54_27  t_27  1.0
    x_54_28  OBJ  95.0
    x_54_28  a_54  1.0
    x_54_28  t_28  1.0
    x_54_29  OBJ  91.0
    x_54_29  a_54  1.0
    x_54_29  t_29  1.0
    x_54_30  OBJ  1.0
    x_54_30  a_54  1.0
    x_54_30  t_30  1.0
    x_54_31  OBJ  57.0
    x_54_31  a_54  1.0
    x_54_31  t_31  1.0
    x_54_32  OBJ  64.0
    x_54_32  a_54  1.0
    x_54_32  t_32  1.0
    x_54_33  OBJ  84.0
    x_54_33  a_54  1.0
    x_54_33  t_33  1.0
    x_54_34  OBJ  78.0
    x_54_34  a_54  1.0
    x_54_34  t_34  1.0
    x_54_35  OBJ  44.0
    x_54_35  a_54  1.0
    x_54_35  t_35  1.0
    x_54_36  OBJ  95.0
    x_54_36  a_54  1.0
    x_54_36  t_36  1.0
    x_54_37  OBJ  34.0
    x_54_37  a_54  1.0
    x_54_37  t_37  1.0
    x_54_38  OBJ  14.0
    x_54_38  a_54  1.0
    x_54_38  t_38  1.0
    x_54_39  OBJ  95.0
    x_54_39  a_54  1.0
    x_54_39  t_39  1.0
    x_54_40  OBJ  99.0
    x_54_40  a_54  1.0
    x_54_40  t_40  1.0
    x_54_41  OBJ  32.0
    x_54_41  a_54  1.0
    x_54_41  t_41  1.0
    x_54_42  OBJ  95.0
    x_54_42  a_54  1.0
    x_54_42  t_42  1.0
    x_54_43  OBJ  5.0
    x_54_43  a_54  1.0
    x_54_43  t_43  1.0
    x_54_44  OBJ  95.0
    x_54_44  a_54  1.0
    x_54_44  t_44  1.0
    x_54_45  OBJ  22.0
    x_54_45  a_54  1.0
    x_54_45  t_45  1.0
    x_54_46  OBJ  33.0
    x_54_46  a_54  1.0
    x_54_46  t_46  1.0
    x_54_47  OBJ  74.0
    x_54_47  a_54  1.0
    x_54_47  t_47  1.0
    x_54_48  OBJ  21.0
    x_54_48  a_54  1.0
    x_54_48  t_48  1.0
    x_54_49  OBJ  44.0
    x_54_49  a_54  1.0
    x_54_49  t_49  1.0
    x_54_50  OBJ  25.0
    x_54_50  a_54  1.0
    x_54_50  t_50  1.0
    x_54_51  OBJ  78.0
    x_54_51  a_54  1.0
    x_54_51  t_51  1.0
    x_54_52  OBJ  72.0
    x_54_52  a_54  1.0
    x_54_52  t_52  1.0
    x_54_53  OBJ  68.0
    x_54_53  a_54  1.0
    x_54_53  t_53  1.0
    x_54_54  OBJ  16.0
    x_54_54  a_54  1.0
    x_54_54  t_54  1.0
    x_54_55  OBJ  90.0
    x_54_55  a_54  1.0
    x_54_55  t_55  1.0
    x_54_56  OBJ  30.0
    x_54_56  a_54  1.0
    x_54_56  t_56  1.0
    x_54_57  OBJ  16.0
    x_54_57  a_54  1.0
    x_54_57  t_57  1.0
    x_54_58  OBJ  6.0
    x_54_58  a_54  1.0
    x_54_58  t_58  1.0
    x_54_59  OBJ  88.0
    x_54_59  a_54  1.0
    x_54_59  t_59  1.0
    x_55_0  OBJ  73.0
    x_55_0  a_55  1.0
    x_55_0  t_0  1.0
    x_55_1  OBJ  19.0
    x_55_1  a_55  1.0
    x_55_1  t_1  1.0
    x_55_2  OBJ  9.0
    x_55_2  a_55  1.0
    x_55_2  t_2  1.0
    x_55_3  OBJ  43.0
    x_55_3  a_55  1.0
    x_55_3  t_3  1.0
    x_55_4  OBJ  36.0
    x_55_4  a_55  1.0
    x_55_4  t_4  1.0
    x_55_5  OBJ  93.0
    x_55_5  a_55  1.0
    x_55_5  t_5  1.0
    x_55_6  OBJ  41.0
    x_55_6  a_55  1.0
    x_55_6  t_6  1.0
    x_55_7  OBJ  33.0
    x_55_7  a_55  1.0
    x_55_7  t_7  1.0
    x_55_8  OBJ  22.0
    x_55_8  a_55  1.0
    x_55_8  t_8  1.0
    x_55_9  OBJ  58.0
    x_55_9  a_55  1.0
    x_55_9  t_9  1.0
    x_55_10  OBJ  66.0
    x_55_10  a_55  1.0
    x_55_10  t_10  1.0
    x_55_11  OBJ  36.0
    x_55_11  a_55  1.0
    x_55_11  t_11  1.0
    x_55_12  OBJ  88.0
    x_55_12  a_55  1.0
    x_55_12  t_12  1.0
    x_55_13  OBJ  12.0
    x_55_13  a_55  1.0
    x_55_13  t_13  1.0
    x_55_14  OBJ  13.0
    x_55_14  a_55  1.0
    x_55_14  t_14  1.0
    x_55_15  OBJ  51.0
    x_55_15  a_55  1.0
    x_55_15  t_15  1.0
    x_55_16  OBJ  23.0
    x_55_16  a_55  1.0
    x_55_16  t_16  1.0
    x_55_17  OBJ  7.0
    x_55_17  a_55  1.0
    x_55_17  t_17  1.0
    x_55_18  OBJ  3.0
    x_55_18  a_55  1.0
    x_55_18  t_18  1.0
    x_55_19  OBJ  5.0
    x_55_19  a_55  1.0
    x_55_19  t_19  1.0
    x_55_20  OBJ  18.0
    x_55_20  a_55  1.0
    x_55_20  t_20  1.0
    x_55_21  OBJ  44.0
    x_55_21  a_55  1.0
    x_55_21  t_21  1.0
    x_55_22  OBJ  92.0
    x_55_22  a_55  1.0
    x_55_22  t_22  1.0
    x_55_23  OBJ  33.0
    x_55_23  a_55  1.0
    x_55_23  t_23  1.0
    x_55_24  OBJ  9.0
    x_55_24  a_55  1.0
    x_55_24  t_24  1.0
    x_55_25  OBJ  82.0
    x_55_25  a_55  1.0
    x_55_25  t_25  1.0
    x_55_26  OBJ  3.0
    x_55_26  a_55  1.0
    x_55_26  t_26  1.0
    x_55_27  OBJ  48.0
    x_55_27  a_55  1.0
    x_55_27  t_27  1.0
    x_55_28  OBJ  89.0
    x_55_28  a_55  1.0
    x_55_28  t_28  1.0
    x_55_29  OBJ  34.0
    x_55_29  a_55  1.0
    x_55_29  t_29  1.0
    x_55_30  OBJ  33.0
    x_55_30  a_55  1.0
    x_55_30  t_30  1.0
    x_55_31  OBJ  26.0
    x_55_31  a_55  1.0
    x_55_31  t_31  1.0
    x_55_32  OBJ  94.0
    x_55_32  a_55  1.0
    x_55_32  t_32  1.0
    x_55_33  OBJ  89.0
    x_55_33  a_55  1.0
    x_55_33  t_33  1.0
    x_55_34  OBJ  54.0
    x_55_34  a_55  1.0
    x_55_34  t_34  1.0
    x_55_35  OBJ  79.0
    x_55_35  a_55  1.0
    x_55_35  t_35  1.0
    x_55_36  OBJ  33.0
    x_55_36  a_55  1.0
    x_55_36  t_36  1.0
    x_55_37  OBJ  57.0
    x_55_37  a_55  1.0
    x_55_37  t_37  1.0
    x_55_38  OBJ  28.0
    x_55_38  a_55  1.0
    x_55_38  t_38  1.0
    x_55_39  OBJ  13.0
    x_55_39  a_55  1.0
    x_55_39  t_39  1.0
    x_55_40  OBJ  30.0
    x_55_40  a_55  1.0
    x_55_40  t_40  1.0
    x_55_41  OBJ  54.0
    x_55_41  a_55  1.0
    x_55_41  t_41  1.0
    x_55_42  OBJ  2.0
    x_55_42  a_55  1.0
    x_55_42  t_42  1.0
    x_55_43  OBJ  6.0
    x_55_43  a_55  1.0
    x_55_43  t_43  1.0
    x_55_44  OBJ  91.0
    x_55_44  a_55  1.0
    x_55_44  t_44  1.0
    x_55_45  OBJ  13.0
    x_55_45  a_55  1.0
    x_55_45  t_45  1.0
    x_55_46  OBJ  6.0
    x_55_46  a_55  1.0
    x_55_46  t_46  1.0
    x_55_47  OBJ  38.0
    x_55_47  a_55  1.0
    x_55_47  t_47  1.0
    x_55_48  OBJ  85.0
    x_55_48  a_55  1.0
    x_55_48  t_48  1.0
    x_55_49  OBJ  7.0
    x_55_49  a_55  1.0
    x_55_49  t_49  1.0
    x_55_50  OBJ  16.0
    x_55_50  a_55  1.0
    x_55_50  t_50  1.0
    x_55_51  OBJ  7.0
    x_55_51  a_55  1.0
    x_55_51  t_51  1.0
    x_55_52  OBJ  72.0
    x_55_52  a_55  1.0
    x_55_52  t_52  1.0
    x_55_53  OBJ  54.0
    x_55_53  a_55  1.0
    x_55_53  t_53  1.0
    x_55_54  OBJ  73.0
    x_55_54  a_55  1.0
    x_55_54  t_54  1.0
    x_55_55  OBJ  80.0
    x_55_55  a_55  1.0
    x_55_55  t_55  1.0
    x_55_56  OBJ  66.0
    x_55_56  a_55  1.0
    x_55_56  t_56  1.0
    x_55_57  OBJ  24.0
    x_55_57  a_55  1.0
    x_55_57  t_57  1.0
    x_55_58  OBJ  60.0
    x_55_58  a_55  1.0
    x_55_58  t_58  1.0
    x_55_59  OBJ  83.0
    x_55_59  a_55  1.0
    x_55_59  t_59  1.0
    x_56_0  OBJ  72.0
    x_56_0  a_56  1.0
    x_56_0  t_0  1.0
    x_56_1  OBJ  15.0
    x_56_1  a_56  1.0
    x_56_1  t_1  1.0
    x_56_2  OBJ  37.0
    x_56_2  a_56  1.0
    x_56_2  t_2  1.0
    x_56_3  OBJ  43.0
    x_56_3  a_56  1.0
    x_56_3  t_3  1.0
    x_56_4  OBJ  55.0
    x_56_4  a_56  1.0
    x_56_4  t_4  1.0
    x_56_5  OBJ  36.0
    x_56_5  a_56  1.0
    x_56_5  t_5  1.0
    x_56_6  OBJ  66.0
    x_56_6  a_56  1.0
    x_56_6  t_6  1.0
    x_56_7  OBJ  77.0
    x_56_7  a_56  1.0
    x_56_7  t_7  1.0
    x_56_8  OBJ  49.0
    x_56_8  a_56  1.0
    x_56_8  t_8  1.0
    x_56_9  OBJ  55.0
    x_56_9  a_56  1.0
    x_56_9  t_9  1.0
    x_56_10  OBJ  70.0
    x_56_10  a_56  1.0
    x_56_10  t_10  1.0
    x_56_11  OBJ  56.0
    x_56_11  a_56  1.0
    x_56_11  t_11  1.0
    x_56_12  OBJ  31.0
    x_56_12  a_56  1.0
    x_56_12  t_12  1.0
    x_56_13  OBJ  8.0
    x_56_13  a_56  1.0
    x_56_13  t_13  1.0
    x_56_14  OBJ  93.0
    x_56_14  a_56  1.0
    x_56_14  t_14  1.0
    x_56_15  OBJ  18.0
    x_56_15  a_56  1.0
    x_56_15  t_15  1.0
    x_56_16  OBJ  54.0
    x_56_16  a_56  1.0
    x_56_16  t_16  1.0
    x_56_17  OBJ  26.0
    x_56_17  a_56  1.0
    x_56_17  t_17  1.0
    x_56_18  OBJ  83.0
    x_56_18  a_56  1.0
    x_56_18  t_18  1.0
    x_56_19  OBJ  69.0
    x_56_19  a_56  1.0
    x_56_19  t_19  1.0
    x_56_20  OBJ  69.0
    x_56_20  a_56  1.0
    x_56_20  t_20  1.0
    x_56_21  OBJ  86.0
    x_56_21  a_56  1.0
    x_56_21  t_21  1.0
    x_56_22  OBJ  49.0
    x_56_22  a_56  1.0
    x_56_22  t_22  1.0
    x_56_23  OBJ  91.0
    x_56_23  a_56  1.0
    x_56_23  t_23  1.0
    x_56_24  OBJ  32.0
    x_56_24  a_56  1.0
    x_56_24  t_24  1.0
    x_56_25  OBJ  84.0
    x_56_25  a_56  1.0
    x_56_25  t_25  1.0
    x_56_26  OBJ  23.0
    x_56_26  a_56  1.0
    x_56_26  t_26  1.0
    x_56_27  OBJ  82.0
    x_56_27  a_56  1.0
    x_56_27  t_27  1.0
    x_56_28  OBJ  73.0
    x_56_28  a_56  1.0
    x_56_28  t_28  1.0
    x_56_29  OBJ  83.0
    x_56_29  a_56  1.0
    x_56_29  t_29  1.0
    x_56_30  OBJ  16.0
    x_56_30  a_56  1.0
    x_56_30  t_30  1.0
    x_56_31  OBJ  64.0
    x_56_31  a_56  1.0
    x_56_31  t_31  1.0
    x_56_32  OBJ  99.0
    x_56_32  a_56  1.0
    x_56_32  t_32  1.0
    x_56_33  OBJ  6.0
    x_56_33  a_56  1.0
    x_56_33  t_33  1.0
    x_56_34  OBJ  22.0
    x_56_34  a_56  1.0
    x_56_34  t_34  1.0
    x_56_35  OBJ  11.0
    x_56_35  a_56  1.0
    x_56_35  t_35  1.0
    x_56_36  OBJ  87.0
    x_56_36  a_56  1.0
    x_56_36  t_36  1.0
    x_56_37  OBJ  7.0
    x_56_37  a_56  1.0
    x_56_37  t_37  1.0
    x_56_38  OBJ  49.0
    x_56_38  a_56  1.0
    x_56_38  t_38  1.0
    x_56_39  OBJ  70.0
    x_56_39  a_56  1.0
    x_56_39  t_39  1.0
    x_56_40  OBJ  66.0
    x_56_40  a_56  1.0
    x_56_40  t_40  1.0
    x_56_41  OBJ  69.0
    x_56_41  a_56  1.0
    x_56_41  t_41  1.0
    x_56_42  OBJ  1.0
    x_56_42  a_56  1.0
    x_56_42  t_42  1.0
    x_56_43  OBJ  16.0
    x_56_43  a_56  1.0
    x_56_43  t_43  1.0
    x_56_44  OBJ  35.0
    x_56_44  a_56  1.0
    x_56_44  t_44  1.0
    x_56_45  OBJ  27.0
    x_56_45  a_56  1.0
    x_56_45  t_45  1.0
    x_56_46  OBJ  57.0
    x_56_46  a_56  1.0
    x_56_46  t_46  1.0
    x_56_47  OBJ  14.0
    x_56_47  a_56  1.0
    x_56_47  t_47  1.0
    x_56_48  OBJ  43.0
    x_56_48  a_56  1.0
    x_56_48  t_48  1.0
    x_56_49  OBJ  84.0
    x_56_49  a_56  1.0
    x_56_49  t_49  1.0
    x_56_50  OBJ  53.0
    x_56_50  a_56  1.0
    x_56_50  t_50  1.0
    x_56_51  OBJ  77.0
    x_56_51  a_56  1.0
    x_56_51  t_51  1.0
    x_56_52  OBJ  86.0
    x_56_52  a_56  1.0
    x_56_52  t_52  1.0
    x_56_53  OBJ  69.0
    x_56_53  a_56  1.0
    x_56_53  t_53  1.0
    x_56_54  OBJ  96.0
    x_56_54  a_56  1.0
    x_56_54  t_54  1.0
    x_56_55  OBJ  60.0
    x_56_55  a_56  1.0
    x_56_55  t_55  1.0
    x_56_56  OBJ  78.0
    x_56_56  a_56  1.0
    x_56_56  t_56  1.0
    x_56_57  OBJ  49.0
    x_56_57  a_56  1.0
    x_56_57  t_57  1.0
    x_56_58  OBJ  35.0
    x_56_58  a_56  1.0
    x_56_58  t_58  1.0
    x_56_59  OBJ  44.0
    x_56_59  a_56  1.0
    x_56_59  t_59  1.0
    x_57_0  OBJ  7.0
    x_57_0  a_57  1.0
    x_57_0  t_0  1.0
    x_57_1  OBJ  14.0
    x_57_1  a_57  1.0
    x_57_1  t_1  1.0
    x_57_2  OBJ  8.0
    x_57_2  a_57  1.0
    x_57_2  t_2  1.0
    x_57_3  OBJ  50.0
    x_57_3  a_57  1.0
    x_57_3  t_3  1.0
    x_57_4  OBJ  17.0
    x_57_4  a_57  1.0
    x_57_4  t_4  1.0
    x_57_5  OBJ  57.0
    x_57_5  a_57  1.0
    x_57_5  t_5  1.0
    x_57_6  OBJ  81.0
    x_57_6  a_57  1.0
    x_57_6  t_6  1.0
    x_57_7  OBJ  64.0
    x_57_7  a_57  1.0
    x_57_7  t_7  1.0
    x_57_8  OBJ  3.0
    x_57_8  a_57  1.0
    x_57_8  t_8  1.0
    x_57_9  OBJ  9.0
    x_57_9  a_57  1.0
    x_57_9  t_9  1.0
    x_57_10  OBJ  36.0
    x_57_10  a_57  1.0
    x_57_10  t_10  1.0
    x_57_11  OBJ  91.0
    x_57_11  a_57  1.0
    x_57_11  t_11  1.0
    x_57_12  OBJ  76.0
    x_57_12  a_57  1.0
    x_57_12  t_12  1.0
    x_57_13  OBJ  69.0
    x_57_13  a_57  1.0
    x_57_13  t_13  1.0
    x_57_14  OBJ  26.0
    x_57_14  a_57  1.0
    x_57_14  t_14  1.0
    x_57_15  OBJ  66.0
    x_57_15  a_57  1.0
    x_57_15  t_15  1.0
    x_57_16  OBJ  49.0
    x_57_16  a_57  1.0
    x_57_16  t_16  1.0
    x_57_17  OBJ  25.0
    x_57_17  a_57  1.0
    x_57_17  t_17  1.0
    x_57_18  OBJ  67.0
    x_57_18  a_57  1.0
    x_57_18  t_18  1.0
    x_57_19  OBJ  50.0
    x_57_19  a_57  1.0
    x_57_19  t_19  1.0
    x_57_20  OBJ  99.0
    x_57_20  a_57  1.0
    x_57_20  t_20  1.0
    x_57_21  OBJ  62.0
    x_57_21  a_57  1.0
    x_57_21  t_21  1.0
    x_57_22  OBJ  74.0
    x_57_22  a_57  1.0
    x_57_22  t_22  1.0
    x_57_23  OBJ  20.0
    x_57_23  a_57  1.0
    x_57_23  t_23  1.0
    x_57_24  OBJ  32.0
    x_57_24  a_57  1.0
    x_57_24  t_24  1.0
    x_57_25  OBJ  66.0
    x_57_25  a_57  1.0
    x_57_25  t_25  1.0
    x_57_26  OBJ  95.0
    x_57_26  a_57  1.0
    x_57_26  t_26  1.0
    x_57_27  OBJ  59.0
    x_57_27  a_57  1.0
    x_57_27  t_27  1.0
    x_57_28  OBJ  18.0
    x_57_28  a_57  1.0
    x_57_28  t_28  1.0
    x_57_29  OBJ  77.0
    x_57_29  a_57  1.0
    x_57_29  t_29  1.0
    x_57_30  OBJ  51.0
    x_57_30  a_57  1.0
    x_57_30  t_30  1.0
    x_57_31  OBJ  54.0
    x_57_31  a_57  1.0
    x_57_31  t_31  1.0
    x_57_32  OBJ  37.0
    x_57_32  a_57  1.0
    x_57_32  t_32  1.0
    x_57_33  OBJ  68.0
    x_57_33  a_57  1.0
    x_57_33  t_33  1.0
    x_57_34  OBJ  66.0
    x_57_34  a_57  1.0
    x_57_34  t_34  1.0
    x_57_35  OBJ  94.0
    x_57_35  a_57  1.0
    x_57_35  t_35  1.0
    x_57_36  OBJ  19.0
    x_57_36  a_57  1.0
    x_57_36  t_36  1.0
    x_57_37  OBJ  65.0
    x_57_37  a_57  1.0
    x_57_37  t_37  1.0
    x_57_38  OBJ  70.0
    x_57_38  a_57  1.0
    x_57_38  t_38  1.0
    x_57_39  OBJ  1.0
    x_57_39  a_57  1.0
    x_57_39  t_39  1.0
    x_57_40  OBJ  56.0
    x_57_40  a_57  1.0
    x_57_40  t_40  1.0
    x_57_41  OBJ  7.0
    x_57_41  a_57  1.0
    x_57_41  t_41  1.0
    x_57_42  OBJ  81.0
    x_57_42  a_57  1.0
    x_57_42  t_42  1.0
    x_57_43  OBJ  39.0
    x_57_43  a_57  1.0
    x_57_43  t_43  1.0
    x_57_44  OBJ  29.0
    x_57_44  a_57  1.0
    x_57_44  t_44  1.0
    x_57_45  OBJ  44.0
    x_57_45  a_57  1.0
    x_57_45  t_45  1.0
    x_57_46  OBJ  89.0
    x_57_46  a_57  1.0
    x_57_46  t_46  1.0
    x_57_47  OBJ  61.0
    x_57_47  a_57  1.0
    x_57_47  t_47  1.0
    x_57_48  OBJ  39.0
    x_57_48  a_57  1.0
    x_57_48  t_48  1.0
    x_57_49  OBJ  42.0
    x_57_49  a_57  1.0
    x_57_49  t_49  1.0
    x_57_50  OBJ  16.0
    x_57_50  a_57  1.0
    x_57_50  t_50  1.0
    x_57_51  OBJ  42.0
    x_57_51  a_57  1.0
    x_57_51  t_51  1.0
    x_57_52  OBJ  89.0
    x_57_52  a_57  1.0
    x_57_52  t_52  1.0
    x_57_53  OBJ  7.0
    x_57_53  a_57  1.0
    x_57_53  t_53  1.0
    x_57_54  OBJ  61.0
    x_57_54  a_57  1.0
    x_57_54  t_54  1.0
    x_57_55  OBJ  82.0
    x_57_55  a_57  1.0
    x_57_55  t_55  1.0
    x_57_56  OBJ  50.0
    x_57_56  a_57  1.0
    x_57_56  t_56  1.0
    x_57_57  OBJ  50.0
    x_57_57  a_57  1.0
    x_57_57  t_57  1.0
    x_57_58  OBJ  88.0
    x_57_58  a_57  1.0
    x_57_58  t_58  1.0
    x_57_59  OBJ  93.0
    x_57_59  a_57  1.0
    x_57_59  t_59  1.0
    x_58_0  OBJ  37.0
    x_58_0  a_58  1.0
    x_58_0  t_0  1.0
    x_58_1  OBJ  90.0
    x_58_1  a_58  1.0
    x_58_1  t_1  1.0
    x_58_2  OBJ  93.0
    x_58_2  a_58  1.0
    x_58_2  t_2  1.0
    x_58_3  OBJ  96.0
    x_58_3  a_58  1.0
    x_58_3  t_3  1.0
    x_58_4  OBJ  42.0
    x_58_4  a_58  1.0
    x_58_4  t_4  1.0
    x_58_5  OBJ  65.0
    x_58_5  a_58  1.0
    x_58_5  t_5  1.0
    x_58_6  OBJ  60.0
    x_58_6  a_58  1.0
    x_58_6  t_6  1.0
    x_58_7  OBJ  6.0
    x_58_7  a_58  1.0
    x_58_7  t_7  1.0
    x_58_8  OBJ  17.0
    x_58_8  a_58  1.0
    x_58_8  t_8  1.0
    x_58_9  OBJ  41.0
    x_58_9  a_58  1.0
    x_58_9  t_9  1.0
    x_58_10  OBJ  31.0
    x_58_10  a_58  1.0
    x_58_10  t_10  1.0
    x_58_11  OBJ  50.0
    x_58_11  a_58  1.0
    x_58_11  t_11  1.0
    x_58_12  OBJ  28.0
    x_58_12  a_58  1.0
    x_58_12  t_12  1.0
    x_58_13  OBJ  24.0
    x_58_13  a_58  1.0
    x_58_13  t_13  1.0
    x_58_14  OBJ  30.0
    x_58_14  a_58  1.0
    x_58_14  t_14  1.0
    x_58_15  OBJ  4.0
    x_58_15  a_58  1.0
    x_58_15  t_15  1.0
    x_58_16  OBJ  45.0
    x_58_16  a_58  1.0
    x_58_16  t_16  1.0
    x_58_17  OBJ  73.0
    x_58_17  a_58  1.0
    x_58_17  t_17  1.0
    x_58_18  OBJ  14.0
    x_58_18  a_58  1.0
    x_58_18  t_18  1.0
    x_58_19  OBJ  77.0
    x_58_19  a_58  1.0
    x_58_19  t_19  1.0
    x_58_20  OBJ  58.0
    x_58_20  a_58  1.0
    x_58_20  t_20  1.0
    x_58_21  OBJ  18.0
    x_58_21  a_58  1.0
    x_58_21  t_21  1.0
    x_58_22  OBJ  36.0
    x_58_22  a_58  1.0
    x_58_22  t_22  1.0
    x_58_23  OBJ  2.0
    x_58_23  a_58  1.0
    x_58_23  t_23  1.0
    x_58_24  OBJ  81.0
    x_58_24  a_58  1.0
    x_58_24  t_24  1.0
    x_58_25  OBJ  72.0
    x_58_25  a_58  1.0
    x_58_25  t_25  1.0
    x_58_26  OBJ  97.0
    x_58_26  a_58  1.0
    x_58_26  t_26  1.0
    x_58_27  OBJ  67.0
    x_58_27  a_58  1.0
    x_58_27  t_27  1.0
    x_58_28  OBJ  14.0
    x_58_28  a_58  1.0
    x_58_28  t_28  1.0
    x_58_29  OBJ  14.0
    x_58_29  a_58  1.0
    x_58_29  t_29  1.0
    x_58_30  OBJ  87.0
    x_58_30  a_58  1.0
    x_58_30  t_30  1.0
    x_58_31  OBJ  18.0
    x_58_31  a_58  1.0
    x_58_31  t_31  1.0
    x_58_32  OBJ  80.0
    x_58_32  a_58  1.0
    x_58_32  t_32  1.0
    x_58_33  OBJ  23.0
    x_58_33  a_58  1.0
    x_58_33  t_33  1.0
    x_58_34  OBJ  18.0
    x_58_34  a_58  1.0
    x_58_34  t_34  1.0
    x_58_35  OBJ  65.0
    x_58_35  a_58  1.0
    x_58_35  t_35  1.0
    x_58_36  OBJ  24.0
    x_58_36  a_58  1.0
    x_58_36  t_36  1.0
    x_58_37  OBJ  86.0
    x_58_37  a_58  1.0
    x_58_37  t_37  1.0
    x_58_38  OBJ  91.0
    x_58_38  a_58  1.0
    x_58_38  t_38  1.0
    x_58_39  OBJ  82.0
    x_58_39  a_58  1.0
    x_58_39  t_39  1.0
    x_58_40  OBJ  70.0
    x_58_40  a_58  1.0
    x_58_40  t_40  1.0
    x_58_41  OBJ  18.0
    x_58_41  a_58  1.0
    x_58_41  t_41  1.0
    x_58_42  OBJ  74.0
    x_58_42  a_58  1.0
    x_58_42  t_42  1.0
    x_58_43  OBJ  33.0
    x_58_43  a_58  1.0
    x_58_43  t_43  1.0
    x_58_44  OBJ  13.0
    x_58_44  a_58  1.0
    x_58_44  t_44  1.0
    x_58_45  OBJ  53.0
    x_58_45  a_58  1.0
    x_58_45  t_45  1.0
    x_58_46  OBJ  71.0
    x_58_46  a_58  1.0
    x_58_46  t_46  1.0
    x_58_47  OBJ  62.0
    x_58_47  a_58  1.0
    x_58_47  t_47  1.0
    x_58_48  OBJ  51.0
    x_58_48  a_58  1.0
    x_58_48  t_48  1.0
    x_58_49  OBJ  24.0
    x_58_49  a_58  1.0
    x_58_49  t_49  1.0
    x_58_50  OBJ  64.0
    x_58_50  a_58  1.0
    x_58_50  t_50  1.0
    x_58_51  OBJ  35.0
    x_58_51  a_58  1.0
    x_58_51  t_51  1.0
    x_58_52  OBJ  16.0
    x_58_52  a_58  1.0
    x_58_52  t_52  1.0
    x_58_53  OBJ  60.0
    x_58_53  a_58  1.0
    x_58_53  t_53  1.0
    x_58_54  OBJ  58.0
    x_58_54  a_58  1.0
    x_58_54  t_54  1.0
    x_58_55  OBJ  64.0
    x_58_55  a_58  1.0
    x_58_55  t_55  1.0
    x_58_56  OBJ  62.0
    x_58_56  a_58  1.0
    x_58_56  t_56  1.0
    x_58_57  OBJ  74.0
    x_58_57  a_58  1.0
    x_58_57  t_57  1.0
    x_58_58  OBJ  56.0
    x_58_58  a_58  1.0
    x_58_58  t_58  1.0
    x_58_59  OBJ  54.0
    x_58_59  a_58  1.0
    x_58_59  t_59  1.0
    x_59_0  OBJ  12.0
    x_59_0  a_59  1.0
    x_59_0  t_0  1.0
    x_59_1  OBJ  3.0
    x_59_1  a_59  1.0
    x_59_1  t_1  1.0
    x_59_2  OBJ  27.0
    x_59_2  a_59  1.0
    x_59_2  t_2  1.0
    x_59_3  OBJ  23.0
    x_59_3  a_59  1.0
    x_59_3  t_3  1.0
    x_59_4  OBJ  24.0
    x_59_4  a_59  1.0
    x_59_4  t_4  1.0
    x_59_5  OBJ  55.0
    x_59_5  a_59  1.0
    x_59_5  t_5  1.0
    x_59_6  OBJ  24.0
    x_59_6  a_59  1.0
    x_59_6  t_6  1.0
    x_59_7  OBJ  30.0
    x_59_7  a_59  1.0
    x_59_7  t_7  1.0
    x_59_8  OBJ  18.0
    x_59_8  a_59  1.0
    x_59_8  t_8  1.0
    x_59_9  OBJ  98.0
    x_59_9  a_59  1.0
    x_59_9  t_9  1.0
    x_59_10  OBJ  40.0
    x_59_10  a_59  1.0
    x_59_10  t_10  1.0
    x_59_11  OBJ  25.0
    x_59_11  a_59  1.0
    x_59_11  t_11  1.0
    x_59_12  OBJ  91.0
    x_59_12  a_59  1.0
    x_59_12  t_12  1.0
    x_59_13  OBJ  86.0
    x_59_13  a_59  1.0
    x_59_13  t_13  1.0
    x_59_14  OBJ  53.0
    x_59_14  a_59  1.0
    x_59_14  t_14  1.0
    x_59_15  OBJ  21.0
    x_59_15  a_59  1.0
    x_59_15  t_15  1.0
    x_59_16  OBJ  13.0
    x_59_16  a_59  1.0
    x_59_16  t_16  1.0
    x_59_17  OBJ  77.0
    x_59_17  a_59  1.0
    x_59_17  t_17  1.0
    x_59_18  OBJ  24.0
    x_59_18  a_59  1.0
    x_59_18  t_18  1.0
    x_59_19  OBJ  70.0
    x_59_19  a_59  1.0
    x_59_19  t_19  1.0
    x_59_20  OBJ  31.0
    x_59_20  a_59  1.0
    x_59_20  t_20  1.0
    x_59_21  OBJ  99.0
    x_59_21  a_59  1.0
    x_59_21  t_21  1.0
    x_59_22  OBJ  14.0
    x_59_22  a_59  1.0
    x_59_22  t_22  1.0
    x_59_23  OBJ  67.0
    x_59_23  a_59  1.0
    x_59_23  t_23  1.0
    x_59_24  OBJ  77.0
    x_59_24  a_59  1.0
    x_59_24  t_24  1.0
    x_59_25  OBJ  92.0
    x_59_25  a_59  1.0
    x_59_25  t_25  1.0
    x_59_26  OBJ  84.0
    x_59_26  a_59  1.0
    x_59_26  t_26  1.0
    x_59_27  OBJ  87.0
    x_59_27  a_59  1.0
    x_59_27  t_27  1.0
    x_59_28  OBJ  46.0
    x_59_28  a_59  1.0
    x_59_28  t_28  1.0
    x_59_29  OBJ  36.0
    x_59_29  a_59  1.0
    x_59_29  t_29  1.0
    x_59_30  OBJ  76.0
    x_59_30  a_59  1.0
    x_59_30  t_30  1.0
    x_59_31  OBJ  55.0
    x_59_31  a_59  1.0
    x_59_31  t_31  1.0
    x_59_32  OBJ  89.0
    x_59_32  a_59  1.0
    x_59_32  t_32  1.0
    x_59_33  OBJ  11.0
    x_59_33  a_59  1.0
    x_59_33  t_33  1.0
    x_59_34  OBJ  94.0
    x_59_34  a_59  1.0
    x_59_34  t_34  1.0
    x_59_35  OBJ  21.0
    x_59_35  a_59  1.0
    x_59_35  t_35  1.0
    x_59_36  OBJ  29.0
    x_59_36  a_59  1.0
    x_59_36  t_36  1.0
    x_59_37  OBJ  88.0
    x_59_37  a_59  1.0
    x_59_37  t_37  1.0
    x_59_38  OBJ  57.0
    x_59_38  a_59  1.0
    x_59_38  t_38  1.0
    x_59_39  OBJ  21.0
    x_59_39  a_59  1.0
    x_59_39  t_39  1.0
    x_59_40  OBJ  59.0
    x_59_40  a_59  1.0
    x_59_40  t_40  1.0
    x_59_41  OBJ  33.0
    x_59_41  a_59  1.0
    x_59_41  t_41  1.0
    x_59_42  OBJ  58.0
    x_59_42  a_59  1.0
    x_59_42  t_42  1.0
    x_59_43  OBJ  19.0
    x_59_43  a_59  1.0
    x_59_43  t_43  1.0
    x_59_44  OBJ  39.0
    x_59_44  a_59  1.0
    x_59_44  t_44  1.0
    x_59_45  OBJ  81.0
    x_59_45  a_59  1.0
    x_59_45  t_45  1.0
    x_59_46  OBJ  10.0
    x_59_46  a_59  1.0
    x_59_46  t_46  1.0
    x_59_47  OBJ  16.0
    x_59_47  a_59  1.0
    x_59_47  t_47  1.0
    x_59_48  OBJ  74.0
    x_59_48  a_59  1.0
    x_59_48  t_48  1.0
    x_59_49  OBJ  60.0
    x_59_49  a_59  1.0
    x_59_49  t_49  1.0
    x_59_50  OBJ  86.0
    x_59_50  a_59  1.0
    x_59_50  t_50  1.0
    x_59_51  OBJ  17.0
    x_59_51  a_59  1.0
    x_59_51  t_51  1.0
    x_59_52  OBJ  3.0
    x_59_52  a_59  1.0
    x_59_52  t_52  1.0
    x_59_53  OBJ  84.0
    x_59_53  a_59  1.0
    x_59_53  t_53  1.0
    x_59_54  OBJ  9.0
    x_59_54  a_59  1.0
    x_59_54  t_54  1.0
    x_59_55  OBJ  15.0
    x_59_55  a_59  1.0
    x_59_55  t_55  1.0
    x_59_56  OBJ  34.0
    x_59_56  a_59  1.0
    x_59_56  t_56  1.0
    x_59_57  OBJ  61.0
    x_59_57  a_59  1.0
    x_59_57  t_57  1.0
    x_59_58  OBJ  93.0
    x_59_58  a_59  1.0
    x_59_58  t_58  1.0
    x_59_59  OBJ  95.0
    x_59_59  a_59  1.0
    x_59_59  t_59  1.0
RHS
    RHS  a_0  1.0
    RHS  a_1  1.0
    RHS  a_2  1.0
    RHS  a_3  1.0
    RHS  a_4  1.0
    RHS  a_5  1.0
    RHS  a_6  1.0
    RHS  a_7  1.0
    RHS  a_8  1.0
    RHS  a_9  1.0
    RHS  a_10  1.0
    RHS  a_11  1.0
    RHS  a_12  1.0
    RHS  a_13  1.0
    RHS  a_14  1.0
    RHS  a_15  1.0
    RHS  a_16  1.0
    RHS  a_17  1.0
    RHS  a_18  1.0
    RHS  a_19  1.0
    RHS  a_20  1.0
    RHS  a_21  1.0
    RHS  a_22  1.0
    RHS  a_23  1.0
    RHS  a_24  1.0
    RHS  a_25  1.0
    RHS  a_26  1.0
    RHS  a_27  1.0
    RHS  a_28  1.0
    RHS  a_29  1.0
    RHS  a_30  1.0
    RHS  a_31  1.0
    RHS  a_32  1.0
    RHS  a_33  1.0
    RHS  a_34  1.0
    RHS  a_35  1.0
    RHS  a_36  1.0
    RHS  a_37  1.0
    RHS  a_38  1.0
    RHS  a_39  1.0
    RHS  a_40  1.0
    RHS  a_41  1.0
    RHS  a_42  1.0
    RHS  a_43  1.0
    RHS  a_44  1.0
    RHS  a_45  1.0
    RHS  a_46  1.0
    RHS  a_47  1.0
    RHS  a_48  1.0
    RHS  a_49  1.0
    RHS  a_50  1.0
    RHS  a_51  1.0
    RHS  a_52  1.0
    RHS  a_53  1.0
    RHS  a_54  1.0
    RHS  a_55  1.0
    RHS  a_56  1.0
    RHS  a_57  1.0
    RHS  a_58  1.0
    RHS  a_59  1.0
    RHS  t_0  1.0
    RHS  t_1  1.0
    RHS  t_2  1.0
    RHS  t_3  1.0
    RHS  t_4  1.0
    RHS  t_5  1.0
    RHS  t_6  1.0
    RHS  t_7  1.0
    RHS  t_8  1.0
    RHS  t_9  1.0
    RHS  t_10  1.0
    RHS  t_11  1.0
    RHS  t_12  1.0
    RHS  t_13  1.0
    RHS  t_14  1.0
    RHS  t_15  1.0
    RHS  t_16  1.0
    RHS  t_17  1.0
    RHS  t_18  1.0
    RHS  t_19  1.0
    RHS  t_20  1.0
    RHS  t_21  1.0
    RHS  t_22  1.0
    RHS  t_23  1.0
    RHS  t_24  1.0
    RHS  t_25  1.0
    RHS  t_26  1.0
    RHS  t_27  1.0
    RHS  t_28  1.0
    RHS  t_29  1.0
    RHS  t_30  1.0
    RHS  t_31  1.0
    RHS  t_32  1.0
    RHS  t_33  1.0
    RHS  t_34  1.0
    RHS  t_35  1.0
    RHS  t_36  1.0
    RHS  t_37  1.0
    RHS  t_38  1.0
    RHS  t_39  1.0
    RHS  t_40  1.0
    RHS  t_41  1.0
    RHS  t_42  1.0
    RHS  t_43  1.0
    RHS  t_44  1.0
    RHS  t_45  1.0
    RHS  t_46  1.0
    RHS  t_47  1.0
    RHS  t_48  1.0
    RHS  t_49  1.0
    RHS  t_50  1.0
    RHS  t_51  1.0
    RHS  t_52  1.0
    RHS  t_53  1.0
    RHS  t_54  1.0
    RHS  t_55  1.0
    RHS  t_56  1.0
    RHS  t_57  1.0
    RHS  t_58  1.0
    RHS  t_59  1.0
RANGES
BOUNDS
ENDATA
