NAME degen_400x800
ROWS
 N  OBJ
 G  r0
 G  r1
 G  r2
 G  r3
 G  r4
 G  r5
 G  r6
 G  r7
 G  r8
 G  r9
 G  r10
 G  r11
 G  r12
 G  r13
 G  r14
 G  r15
 G  r16
 G  r17
 G  r18
 G  r19
 G  r20
 G  r21
 G  r22
 G  r23
 G  r24
 G  r25
 G  r26
 G  r27
 G  r28
 G  r29
 G  r30
 G  r31
 G  r32
 G  r33
 G  r34
 G  r35
 G  r36
 G  r37
 G  r38
 G  r39
 G  r40
 G  r41
 G  r42
 G  r43
 G  r44
 G  r45
 G  r46
 G  r47
 G  r48
 G  r49
 G  r50
 G  r51
 G  r52
 G  r53
 G  r54
 G  r55
 G  r56
 G  r57
 G  r58
 G  r59
 G  r60
 G  r61
 G  r62
 G  r63
 G  r64
 G  r65
 G  r66
 G  r67
 G  r68
 G  r69
 G  r70
 G  r71
 G  r72
 G  r73
 G  r74
 G  r75
 G  r76
 G  r77
 G  r78
 G  r79
 G  r80
 G  r81
 G  r82
 G  r83
 G  r84
 G  r85
 G  r86
 G  r87
 G  r88
 G  r89
 G  r90
 G  r91
 G  r92
 G  r93
 G  r94
 G  r95
 G  r96
 G  r97
 G  r98
 G  r99
 G  r100
 G  r101
 G  r102
 G  r103
 G  r104
 G  r105
 G  r106
 G  r107
 G  r108
 G  r109
 G  r110
 G  r111
 G  r112
 G  r113
 G  r114
 G  r115
 G  r116
 G  r117
 G  r118
 G  r119
 G  r120
 G  r121
 G  r122
 G  r123
 G  r124
 G  r125
 G  r126
 G  r127
 G  r128
 G  r129
 G  r130
 G  r131
 G  r132
 G  r133
 G  r134
 G  r135
 G  r136
 G  r137
 G  r138
 G  r139
 G  r140
 G  r141
 G  r142
 G  r143
 G  r144
 G  r145
 G  r146
 G  r147
 G  r148
 G  r149
 G  r150
 G  r151
 G  r152
 G  r153
 G  r154
 G  r155
 G  r156
 G  r157
 G  r158
 G  r159
 G  r160
 G  r161
 G  r162
 G  r163
 G  r164
 G  r165
 G  r166
 G  r167
 G  r168
 G  r169
 G  r170
 G  r171
 G  r172
 G  r173
 G  r174
 G  r175
 G  r176
 G  r177
 G  r178
 G  r179
 G  r180
 G  r181
 G  r182
 G  r183
 G  r184
 G  r185
 G  r186
 G  r187
 G  r188
 G  r189
 G  r190
 G  r191
 G  r192
 G  r193
 G  r194
 G  r195
 G  r196
 G  r197
 G  r198
 G  r199
 G  r200
 G  r201
 G  r202
 G  r203
 G  r204
 G  r205
 G  r206
 G  r207
 G  r208
 G  r209
 G  r210
 G  r211
 G  r212
 G  r213
 G  r214
 G  r215
 G  r216
 G  r217
 G  r218
 G  r219
 G  r220
 G  r221
 G  r222
 G  r223
 G  r224
 G  r225
 G  r226
 G  r227
 G  r228
 G  r229
 G  r230
 G  r231
 G  r232
 G  r233
 G  r234
 G  r235
 G  r236
 G  r237
 G  r238
 G  r239
 G  r240
 G  r241
 G  r242
 G  r243
 G  r244
 G  r245
 G  r246
 G  r247
 G  r248
 G  r249
 G  r250
 G  r251
 G  r252
 G  r253
 G  r254
 G  r255
 G  r256
 G  r257
 G  r258
 G  r259
 G  r260
 G  r261
 G  r262
 G  r263
 G  r264
 G  r265
 G  r266
 G  r267
 G  r268
 G  r269
 G  r270
 G  r271
 G  r272
 G  r273
 G  r274
 G  r275
 G  r276
 G  r277
 G  r278
 G  r279
 G  r280
 G  r281
 G  r282
 G  r283
 G  r284
 G  r285
 G  r286
 G  r287
 G  r288
 G  r289
 G  r290
 G  r291
 G  r292
 G  r293
 G  r294
 G  r295
 G  r296
 G  r297
 G  r298
 G  r299
 G  r300
 G  r301
 G  r302
 G  r303
 G  r304
 G  r305
 G  r306
 G  r307
 G  r308
 G  r309
 G  r310
 G  r311
 G  r312
 G  r313
 G  r314
 G  r315
 G  r316
 G  r317
 G  r318
 G  r319
 G  r320
 G  r321
 G  r322
 G  r323
 G  r324
 G  r325
 G  r326
 G  r327
 G  r328
 G  r329
 G  r330
 G  r331
 G  r332
 G  r333
 G  r334
 G  r335
 G  r336
 G  r337
 G  r338
 G  r339
 G  r340
 G  r341
 G  r342
 G  r343
 G  r344
 G  r345
 G  r346
 G  r347
 G  r348
 G  r349
 G  r350
 G  r351
 G  r352
 G  r353
 G  r354
 G  r355
 G  r356
 G  r357
 G  r358
 G  r359
 G  r360
 G  r361
 G  r362
 G  r363
 G  r364
 G  r365
 G  r366
 G  r367
 G  r368
 G  r369
 G  r370
 G  r371
 G  r372
 G  r373
 G  r374
 G  r375
 G  r376
 G  r377
 G  r378
 G  r379
 G  r380
 G  r381
 G  r382
 G  r383
 G  r384
 G  r385
 G  r386
 G  r387
 G  r388
 G  r389
 G  r390
 G  r391
 G  r392
 G  r393
 G  r394
 G  r395
 G  r396
 G  r397
 G  r398
 G  r399
COLUMNS
    x0  OBJ  1.0
    x0  r182  2.0
    x0  r358  5.0
    x1  OBJ  2.0
    x1  r23  4.0
    x1  r26  3.0
    x1  r103  -5.0
    x1  r286  -4.0
    x1  r288  1.0
    x1  r382  5.0
    x2  OBJ  3.0
    x2  r345  -1.0
    x3  OBJ  3.0
    x3  r191  1.0
    x3  r236  4.0
    x3  r286  -5.0
    x4  OBJ  6.0
    x4  r8  -5.0
    x4  r128  -2.0
    x4  r190  -3.0
    x4  r223  -4.0
    x5  OBJ  7.0
    x5  r190  3.0
    x5  r322  -2.0
    x5  r375  5.0
    x6  OBJ  4.0
    x6  r1  2.0
    x6  r48  -2.0
    x6  r382  -5.0
    x7  OBJ  4.0
    x7  r83  4.0
    x7  r189  4.0
    x7  r364  5.0
    x8  OBJ  6.0
    x8  r46  -4.0
    x8  r107  -5.0
    x8  r135  -2.0
    x8  r284  5.0
    x8  r312  -2.0
    x8  r356  2.0
    x9  OBJ  2.0
    x9  r227  -2.0
    x9  r308  3.0
    x9  r329  2.0
    x10  OBJ  8.0
    x10  r18  -4.0
    x10  r39  4.0
    x10  r179  2.0
    x10  r216  -1.0
    x10  r279  -4.0
    x10  r336  -5.0
    x10  r346  5.0
    x11  OBJ  6.0
    x11  r160  3.0
    x11  r181  -3.0
    x11  r338  4.0
    x11  r351  -4.0
    x12  OBJ  4.0
    x12  r11  3.0
    x12  r104  -2.0
    x12  r194  -4.0
    x12  r282  -2.0
    x12  r300  4.0
    x13  OBJ  6.0
    x13  r54  -4.0
    x13  r66  5.0
    x13  r100  -3.0
    x13  r163  -3.0
    x13  r282  -3.0
    x13  r389  -2.0
    x14  OBJ  1.0
    x14  r29  -3.0
    x14  r73  -1.0
    x14  r89  4.0
    x14  r203  4.0
    x14  r296  3.0
    x14  r359  2.0
    x15  OBJ  4.0
    x15  r228  2.0
    x15  r255  -4.0
    x15  r279  2.0
    x15  r323  -5.0
    x16  OBJ  3.0
    x16  r34  1.0
    x16  r104  -1.0
    x17  OBJ  7.0
    x17  r28  -1.0
    x17  r151  5.0
    x17  r224  -4.0
    x17  r242  -3.0
    x17  r300  -3.0
    x18  OBJ  3.0
    x18  r255  -4.0
    x19  OBJ  6.0
    x19  r115  -5.0
    x19  r189  -5.0
    x19  r198  4.0
    x19  r249  2.0
    x19  r257  -2.0
    x19  r335  -5.0
    x20  OBJ  10.0
    x20  r87  -4.0
    x20  r263  -1.0
    x21  OBJ  7.0
    x21  r6  5.0
    x21  r340  3.0
    x21  r370  -4.0
    x22  OBJ  4.0
    x22  r227  -5.0
    x22  r239  4.0
    x22  r325  5.0
    x23  OBJ  8.0
    x23  r287  -5.0
    x24  OBJ  4.0
    x24  r11  5.0
    x25  OBJ  7.0
    x25  r71  -4.0
    x25  r198  5.0
    x25  r226  -4.0
    x25  r246  5.0
    x25  r320  -2.0
    x26  OBJ  3.0
    x26  r55  -3.0
    x26  r252  -3.0
    x26  r341  3.0
    x26  r360  -3.0
    x27  OBJ  9.0
    x27  r42  -5.0
    x27  r80  -5.0
    x27  r131  -5.0
    x27  r250  -1.0
    x27  r258  -3.0
    x27  r340  -2.0
    x28  OBJ  6.0
    x28  r78  2.0
    x28  r87  -5.0
    x29  OBJ  3.0
    x29  r231  1.0
    x29  r306  -4.0
    x30  OBJ  2.0
    x30  r137  -2.0
    x30  r150  -2.0
    x31  OBJ  8.0
    x31  r23  5.0
    x31  r41  -5.0
    x31  r79  5.0
    x31  r181  5.0
    x31  r234  2.0
    x31  r263  -4.0
    x31  r319  -4.0
    x32  OBJ  2.0
    x32  r218  -2.0
    x33  OBJ  7.0
    x33  r16  -5.0
    x33  r91  -1.0
    x33  r212  -4.0
    x33  r318  2.0
    x33  r372  2.0
    x34  OBJ  8.0
    x34  r74  4.0
    x34  r88  -1.0
    x34  r143  -3.0
    x34  r195  3.0
    x34  r262  -4.0
    x34  r331  -1.0
    x35  OBJ  4.0
    x35  r1  -4.0
    x35  r55  -4.0
    x35  r106  5.0
    x35  r274  -2.0
    x35  r389  -4.0
    x35  r398  -3.0
    x36  OBJ  10.0
    x36  r86  3.0
    x36  r209  -1.0
    x36  r298  -2.0
    x37  OBJ  4.0
    x37  r186  2.0
    x37  r187  -4.0
    x37  r197  4.0
    x37  r239  1.0
    x37  r267  4.0
    x38  OBJ  1.0
    x38  r33  -2.0
    x38  r102  1.0
    x38  r139  2.0
    x38  r218  5.0
    x38  r246  -2.0
    x38  r317  -4.0
    x39  OBJ  9.0
    x39  r38  -3.0
    x39  r126  -2.0
    x39  r159  1.0
    x39  r194  1.0
    x39  r212  -3.0
    x39  r343  -1.0
    x40  OBJ  4.0
    x40  r62  -1.0
    x40  r153  -4.0
    x40  r220  -1.0
    x40  r301  -4.0
    x41  OBJ  3.0
    x41  r85  -4.0
    x41  r107  2.0
    x41  r249  -2.0
    x41  r309  -2.0
    x41  r325  -1.0
    x41  r358  5.0
    x42  OBJ  2.0
    x42  r104  -4.0
    x42  r233  1.0
    x43  OBJ  2.0
    x43  r1  2.0
    x43  r48  -5.0
    x43  r193  -5.0
    x43  r281  -1.0
    x43  r282  4.0
    x43  r365  -3.0
    x44  OBJ  8.0
    x44  r47  2.0
    x44  r182  -3.0
    x44  r223  -1.0
    x44  r251  -1.0
    x45  OBJ  2.0
    x45  r17  -1.0
    x45  r191  -3.0
    x45  r229  -4.0
    x45  r362  4.0
    x46  OBJ  4.0
    x46  r33  2.0
    x46  r36  1.0
    x46  r208  -5.0
    x46  r219  -2.0
    x46  r310  1.0
    x46  r342  2.0
    x47  OBJ  8.0
    x47  r52  3.0
    x47  r96  -5.0
    x47  r158  -1.0
    x47  r233  1.0
    x47  r359  -5.0
    x48  OBJ  3.0
    x48  r2  5.0
    x48  r383  5.0
    x48  r399  -2.0
    x49  OBJ  2.0
    x49  r231  4.0
    x49  r282  4.0
    x49  r348  -4.0
    x49  r352  4.0
    x50  OBJ  10.0
    x50  r37  -2.0
    x50  r187  4.0
    x50  r227  2.0
    x50  r229  -4.0
    x50  r281  -4.0
    x51  OBJ  2.0
    x51  r211  2.0
    x51  r239  -5.0
    x52  OBJ  2.0
    x52  r9  -3.0
    x52  r143  5.0
    x52  r171  5.0
    x52  r267  2.0
    x53  OBJ  6.0
    x54  OBJ  5.0
    x54  r119  -2.0
    x54  r186  -1.0
    x54  r241  -1.0
    x55  OBJ  10.0
    x55  r191  -1.0
    x55  r227  5.0
    x55  r233  1.0
    x55  r279  -2.0
    x56  OBJ  6.0
    x56  r29  5.0
    x56  r44  1.0
    x56  r124  -4.0
    x56  r221  5.0
    x56  r275  2.0
    x56  r349  -1.0
    x56  r369  -5.0
    x57  OBJ  5.0
    x57  r9  5.0
    x57  r34  4.0
    x57  r166  5.0
    x57  r258  1.0
    x57  r299  1.0
    x58  OBJ  10.0
    x58  r31  -4.0
    x58  r129  -3.0
    x58  r242  4.0
    x59  OBJ  4.0
    x59  r1  -4.0
    x59  r53  -5.0
    x59  r208  -2.0
    x59  r398  -5.0
    x60  OBJ  10.0
    x60  r16  4.0
    x60  r48  1.0
    x60  r260  -2.0
    x60  r307  1.0
    x60  r312  1.0
    x60  r354  -5.0
    x60  r365  -5.0
    x61  OBJ  3.0
    x61  r28  -4.0
    x61  r46  1.0
    x62  OBJ  7.0
    x62  r54  1.0
    x62  r193  2.0
    x62  r352  -5.0
    x62  r395  -3.0
    x63  OBJ  1.0
    x63  r49  2.0
    x63  r85  2.0
    x63  r91  4.0
    x63  r156  -4.0
    x63  r204  -3.0
    x63  r363  -2.0
    x64  OBJ  5.0
    x64  r47  1.0
    x64  r388  -1.0
    x65  OBJ  7.0
    x65  r98  4.0
    x65  r287  -3.0
    x65  r288  4.0
    x65  r290  3.0
    x66  OBJ  1.0
    x66  r58  5.0
    x66  r215  1.0
    x66  r271  2.0
    x66  r286  4.0
    x66  r304  -1.0
    x66  r371  -3.0
    x67  OBJ  9.0
    x67  r55  -5.0
    x67  r195  4.0
    x67  r309  -5.0
    x67  r320  2.0
    x68  OBJ  1.0
    x68  r41  3.0
    x69  OBJ  7.0
    x69  r54  -4.0
    x69  r260  -1.0
    x70  OBJ  10.0
    x70  r4  2.0
    x70  r31  5.0
    x70  r84  2.0
    x70  r100  -2.0
    x70  r120  2.0
    x70  r144  2.0
    x70  r161  -3.0
    x70  r222  3.0
    x71  OBJ  3.0
    x71  r12  1.0
    x71  r136  -3.0
    x71  r193  4.0
    x72  OBJ  3.0
    x72  r168  4.0
    x72  r182  -4.0
    x72  r203  -5.0
    x72  r293  4.0
    x72  r298  4.0
    x73  OBJ  6.0
    x73  r10  -5.0
    x73  r137  -1.0
    x73  r181  3.0
    x73  r265  -5.0
    x73  r314  -1.0
    x73  r379  -4.0
    x74  OBJ  4.0
    x74  r209  -3.0
    x75  OBJ  8.0
    x75  r200  -4.0
    x75  r367  -4.0
    x76  OBJ  7.0
    x76  r9  2.0
    x76  r18  1.0
    x76  r61  1.0
    x76  r191  -5.0
    x76  r245  -1.0
    x76  r296  5.0
    x76  r366  3.0
    x76  r399  -4.0
    x77  OBJ  3.0
    x77  r171  1.0
    x77  r338  -2.0
    x78  OBJ  2.0
    x78  r27  -2.0
    x78  r49  -3.0
    x78  r66  -4.0
    x78  r232  -5.0
    x78  r329  -3.0
    x78  r385  3.0
    x79  OBJ  2.0
    x79  r261  1.0
    x80  OBJ  4.0
    x80  r134  4.0
    x80  r140  5.0
    x80  r225  -2.0
    x80  r250  -5.0
    x80  r323  4.0
    x81  OBJ  4.0
    x81  r29  5.0
    x81  r216  -2.0
    x81  r305  1.0
    x81  r321  -3.0
    x82  OBJ  3.0
    x82  r36  -2.0
    x82  r39  -4.0
    x82  r281  2.0
    x83  OBJ  3.0
    x83  r6  5.0
    x83  r44  4.0
    x83  r166  -2.0
    x83  r253  1.0
    x84  OBJ  6.0
    x84  r158  -4.0
    x84  r210  5.0
    x84  r280  -5.0
    x85  OBJ  2.0
    x85  r84  -3.0
    x85  r120  -2.0
    x85  r362  -2.0
    x86  OBJ  10.0
    x86  r158  1.0
    x86  r384  -5.0
    x87  OBJ  4.0
    x87  r94  -2.0
    x88  OBJ  1.0
    x88  r60  5.0
    x88  r113  -4.0
    x88  r211  -2.0
    x89  OBJ  1.0
    x89  r124  4.0
    x89  r201  3.0
    x89  r202  4.0
    x89  r359  -2.0
    x90  OBJ  10.0
    x90  r115  2.0
    x90  r128  5.0
    x90  r130  -5.0
    x90  r224  -3.0
    x90  r248  3.0
    x90  r279  2.0
    x91  OBJ  7.0
    x91  r40  1.0
    x91  r306  5.0
    x91  r370  -5.0
    x92  OBJ  1.0
    x92  r135  3.0
    x92  r246  5.0
    x92  r322  -3.0
    x92  r324  4.0
    x92  r334  -2.0
    x92  r377  -4.0
    x93  OBJ  2.0
    x93  r17  1.0
    x93  r28  -1.0
    x93  r41  4.0
    x93  r330  2.0
    x93  r378  3.0
    x94  OBJ  8.0
    x94  r198  2.0
    x94  r227  2.0
    x95  OBJ  6.0
    x95  r24  -2.0
    x95  r51  -4.0
    x95  r183  4.0
    x96  OBJ  7.0
    x96  r10  1.0
    x96  r20  -5.0
    x96  r116  -1.0
    x96  r304  5.0
    x96  r344  2.0
    x97  OBJ  3.0
    x97  r25  1.0
    x97  r248  -5.0
    x97  r280  -4.0
    x97  r393  4.0
    x98  OBJ  4.0
    x98  r113  -2.0
    x99  OBJ  2.0
    x99  r57  -2.0
    x99  r70  1.0
    x99  r152  -5.0
    x99  r180  4.0
    x100  OBJ  6.0
    x100  r5  -5.0
    x100  r266  -3.0
    x100  r273  3.0
    x101  OBJ  7.0
    x101  r37  -3.0
    x101  r84  4.0
    x101  r137  -2.0
    x101  r143  -1.0
    x101  r238  -3.0
    x101  r276  4.0
    x101  r291  -4.0
    x101  r295  4.0
    x102  OBJ  2.0
    x102  r19  2.0
    x102  r97  -4.0
    x102  r135  3.0
    x102  r173  3.0
    x102  r250  4.0
    x103  OBJ  10.0
    x103  r97  3.0
    x103  r350  -4.0
    x103  r398  4.0
    x104  OBJ  2.0
    x104  r278  -3.0
    x104  r312  -2.0
    x105  OBJ  7.0
    x105  r51  1.0
    x105  r353  -1.0
    x105  r389  4.0
    x105  r393  -2.0
    x106  OBJ  1.0
    x106  r60  -4.0
    x106  r271  -2.0
    x106  r372  4.0
    x107  OBJ  7.0
    x107  r119  5.0
    x108  OBJ  5.0
    x108  r18  3.0
    x108  r46  3.0
    x108  r59  -3.0
    x108  r145  5.0
    x108  r269  1.0
    x109  OBJ  3.0
    x109  r63  5.0
    x109  r120  4.0
    x109  r129  -4.0
    x109  r162  5.0
    x109  r173  -4.0
    x109  r296  1.0
    x110  OBJ  4.0
    x110  r112  3.0
    x110  r149  4.0
    x110  r170  1.0
    x110  r280  -5.0
    x111  OBJ  9.0
    x111  r20  -2.0
    x111  r74  3.0
    x111  r146  2.0
    x111  r172  -4.0
    x111  r194  -2.0
    x111  r258  4.0
    x111  r363  5.0
    x112  OBJ  4.0
    x112  r93  -5.0
    x112  r172  -4.0
    x112  r192  -4.0
    x112  r209  1.0
    x112  r315  -4.0
    x112  r383  4.0
    x112  r387  -2.0
    x113  OBJ  10.0
    x113  r15  4.0
    x113  r215  3.0
    x113  r281  -1.0
    x114  OBJ  1.0
    x114  r47  4.0
    x114  r201  -4.0
    x114  r304  -4.0
    x115  OBJ  5.0
    x115  r180  4.0
    x115  r222  3.0
    x115  r396  -5.0
    x116  OBJ  7.0
    x116  r21  -4.0
    x116  r34  -3.0
    x116  r62  -3.0
    x116  r124  -5.0
    x116  r175  -5.0
    x116  r282  -4.0
    x116  r290  -4.0
    x116  r356  3.0
    x116  r381  1.0
    x117  OBJ  7.0
    x117  r297  5.0
    x117  r339  -1.0
    x117  r368  -1.0
    x117  r396  5.0
    x118  OBJ  8.0
    x118  r267  1.0
    x118  r283  5.0
    x118  r322  5.0
    x118  r352  -3.0
    x118  r375  4.0
    x118  r386  -1.0
    x119  OBJ  3.0
    x119  r338  1.0
    x119  r380  -3.0
    x120  OBJ  6.0
    x120  r57  -2.0
    x120  r131  1.0
    x120  r323  -3.0
    x120  r377  3.0
    x121  OBJ  4.0
    x121  r85  -3.0
    x121  r172  -1.0
    x121  r174  -3.0
    x121  r365  -1.0
    x121  r383  1.0
    x122  OBJ  6.0
    x122  r33  2.0
    x122  r272  -1.0
    x123  OBJ  6.0
    x123  r20  -3.0
    x123  r51  1.0
    x123  r351  -3.0
    x124  OBJ  7.0
    x124  r3  2.0
    x125  OBJ  2.0
    x125  r159  2.0
    x125  r189  -5.0
    x126  OBJ  9.0
    x126  r86  -1.0
    x126  r101  -3.0
    x126  r191  -2.0
    x126  r196  -4.0
    x126  r208  3.0
    x126  r309  -3.0
    x126  r320  5.0
    x126  r394  -2.0
    x127  OBJ  1.0
    x127  r104  2.0
    x127  r225  5.0
    x127  r283  5.0
    x127  r299  -4.0
    x127  r336  2.0
    x127  r381  -5.0
    x128  OBJ  1.0
    x128  r48  -4.0
    x128  r106  -4.0
    x128  r183  4.0
    x128  r239  3.0
    x128  r243  -5.0
    x128  r291  -5.0
    x129  OBJ  5.0
    x129  r50  1.0
    x129  r152  -5.0
    x129  r371  5.0
    x129  r391  3.0
    x130  OBJ  2.0
    x130  r4  -1.0
    x130  r199  -3.0
    x130  r257  1.0
    x130  r322  -1.0
    x131  OBJ  4.0
    x131  r54  5.0
    x131  r95  -1.0
    x131  r130  5.0
    x131  r166  -4.0
    x131  r181  1.0
    x131  r241  1.0
    x131  r331  1.0
    x132  OBJ  7.0
    x132  r71  4.0
    x132  r190  1.0
    x132  r268  -4.0
    x133  OBJ  5.0
    x133  r137  4.0
    x133  r180  -5.0
    x133  r250  3.0
    x133  r298  -5.0
    x133  r385  -2.0
    x134  OBJ  9.0
    x134  r221  -5.0
    x135  OBJ  7.0
    x135  r59  -5.0
    x135  r254  4.0
    x135  r319  4.0
    x135  r354  5.0
    x135  r387  1.0
    x136  OBJ  4.0
    x136  r87  -2.0
    x136  r154  3.0
    x136  r318  -2.0
    x136  r376  3.0
    x137  OBJ  7.0
    x137  r3  -1.0
    x137  r58  3.0
    x137  r212  2.0
    x137  r389  -1.0
    x138  OBJ  9.0
    x138  r16  -1.0
    x138  r34  -3.0
    x138  r124  4.0
    x138  r139  1.0
    x139  OBJ  4.0
    x139  r144  2.0
    x139  r222  -5.0
    x139  r289  5.0
    x139  r365  5.0
    x140  OBJ  6.0
    x140  r47  4.0
    x141  OBJ  4.0
    x141  r164  -3.0
    x141  r280  -3.0
    x142  OBJ  2.0
    x142  r243  -5.0
    x142  r387  -4.0
    x143  OBJ  8.0
    x143  r83  2.0
    x143  r143  -5.0
    x143  r320  1.0
    x143  r347  -3.0
    x144  OBJ  9.0
    x144  r74  -3.0
    x144  r86  4.0
    x144  r297  5.0
    x145  OBJ  9.0
    x145  r147  -4.0
    x145  r171  -4.0
    x145  r276  2.0
    x145  r336  1.0
    x145  r385  -2.0
    x146  OBJ  6.0
    x146  r78  -4.0
    x146  r153  -1.0
    x146  r224  3.0
    x146  r232  -5.0
    x146  r311  -4.0
    x147  OBJ  9.0
    x147  r203  -2.0
    x147  r335  -1.0
    x148  OBJ  3.0
    x148  r130  1.0
    x148  r271  -5.0
    x148  r344  3.0
    x149  OBJ  5.0
    x149  r181  2.0
    x150  OBJ  3.0
    x151  OBJ  2.0
    x151  r111  -5.0
    x151  r286  3.0
    x151  r289  -3.0
    x151  r311  1.0
    x152  OBJ  1.0
    x152  r46  -3.0
    x152  r65  5.0
    x152  r118  2.0
    x152  r264  5.0
    x152  r388  3.0
    x153  OBJ  8.0
    x153  r18  4.0
    x153  r21  -4.0
    x153  r34  -5.0
    x153  r296  -2.0
    x153  r366  1.0
    x154  OBJ  4.0
    x154  r186  -4.0
    x154  r234  -2.0
    x154  r336  5.0
    x155  OBJ  2.0
    x155  r92  -3.0
    x155  r197  5.0
    x155  r215  -5.0
    x156  OBJ  8.0
    x156  r22  -4.0
    x156  r276  3.0
    x157  OBJ  10.0
    x157  r247  -3.0
    x157  r396  -2.0
    x158  OBJ  2.0
    x158  r10  -1.0
    x158  r73  -4.0
    x158  r169  4.0
    x158  r311  -1.0
    x159  OBJ  4.0
    x159  r160  -2.0
    x159  r190  5.0
    x159  r284  2.0
    x159  r308  -5.0
    x160  OBJ  7.0
    x160  r98  4.0
    x160  r138  5.0
    x160  r192  4.0
    x160  r193  4.0
    x161  OBJ  4.0
    x161  r150  -5.0
    x161  r198  1.0
    x161  r223  -4.0
    x162  OBJ  8.0
    x162  r120  -4.0
    x162  r164  -3.0
    x162  r330  -3.0
    x163  OBJ  4.0
    x163  r43  2.0
    x163  r48  -1.0
    x163  r133  5.0
    x163  r171  -4.0
    x163  r207  4.0
    x164  OBJ  7.0
    x164  r29  2.0
    x164  r150  -5.0
    x164  r174  -1.0
    x164  r252  -1.0
    x164  r253  -3.0
    x164  r313  1.0
    x165  OBJ  9.0
    x165  r26  1.0
    x165  r272  1.0
    x166  OBJ  3.0
    x166  r94  4.0
    x166  r110  2.0
    x166  r136  2.0
    x166  r148  2.0
    x166  r323  -5.0
    x166  r353  -2.0
    x166  r385  1.0
    x167  OBJ  2.0
    x167  r82  -5.0
    x167  r105  -1.0
    x167  r165  -4.0
    x167  r235  -3.0
    x167  r311  -3.0
    x168  OBJ  2.0
    x168  r24  1.0
    x168  r285  -5.0
    x168  r370  4.0
    x169  OBJ  2.0
    x169  r31  4.0
    x169  r311  1.0
    x169  r367  -3.0
    x170  OBJ  1.0
    x170  r150  2.0
    x170  r325  4.0
    x170  r381  4.0
    x171  OBJ  4.0
    x171  r72  5.0
    x171  r223  3.0
    x171  r292  -2.0
    x172  OBJ  4.0
    x172  r13  3.0
    x172  r109  -2.0
    x172  r211  2.0
    x172  r261  3.0
    x172  r299  3.0
    x172  r321  -4.0
    x172  r327  2.0
    x173  OBJ  2.0
    x173  r133  -3.0
    x173  r158  3.0
    x173  r173  -5.0
    x173  r217  -2.0
    x173  r261  4.0
    x173  r313  -1.0
    x173  r352  -3.0
    x174  OBJ  2.0
    x174  r326  -5.0
    x174  r354  1.0
    x175  OBJ  10.0
    x175  r157  4.0
    x175  r206  -4.0
    x175  r314  -2.0
    x176  OBJ  4.0
    x176  r29  5.0
    x176  r135  -3.0
    x176  r143  5.0
    x177  OBJ  4.0
    x177  r171  2.0
    x177  r379  2.0
    x177  r398  1.0
    x178  OBJ  1.0
    x178  r62  -3.0
    x178  r127  2.0
    x178  r140  -3.0
    x178  r294  1.0
    x178  r336  -5.0
    x179  OBJ  8.0
    x179  r15  1.0
    x179  r86  1.0
    x179  r103  2.0
    x179  r183  4.0
    x179  r395  -5.0
    x180  OBJ  4.0
    x180  r55  3.0
    x180  r156  1.0
    x180  r253  -4.0
    x181  OBJ  2.0
    x181  r169  -2.0
    x181  r185  2.0
    x181  r290  -2.0
    x181  r300  -3.0
    x181  r310  1.0
    x182  OBJ  10.0
    x182  r70  4.0
    x182  r213  -4.0
    x182  r273  -1.0
    x183  OBJ  8.0
    x183  r51  -3.0
    x183  r116  4.0
    x183  r171  -4.0
    x184  OBJ  9.0
    x184  r86  -4.0
    x184  r166  -1.0
    x184  r253  1.0
    x185  OBJ  8.0
    x185  r374  -1.0
    x186  OBJ  3.0
    x186  r141  -2.0
    x186  r191  2.0
    x187  OBJ  9.0
    x187  r39  -5.0
    x188  OBJ  5.0
    x188  r30  -5.0
    x188  r54  -2.0
    x188  r345  4.0
    x189  OBJ  2.0
    x189  r20  -2.0
    x190  OBJ  6.0
    x190  r37  1.0
    x190  r78  1.0
    x190  r153  5.0
    x190  r214  5.0
    x191  OBJ  7.0
    x191  r45  1.0
    x191  r64  1.0
    x191  r173  5.0
    x191  r209  -1.0
    x191  r243  -2.0
    x191  r268  4.0
    x191  r319  -4.0
    x192  OBJ  10.0
    x192  r103  1.0
    x192  r216  -4.0
    x192  r245  -5.0
    x192  r255  3.0
    x193  OBJ  3.0
    x193  r182  1.0
    x193  r289  3.0
    x193  r302  2.0
    x194  OBJ  2.0
    x194  r12  3.0
    x194  r24  -3.0
    x194  r33  -5.0
    x194  r163  5.0
    x195  OBJ  2.0
    x195  r40  -3.0
    x195  r49  -3.0
    x195  r83  -3.0
    x195  r218  -4.0
    x195  r239  5.0
    x196  OBJ  5.0
    x196  r38  -2.0
    x196  r257  2.0
    x196  r284  5.0
    x196  r322  3.0
    x197  OBJ  2.0
    x198  OBJ  2.0
    x198  r72  -1.0
    x198  r385  4.0
    x199  OBJ  10.0
    x199  r149  -2.0
    x199  r188  -1.0
    x199  r209  3.0
    x199  r230  5.0
    x199  r320  3.0
    x200  OBJ  10.0
    x200  r76  -1.0
    x200  r135  2.0
    x200  r175  -1.0
    x200  r197  -5.0
    x200  r293  3.0
    x200  r325  4.0
    x200  r333  4.0
    x200  r385  4.0
    x200  r392  -2.0
    x201  OBJ  9.0
    x201  r51  -1.0
    x201  r88  5.0
    x201  r181  3.0
    x201  r196  -4.0
    x201  r247  -5.0
    x201  r305  1.0
    x201  r393  2.0
    x202  OBJ  1.0
    x202  r35  5.0
    x202  r36  -2.0
    x202  r125  2.0
    x202  r151  3.0
    x202  r378  -2.0
    x203  OBJ  7.0
    x203  r77  -5.0
    x203  r83  -5.0
    x203  r108  2.0
    x203  r143  -4.0
    x203  r328  5.0
    x203  r392  4.0
    x204  OBJ  6.0
    x204  r149  1.0
    x204  r301  1.0
    x204  r382  5.0
    x205  OBJ  2.0
    x206  OBJ  1.0
    x206  r10  5.0
    x206  r85  -5.0
    x206  r303  3.0
    x207  OBJ  3.0
    x207  r11  1.0
    x207  r114  -1.0
    x207  r223  2.0
    x207  r343  3.0
    x207  r357  4.0
    x208  OBJ  4.0
    x208  r16  -5.0
    x208  r87  5.0
    x208  r168  -4.0
    x208  r179  3.0
    x208  r213  2.0
    x208  r306  5.0
    x208  r381  1.0
    x209  OBJ  7.0
    x209  r260  -1.0
    x209  r298  -5.0
    x209  r348  -4.0
    x209  r353  -4.0
    x210  OBJ  10.0
    x210  r7  4.0
    x210  r82  -1.0
    x210  r346  -3.0
    x210  r357  -4.0
    x211  OBJ  4.0
    x211  r38  4.0
    x211  r396  -5.0
    x212  OBJ  4.0
    x212  r2  -1.0
    x212  r19  1.0
    x212  r196  -1.0
    x212  r207  3.0
    x212  r212  -5.0
    x212  r378  -4.0
    x212  r385  -1.0
    x213  OBJ  8.0
    x213  r142  -4.0
    x213  r279  5.0
    x213  r295  -1.0
    x213  r360  -2.0
    x214  OBJ  3.0
    x214  r105  -3.0
    x215  OBJ  6.0
    x215  r17  5.0
    x215  r110  -4.0
    x215  r238  -3.0
    x215  r269  2.0
    x216  OBJ  3.0
    x216  r72  -2.0
    x216  r157  -3.0
    x216  r259  -2.0
    x216  r280  -5.0
    x217  OBJ  2.0
    x217  r19  1.0
    x217  r30  -3.0
    x217  r349  -3.0
    x218  OBJ  1.0
    x218  r198  5.0
    x218  r342  -5.0
    x218  r371  4.0
    x219  OBJ  5.0
    x219  r72  5.0
    x219  r76  -4.0
    x219  r171  2.0
    x219  r195  3.0
    x219  r249  -1.0
    x219  r262  1.0
    x219  r271  4.0
    x220  OBJ  1.0
    x220  r319  -5.0
    x221  OBJ  8.0
    x221  r7  -3.0
    x221  r167  -3.0
    x221  r213  -4.0
    x222  OBJ  10.0
    x222  r46  -2.0
    x222  r328  -1.0
    x223  OBJ  3.0
    x223  r78  -3.0
    x223  r145  3.0
    x223  r158  1.0
    x223  r239  5.0
    x223  r355  -1.0
    x224  OBJ  4.0
    x224  r21  -2.0
    x224  r362  -2.0
    x224  r377  3.0
    x225  OBJ  4.0
    x225  r59  4.0
    x225  r93  1.0
    x225  r118  1.0
    x225  r157  -4.0
    x225  r263  -4.0
    x225  r314  -3.0
    x226  OBJ  3.0
    x226  r213  1.0
    x226  r334  5.0
    x226  r389  -5.0
    x227  OBJ  3.0
    x227  r269  -4.0
    x228  OBJ  6.0
    x228  r150  2.0
    x228  r160  3.0
    x229  OBJ  7.0
    x229  r67  2.0
    x229  r221  2.0
    x229  r271  2.0
    x229  r281  -2.0
    x229  r306  3.0
    x230  OBJ  6.0
    x230  r4  -3.0
    x230  r37  -5.0
    x230  r70  -4.0
    x230  r197  -1.0
    x230  r199  5.0
    x230  r245  -4.0
    x230  r255  -4.0
    x231  OBJ  5.0
    x231  r40  5.0
    x231  r111  -3.0
    x231  r163  5.0
    x231  r310  5.0
    x231  r333  3.0
    x231  r355  -5.0
    x232  OBJ  8.0
    x232  r47  5.0
    x232  r205  -5.0
    x232  r288  -5.0
    x232  r339  -3.0
    x232  r375  2.0
    x233  OBJ  8.0
    x233  r121  -3.0
    x233  r153  -1.0
    x233  r159  5.0
    x233  r220  -5.0
    x233  r229  -3.0
    x233  r315  -5.0
    x233  r340  -4.0
    x234  OBJ  6.0
    x235  OBJ  7.0
    x235  r164  -5.0
    x236  OBJ  5.0
    x236  r37  -4.0
    x236  r266  1.0
    x237  OBJ  5.0
    x237  r256  1.0
    x237  r343  1.0
    x237  r365  2.0
    x237  r394  -1.0
    x238  OBJ  2.0
    x238  r32  3.0
    x238  r39  -2.0
    x238  r176  4.0
    x238  r205  -4.0
    x238  r301  4.0
    x239  OBJ  7.0
    x239  r67  -1.0
    x239  r97  4.0
    x239  r158  4.0
    x239  r207  3.0
    x240  OBJ  2.0
    x240  r205  3.0
    x240  r339  -1.0
    x241  OBJ  1.0
    x241  r58  -2.0
    x241  r128  4.0
    x241  r177  5.0
    x241  r239  -5.0
    x241  r271  2.0
    x242  OBJ  2.0
    x242  r68  2.0
    x242  r85  1.0
    x242  r109  2.0
    x242  r226  -2.0
    x242  r344  -3.0
    x243  OBJ  2.0
    x243  r26  5.0
    x243  r117  4.0
    x243  r270  2.0
    x243  r309  -2.0
    x244  OBJ  10.0
    x244  r5  3.0
    x244  r15  -4.0
    x244  r339  -2.0
    x245  OBJ  3.0
    x245  r228  -4.0
    x245  r309  1.0
    x246  OBJ  2.0
    x246  r61  2.0
    x246  r170  3.0
    x246  r238  -5.0
    x247  OBJ  3.0
    x247  r5  1.0
    x247  r297  -5.0
    x247  r298  -2.0
    x247  r363  5.0
    x248  OBJ  7.0
    x248  r107  -4.0
    x248  r128  -4.0
    x248  r357  5.0
    x249  OBJ  3.0
    x249  r44  -1.0
    x249  r47  1.0
    x249  r103  4.0
    x249  r109  5.0
    x249  r195  -2.0
    x249  r205  -5.0
    x249  r211  -1.0
    x249  r286  3.0
    x250  OBJ  2.0
    x250  r254  -5.0
    x251  OBJ  1.0
    x251  r36  -2.0
    x251  r77  -3.0
    x251  r310  -1.0
    x252  OBJ  3.0
    x252  r37  3.0
    x252  r259  1.0
    x252  r317  -1.0
    x252  r343  -4.0
    x252  r376  -3.0
    x252  r399  -3.0
    x253  OBJ  8.0
    x253  r63  2.0
    x253  r100  2.0
    x254  OBJ  3.0
    x254  r169  1.0
    x254  r235  2.0
    x254  r241  5.0
    x254  r282  -2.0
    x255  OBJ  2.0
    x255  r63  -4.0
    x255  r161  -3.0
    x255  r275  1.0
    x256  OBJ  2.0
    x256  r40  -2.0
    x256  r75  -5.0
    x256  r109  5.0
    x256  r290  3.0
    x256  r341  5.0
    x256  r351  -5.0
    x257  OBJ  4.0
    x257  r129  -1.0
    x257  r244  -2.0
    x258  OBJ  1.0
    x258  r97  -5.0
    x258  r117  4.0
    x258  r161  -2.0
    x258  r350  1.0
    x259  OBJ  3.0
    x259  r11  2.0
    x259  r91  2.0
    x259  r137  -2.0
    x259  r251  -5.0
    x259  r277  -5.0
    x259  r359  -1.0
    x260  OBJ  1.0
    x260  r96  -4.0
    x260  r167  -1.0
    x260  r261  5.0
    x260  r265  -4.0
    x261  OBJ  2.0
    x261  r150  -4.0
    x261  r345  2.0
    x262  OBJ  5.0
    x262  r36  2.0
    x262  r212  -5.0
    x263  OBJ  4.0
    x263  r190  -1.0
    x264  OBJ  4.0
    x264  r175  2.0
    x264  r184  5.0
    x264  r245  2.0
    x264  r268  -5.0
    x265  OBJ  3.0
    x265  r283  1.0
    x265  r322  -5.0
    x265  r367  3.0
    x266  OBJ  1.0
    x266  r32  3.0
    x266  r196  -3.0
    x266  r219  -3.0
    x266  r238  -4.0
    x266  r322  5.0
    x267  OBJ  3.0
    x267  r225  1.0
    x267  r228  -2.0
    x268  OBJ  3.0
    x268  r50  -3.0
    x268  r118  2.0
    x268  r337  5.0
    x268  r350  -5.0
    x269  OBJ  9.0
    x269  r55  1.0
    x270  OBJ  10.0
    x270  r327  -3.0
    x270  r381  5.0
    x271  OBJ  6.0
    x271  r103  5.0
    x271  r167  -4.0
    x271  r304  1.0
    x272  OBJ  9.0
    x272  r382  4.0
    x272  r395  -2.0
    x273  OBJ  1.0
    x273  r10  4.0
    x273  r87  3.0
    x273  r103  1.0
    x273  r246  -4.0
    x274  OBJ  4.0
    x274  r49  -2.0
    x274  r263  4.0
    x274  r286  -1.0
    x275  OBJ  10.0
    x275  r54  -4.0
    x275  r159  -2.0
    x275  r164  -2.0
    x275  r388  3.0
    x276  OBJ  9.0
    x276  r56  1.0
    x276  r343  -5.0
    x277  OBJ  9.0
    x277  r267  -3.0
    x277  r328  -3.0
    x277  r329  4.0
    x277  r344  -4.0
    x278  OBJ  7.0
    x278  r101  4.0
    x278  r219  1.0
    x278  r235  1.0
    x278  r334  4.0
    x278  r391  3.0
    x279  OBJ  9.0
    x279  r227  -1.0
    x279  r275  2.0
    x279  r308  3.0
    x280  OBJ  6.0
    x280  r54  2.0
    x280  r110  -5.0
    x280  r192  5.0
    x281  OBJ  3.0
    x281  r99  4.0
    x281  r207  3.0
    x281  r325  -4.0
    x282  OBJ  8.0
    x282  r54  2.0
    x282  r109  -3.0
    x282  r203  -2.0
    x282  r292  -4.0
    x282  r371  3.0
    x283  OBJ  2.0
    x283  r83  -1.0
    x283  r111  1.0
    x283  r130  5.0
    x283  r242  -1.0
    x283  r385  5.0
    x284  OBJ  3.0
    x284  r30  5.0
    x284  r107  1.0
    x284  r150  -4.0
    x284  r326  5.0
    x285  OBJ  9.0
    x285  r39  5.0
    x285  r301  5.0
    x286  OBJ  5.0
    x286  r85  -2.0
    x286  r125  1.0
    x286  r306  1.0
    x286  r342  3.0
    x287  OBJ  8.0
    x287  r39  3.0
    x287  r158  -5.0
    x288  OBJ  3.0
    x288  r323  -1.0
    x289  OBJ  6.0
    x289  r34  4.0
    x289  r35  2.0
    x289  r195  -3.0
    x289  r285  -2.0
    x290  OBJ  5.0
    x290  r145  2.0
    x290  r217  -2.0
    x290  r255  -1.0
    x290  r393  2.0
    x291  OBJ  3.0
    x291  r27  4.0
    x291  r67  1.0
    x291  r134  -5.0
    x291  r279  4.0
    x291  r309  1.0
    x291  r316  2.0
    x291  r397  4.0
    x292  OBJ  10.0
    x292  r17  2.0
    x292  r350  2.0
    x293  OBJ  3.0
    x293  r151  -5.0
    x293  r324  -1.0
    x293  r386  2.0
    x294  OBJ  4.0
    x294  r107  4.0
    x295  OBJ  3.0
    x295  r195  5.0
    x295  r320  2.0
    x296  OBJ  4.0
    x296  r5  3.0
    x296  r70  -3.0
    x296  r77  -3.0
    x296  r111  -2.0
    x296  r159  4.0
    x296  r222  -2.0
    x296  r322  -2.0
    x297  OBJ  10.0
    x297  r30  -1.0
    x297  r67  2.0
    x297  r95  1.0
    x297  r132  2.0
    x297  r182  -5.0
    x297  r302  2.0
    x297  r360  5.0
    x298  OBJ  2.0
    x298  r38  5.0
    x298  r119  -3.0
    x298  r230  3.0
    x298  r231  -1.0
    x298  r303  -3.0
    x298  r368  -3.0
    x299  OBJ  1.0
    x299  r66  4.0
    x299  r254  -3.0
    x300  OBJ  6.0
    x300  r18  -3.0
    x300  r50  1.0
    x300  r171  1.0
    x301  OBJ  9.0
    x301  r197  -1.0
    x301  r298  -4.0
    x301  r320  -2.0
    x301  r356  5.0
    x302  OBJ  5.0
    x302  r128  -5.0
    x302  r146  -5.0
    x302  r208  2.0
    x302  r213  -2.0
    x302  r278  -4.0
    x303  OBJ  7.0
    x303  r152  5.0
    x303  r216  5.0
    x303  r301  -2.0
    x303  r329  3.0
    x304  OBJ  2.0
    x304  r17  -1.0
    x304  r67  -1.0
    x304  r72  1.0
    x304  r159  3.0
    x304  r218  1.0
    x304  r237  -1.0
    x304  r247  -5.0
    x304  r259  3.0
    x305  OBJ  5.0
    x306  OBJ  3.0
    x306  r25  -5.0
    x306  r268  1.0
    x306  r282  -1.0
    x306  r292  3.0
    x307  OBJ  7.0
    x307  r68  3.0
    x307  r94  -4.0
    x307  r250  5.0
    x307  r258  2.0
    x308  OBJ  7.0
    x308  r115  -3.0
    x308  r129  5.0
    x308  r160  -1.0
    x308  r253  1.0
    x308  r353  -1.0
    x309  OBJ  1.0
    x309  r362  2.0
    x310  OBJ  10.0
    x310  r2  1.0
    x311  OBJ  4.0
    x311  r17  2.0
    x311  r219  -5.0
    x311  r288  2.0
    x311  r351  -2.0
    x311  r396  -2.0
    x312  OBJ  3.0
    x312  r62  3.0
    x312  r278  -4.0
    x312  r330  3.0
    x313  OBJ  8.0
    x313  r121  -2.0
    x313  r278  1.0
    x314  OBJ  1.0
    x314  r273  -1.0
    x314  r327  -2.0
    x315  OBJ  3.0
    x315  r77  1.0
    x315  r97  -1.0
    x316  OBJ  4.0
    x316  r9  4.0
    x316  r26  -1.0
    x316  r73  -2.0
    x316  r337  -3.0
    x316  r350  -4.0
    x317  OBJ  4.0
    x317  r87  4.0
    x317  r160  -3.0
    x318  OBJ  8.0
    x318  r92  -2.0
    x318  r258  -4.0
    x319  OBJ  3.0
    x319  r112  5.0
    x319  r217  -1.0
    x319  r365  -2.0
    x319  r379  2.0
    x320  OBJ  7.0
    x321  OBJ  7.0
    x321  r145  3.0
    x321  r267  -5.0
    x321  r393  -1.0
    x322  OBJ  4.0
    x322  r11  -4.0
    x322  r33  4.0
    x322  r64  -4.0
    x322  r113  3.0
    x322  r141  -1.0
    x322  r278  -2.0
    x323  OBJ  8.0
    x323  r3  3.0
    x323  r84  3.0
    x323  r166  3.0
    x323  r207  -5.0
    x323  r325  -1.0
    x323  r342  -4.0
    x324  OBJ  8.0
    x324  r41  -5.0
    x324  r73  -1.0
    x324  r321  -3.0
    x324  r388  -2.0
    x325  OBJ  8.0
    x325  r31  5.0
    x325  r52  1.0
    x325  r189  -1.0
    x325  r357  -3.0
    x325  r388  -3.0
    x326  OBJ  4.0
    x326  r110  1.0
    x326  r208  -5.0
    x326  r259  -4.0
    x326  r390  4.0
    x327  OBJ  2.0
    x327  r37  -2.0
    x327  r65  3.0
    x327  r83  1.0
    x327  r299  -2.0
    x327  r327  2.0
    x327  r332  -4.0
    x327  r386  1.0
    x328  OBJ  2.0
    x328  r15  4.0
    x328  r26  1.0
    x328  r70  2.0
    x328  r71  -4.0
    x328  r104  3.0
    x329  OBJ  4.0
    x329  r8  5.0
    x329  r136  2.0
    x329  r140  -2.0
    x329  r175  -4.0
    x329  r191  -2.0
    x330  OBJ  3.0
    x330  r118  -4.0
    x330  r147  4.0
    x330  r175  5.0
    x330  r185  2.0
    x330  r207  -4.0
    x330  r238  4.0
    x330  r389  4.0
    x331  OBJ  9.0
    x331  r31  -5.0
    x331  r49  -5.0
    x331  r307  3.0
    x332  OBJ  6.0
    x332  r31  -2.0
    x332  r161  -4.0
    x332  r207  -2.0
    x332  r313  -4.0
    x333  OBJ  4.0
    x333  r13  -1.0
    x333  r16  -4.0
    x333  r157  3.0
    x333  r348  4.0
    x333  r378  1.0
    x334  OBJ  6.0
    x334  r196  -2.0
    x334  r279  3.0
    x334  r357  3.0
    x334  r368  5.0
    x335  OBJ  1.0
    x335  r210  3.0
    x335  r221  2.0
    x335  r331  5.0
    x335  r389  2.0
    x335  r393  -4.0
    x336  OBJ  6.0
    x337  OBJ  3.0
    x337  r63  -2.0
    x337  r265  1.0
    x337  r372  -1.0
    x338  OBJ  7.0
    x338  r121  -2.0
    x338  r173  2.0
    x338  r206  -5.0
    x338  r277  -5.0
    x338  r315  -3.0
    x339  OBJ  8.0
    x339  r43  4.0
    x339  r123  5.0
    x339  r306  2.0
    x339  r349  -3.0
    x340  OBJ  9.0
    x340  r152  2.0
    x340  r330  -2.0
    x341  OBJ  3.0
    x341  r87  2.0
    x341  r96  5.0
    x341  r189  -5.0
    x341  r264  -2.0
    x341  r299  3.0
    x341  r326  2.0
    x342  OBJ  9.0
    x342  r65  -4.0
    x342  r173  -1.0
    x342  r255  5.0
    x342  r283  1.0
    x342  r332  -1.0
    x342  r396  -3.0
    x343  OBJ  8.0
    x343  r332  -1.0
    x344  OBJ  10.0
    x344  r191  -1.0
    x344  r293  3.0
    x345  OBJ  7.0
    x346  OBJ  7.0
    x346  r19  -4.0
    x346  r97  4.0
    x347  OBJ  2.0
    x347  r67  -1.0
    x347  r252  1.0
    x347  r330  5.0
    x348  OBJ  4.0
    x348  r84  -4.0
    x348  r197  4.0
    x348  r233  -4.0
    x348  r307  -1.0
    x349  OBJ  9.0
    x349  r97  4.0
    x349  r185  5.0
    x349  r219  -3.0
    x349  r236  -1.0
    x349  r334  -1.0
    x349  r350  -2.0
    x350  OBJ  2.0
    x350  r200  2.0
    x350  r221  2.0
    x350  r278  -1.0
    x350  r369  2.0
    x351  OBJ  9.0
    x351  r29  3.0
    x351  r274  -1.0
    x352  OBJ  1.0
    x352  r60  3.0
    x352  r177  -5.0
    x353  OBJ  3.0
    x353  r59  4.0
    x353  r82  1.0
    x353  r168  3.0
    x353  r259  3.0
    x354  OBJ  9.0
    x354  r2  2.0
    x354  r178  2.0
    x354  r383  5.0
    x355  OBJ  4.0
    x355  r35  -2.0
    x355  r81  3.0
    x355  r334  5.0
    x356  OBJ  9.0
    x356  r266  3.0
    x356  r314  2.0
    x356  r329  2.0
    x357  OBJ  4.0
    x357  r14  -4.0
    x357  r56  4.0
    x357  r77  -3.0
    x357  r138  -1.0
    x357  r164  -3.0
    x357  r217  3.0
    x358  OBJ  5.0
    x358  r31  -1.0
    x358  r37  -2.0
    x358  r267  -5.0
    x358  r370  -2.0
    x359  OBJ  3.0
    x359  r22  -1.0
    x359  r162  -2.0
    x359  r219  -5.0
    x360  OBJ  3.0
    x360  r57  -2.0
    x360  r133  -1.0
    x360  r204  -1.0
    x360  r272  5.0
    x360  r348  -3.0
    x360  r350  -1.0
    x360  r369  4.0
    x361  OBJ  10.0
    x361  r96  -4.0
    x361  r108  -2.0
    x361  r195  -4.0
    x362  OBJ  3.0
    x363  OBJ  3.0
    x363  r139  -3.0
    x363  r182  -5.0
    x363  r186  -1.0
    x363  r188  -4.0
    x363  r263  5.0
    x363  r272  2.0
    x363  r367  3.0
    x364  OBJ  9.0
    x364  r172  4.0
    x364  r268  -4.0
    x364  r304  -2.0
    x364  r361  5.0
    x364  r373  3.0
    x365  OBJ  6.0
    x365  r23  4.0
    x365  r168  3.0
    x365  r211  3.0
    x366  OBJ  3.0
    x366  r51  -4.0
    x366  r71  5.0
    x366  r80  2.0
    x366  r156  5.0
    x366  r192  -1.0
    x366  r317  1.0
    x366  r362  -3.0
    x367  OBJ  9.0
    x367  r351  5.0
    x367  r389  -3.0
    x368  OBJ  7.0
    x368  r62  2.0
    x368  r66  4.0
    x368  r290  -4.0
    x368  r322  3.0
    x368  r336  5.0
    x369  OBJ  9.0
    x369  r279  5.0
    x369  r292  -4.0
    x369  r313  5.0
    x370  OBJ  3.0
    x370  r325  2.0
    x370  r365  1.0
    x371  OBJ  5.0
    x371  r8  -4.0
    x371  r119  -5.0
    x371  r279  3.0
    x372  OBJ  8.0
    x372  r29  -3.0
    x372  r393  4.0
    x373  OBJ  10.0
    x373  r196  -4.0
    x373  r205  5.0
    x373  r341  5.0
    x374  OBJ  8.0
    x374  r28  2.0
    x374  r111  5.0
    x374  r183  -1.0
    x374  r389  1.0
    x375  OBJ  3.0
    x375  r94  3.0
    x375  r171  -3.0
    x375  r192  4.0
    x375  r228  2.0
    x375  r392  -4.0
    x376  OBJ  2.0
    x376  r62  4.0
    x376  r64  2.0
    x376  r80  1.0
    x376  r190  -4.0
    x376  r284  -4.0
    x376  r293  -1.0
    x376  r380  -3.0
    x377  OBJ  7.0
    x377  r34  5.0
    x377  r68  -3.0
    x378  OBJ  4.0
    x378  r109  5.0
    x378  r118  -5.0
    x379  OBJ  4.0
    x379  r262  4.0
    x379  r281  3.0
    x379  r284  3.0
    x380  OBJ  8.0
    x380  r57  -3.0
    x380  r152  4.0
    x380  r299  -2.0
    x381  OBJ  3.0
    x381  r70  4.0
    x381  r180  1.0
    x381  r382  2.0
    x382  OBJ  3.0
    x382  r186  1.0
    x382  r188  1.0
    x382  r267  3.0
    x382  r322  4.0
    x383  OBJ  2.0
    x383  r105  2.0
    x383  r198  3.0
    x383  r240  -4.0
    x383  r291  5.0
    x383  r313  2.0
    x383  r359  1.0
    x383  r380  1.0
    x384  OBJ  2.0
    x384  r62  -1.0
    x384  r120  -1.0
    x384  r244  -2.0
    x384  r340  -4.0
    x384  r381  -1.0
    x384  r384  -4.0
    x385  OBJ  5.0
    x385  r140  -5.0
    x385  r321  -1.0
    x385  r352  -5.0
    x385  r371  5.0
    x386  OBJ  4.0
    x386  r241  4.0
    x386  r287  4.0
    x387  OBJ  4.0
    x387  r170  5.0
    x387  r227  -4.0
    x387  r263  1.0
    x388  OBJ  1.0
    x388  r133  -1.0
    x388  r171  -5.0
    x388  r218  -5.0
    x388  r256  -5.0
    x388  r262  2.0
    x389  OBJ  3.0
    x389  r56  -2.0
    x389  r79  -3.0
    x389  r142  1.0
    x390  OBJ  7.0
    x390  r11  -4.0
    x390  r107  4.0
    x390  r320  -1.0
    x391  OBJ  4.0
    x391  r26  -2.0
    x391  r82  3.0
    x391  r99  -2.0
    x391  r310  -1.0
    x392  OBJ  4.0
    x392  r3  -5.0
    x392  r9  5.0
    x392  r170  -3.0
    x392  r251  -2.0
    x392  r324  -5.0
    x393  OBJ  10.0
    x393  r236  2.0
    x394  OBJ  8.0
    x394  r2  -1.0
    x394  r244  1.0
    x394  r291  -5.0
    x394  r313  -2.0
    x395  OBJ  10.0
    x395  r67  -4.0
    x395  r220  -4.0
    x395  r304  -2.0
    x395  r329  -5.0
    x396  OBJ  1.0
    x396  r5  -1.0
    x396  r228  -4.0
    x396  r372  -5.0
    x397  OBJ  5.0
    x398  OBJ  2.0
    x398  r181  -5.0
    x398  r213  3.0
    x398  r260  4.0
    x398  r281  4.0
    x399  OBJ  2.0
    x399  r15  5.0
    x399  r79  3.0
    x399  r210  -1.0
    x399  r257  5.0
    x399  r308  -5.0
    x399  r317  5.0
    x399  r392  3.0
    x400  OBJ  1.0
    x400  r186  -4.0
    x400  r201  -1.0
    x400  r299  -3.0
    x400  r338  3.0
    x401  OBJ  7.0
    x401  r55  -2.0
    x401  r78  -2.0
    x401  r267  -4.0
    x401  r325  5.0
    x402  OBJ  1.0
    x402  r267  5.0
    x402  r328  5.0
    x403  OBJ  1.0
    x403  r28  -3.0
    x403  r94  -5.0
    x403  r116  -1.0
    x403  r302  3.0
    x403  r388  -1.0
    x404  OBJ  8.0
    x404  r177  5.0
    x404  r263  -4.0
    x404  r352  3.0
    x405  OBJ  2.0
    x405  r0  -1.0
    x405  r67  3.0
    x405  r76  -3.0
    x405  r168  -1.0
    x405  r313  -3.0
    x405  r316  4.0
    x405  r384  -2.0
    x405  r389  5.0
    x406  OBJ  6.0
    x406  r86  -4.0
    x406  r246  1.0
    x406  r301  -2.0
    x406  r387  3.0
    x407  OBJ  4.0
    x407  r44  5.0
    x408  OBJ  10.0
    x408  r90  2.0
    x408  r200  -4.0
    x408  r279  -5.0
    x409  OBJ  4.0
    x409  r136  -1.0
    x409  r222  5.0
    x410  OBJ  5.0
    x410  r143  -4.0
    x410  r220  -5.0
    x410  r235  -3.0
    x411  OBJ  3.0
    x411  r167  2.0
    x411  r229  -3.0
    x412  OBJ  9.0
    x412  r97  4.0
    x412  r157  -4.0
    x412  r214  -3.0
    x413  OBJ  8.0
    x413  r129  -5.0
    x413  r140  4.0
    x413  r270  4.0
    x413  r321  2.0
    x413  r346  3.0
    x414  OBJ  8.0
    x414  r41  -5.0
    x414  r55  1.0
    x414  r132  -4.0
    x414  r213  -3.0
    x414  r235  4.0
    x414  r398  4.0
    x415  OBJ  1.0
    x415  r20  -2.0
    x415  r147  3.0
    x416  OBJ  4.0
    x416  r20  -2.0
    x416  r89  5.0
    x416  r112  -5.0
    x416  r151  1.0
    x416  r165  2.0
    x417  OBJ  3.0
    x417  r114  3.0
    x417  r267  -4.0
    x418  OBJ  6.0
    x418  r43  5.0
    x418  r125  4.0
    x418  r378  -4.0
    x419  OBJ  4.0
    x419  r5  1.0
    x419  r13  3.0
    x419  r206  5.0
    x419  r212  2.0
    x419  r285  4.0
    x420  OBJ  10.0
    x420  r75  2.0
    x420  r103  -5.0
    x420  r253  1.0
    x420  r340  5.0
    x421  OBJ  2.0
    x421  r2  -1.0
    x421  r249  2.0
    x421  r298  -5.0
    x421  r398  2.0
    x422  OBJ  9.0
    x422  r41  -2.0
    x422  r64  2.0
    x422  r143  2.0
    x422  r178  1.0
    x422  r336  -2.0
    x423  OBJ  10.0
    x423  r212  -3.0
    x423  r253  -2.0
    x423  r301  -3.0
    x423  r361  2.0
    x424  OBJ  10.0
    x424  r266  -5.0
    x424  r299  -4.0
    x424  r394  2.0
    x425  OBJ  4.0
    x425  r40  1.0
    x425  r234  3.0
    x425  r308  2.0
    x426  OBJ  10.0
    x426  r35  3.0
    x426  r103  -1.0
    x426  r145  2.0
    x426  r218  -1.0
    x427  OBJ  6.0
    x427  r3  -2.0
    x427  r159  3.0
    x428  OBJ  7.0
    x429  OBJ  9.0
    x429  r74  4.0
    x429  r167  -5.0
    x429  r172  -5.0
    x430  OBJ  7.0
    x430  r206  5.0
    x430  r349  3.0
    x430  r360  3.0
    x431  OBJ  4.0
    x431  r29  -2.0
    x431  r232  -2.0
    x432  OBJ  9.0
    x432  r13  -3.0
    x432  r90  -2.0
    x433  OBJ  7.0
    x433  r87  -2.0
    x433  r164  4.0
    x433  r221  1.0
    x433  r274  4.0
    x433  r373  -5.0
    x433  r397  2.0
    x434  OBJ  2.0
    x434  r4  2.0
    x434  r10  -2.0
    x434  r47  5.0
    x434  r66  -3.0
    x434  r236  4.0
    x434  r243  -5.0
    x434  r344  4.0
    x435  OBJ  3.0
    x435  r238  3.0
    x435  r351  -5.0
    x436  OBJ  4.0
    x436  r22  -3.0
    x436  r64  -5.0
    x436  r108  2.0
    x436  r354  4.0
    x437  OBJ  8.0
    x437  r97  5.0
    x437  r235  1.0
    x437  r351  -1.0
    x438  OBJ  1.0
    x438  r59  2.0
    x438  r114  -1.0
    x439  OBJ  4.0
    x439  r53  3.0
    x439  r114  3.0
    x439  r195  -2.0
    x439  r306  1.0
    x439  r312  5.0
    x439  r357  -2.0
    x439  r385  2.0
    x440  OBJ  8.0
    x440  r111  -1.0
    x440  r291  -4.0
    x441  OBJ  3.0
    x441  r24  -4.0
    x441  r145  1.0
    x441  r364  -2.0
    x442  OBJ  3.0
    x442  r20  5.0
    x442  r38  -5.0
    x442  r161  3.0
    x442  r175  3.0
    x442  r195  -1.0
    x442  r234  2.0
    x442  r238  -5.0
    x442  r288  -3.0
    x442  r388  1.0
    x443  OBJ  9.0
    x443  r15  2.0
    x443  r226  -1.0
    x443  r355  -2.0
    x443  r367  -5.0
    x443  r368  1.0
    x444  OBJ  2.0
    x444  r30  3.0
    x444  r35  2.0
    x444  r136  -2.0
    x444  r161  2.0
    x444  r189  3.0
    x444  r301  1.0
    x444  r303  -4.0
    x444  r329  4.0
    x444  r342  5.0
    x445  OBJ  3.0
    x445  r242  -1.0
    x445  r319  3.0
    x446  OBJ  2.0
    x446  r48  4.0
    x446  r92  1.0
    x446  r106  -4.0
    x446  r246  2.0
    x446  r304  -1.0
    x447  OBJ  2.0
    x447  r95  -4.0
    x447  r264  -4.0
    x448  OBJ  3.0
    x448  r163  -5.0
    x448  r202  3.0
    x448  r208  1.0
    x448  r246  4.0
    x449  OBJ  9.0
    x449  r231  2.0
    x449  r289  5.0
    x450  OBJ  10.0
    x450  r37  -5.0
    x450  r49  3.0
    x450  r99  -2.0
    x451  OBJ  5.0
    x451  r39  -1.0
    x451  r255  -2.0
    x452  OBJ  4.0
    x452  r44  1.0
    x452  r328  5.0
    x452  r379  -1.0
    x453  OBJ  6.0
    x453  r18  -4.0
    x454  OBJ  7.0
    x454  r17  3.0
    x455  OBJ  4.0
    x455  r179  1.0
    x456  OBJ  10.0
    x456  r67  -4.0
    x456  r173  -2.0
    x456  r277  4.0
    x457  OBJ  4.0
    x457  r79  2.0
    x457  r141  2.0
    x457  r176  -5.0
    x458  OBJ  4.0
    x458  r62  5.0
    x458  r116  5.0
    x458  r201  1.0
    x458  r236  4.0
    x458  r317  -4.0
    x459  OBJ  9.0
    x459  r141  -4.0
    x460  OBJ  2.0
    x460  r260  -1.0
    x461  OBJ  3.0
    x461  r25  -4.0
    x461  r62  -5.0
    x461  r99  -2.0
    x461  r211  2.0
    x461  r370  3.0
    x462  OBJ  2.0
    x462  r29  -4.0
    x463  OBJ  10.0
    x463  r336  -4.0
    x463  r360  -5.0
    x464  OBJ  1.0
    x464  r4  -1.0
    x464  r29  5.0
    x464  r293  3.0
    x464  r317  -1.0
    x465  OBJ  5.0
    x465  r81  1.0
    x466  OBJ  5.0
    x466  r334  -2.0
    x467  OBJ  7.0
    x467  r81  -4.0
    x467  r163  1.0
    x467  r201  3.0
    x467  r304  5.0
    x467  r343  -3.0
    x468  OBJ  5.0
    x468  r0  -3.0
    x468  r190  5.0
    x468  r273  5.0
    x468  r355  5.0
    x469  OBJ  10.0
    x469  r109  -4.0
    x469  r362  -4.0
    x470  OBJ  9.0
    x470  r42  -3.0
    x470  r48  3.0
    x470  r146  4.0
    x471  OBJ  7.0
    x471  r5  -2.0
    x471  r108  2.0
    x471  r182  1.0
    x471  r266  -2.0
    x471  r378  -3.0
    x472  OBJ  6.0
    x472  r93  5.0
    x472  r384  5.0
    x473  OBJ  4.0
    x473  r84  -2.0
    x473  r122  2.0
    x474  OBJ  8.0
    x474  r94  1.0
    x474  r348  5.0
    x474  r352  -1.0
    x475  OBJ  8.0
    x475  r277  2.0
    x475  r345  2.0
    x476  OBJ  2.0
    x476  r39  -3.0
    x476  r59  5.0
    x476  r165  1.0
    x476  r181  -1.0
    x476  r280  -5.0
    x476  r364  -5.0
    x477  OBJ  8.0
    x477  r71  -5.0
    x477  r102  5.0
    x477  r129  2.0
    x477  r266  5.0
    x477  r379  -2.0
    x478  OBJ  5.0
    x478  r5  -1.0
    x478  r102  2.0
    x478  r163  -4.0
    x479  OBJ  10.0
    x479  r36  3.0
    x479  r106  4.0
    x479  r239  -5.0
    x479  r303  4.0
    x480  OBJ  7.0
    x480  r189  -3.0
    x481  OBJ  1.0
    x481  r150  4.0
    x481  r188  5.0
    x481  r200  -2.0
    x482  OBJ  2.0
    x482  r228  -3.0
    x482  r306  -4.0
    x482  r313  1.0
    x482  r315  -2.0
    x483  OBJ  8.0
    x483  r18  2.0
    x483  r39  2.0
    x483  r44  -4.0
    x483  r384  -1.0
    x484  OBJ  2.0
    x484  r60  -4.0
    x484  r68  4.0
    x484  r166  -2.0
    x484  r247  -5.0
    x485  OBJ  7.0
    x486  OBJ  5.0
    x486  r228  3.0
    x486  r283  -3.0
    x487  OBJ  5.0
    x487  r37  1.0
    x487  r208  -1.0
    x487  r337  4.0
    x487  r369  4.0
    x488  OBJ  9.0
    x488  r12  -2.0
    x488  r60  2.0
    x488  r76  5.0
    x488  r198  -2.0
    x489  OBJ  8.0
    x489  r15  1.0
    x489  r124  5.0
    x489  r263  2.0
    x489  r295  4.0
    x490  OBJ  1.0
    x490  r240  -5.0
    x490  r260  -2.0
    x490  r264  -4.0
    x490  r303  -1.0
    x491  OBJ  1.0
    x491  r361  2.0
    x491  r363  1.0
    x492  OBJ  7.0
    x492  r57  -1.0
    x492  r279  2.0
    x492  r298  -4.0
    x492  r306  2.0
    x492  r308  -3.0
    x492  r390  2.0
    x493  OBJ  3.0
    x493  r16  -3.0
    x493  r311  2.0
    x493  r352  -5.0
    x493  r395  -4.0
    x494  OBJ  4.0
    x494  r105  3.0
    x494  r191  -1.0
    x494  r330  2.0
    x495  OBJ  5.0
    x495  r275  -1.0
    x496  OBJ  7.0
    x496  r109  -3.0
    x496  r213  -1.0
    x496  r217  3.0
    x496  r233  -5.0
    x496  r321  -5.0
    x497  OBJ  10.0
    x497  r27  4.0
    x497  r99  2.0
    x497  r277  -5.0
    x497  r294  -3.0
    x497  r377  -1.0
    x498  OBJ  1.0
    x498  r27  -2.0
    x498  r312  -2.0
    x498  r328  -2.0
    x498  r338  -2.0
    x499  OBJ  7.0
    x499  r198  5.0
    x499  r270  -1.0
    x499  r315  1.0
    x500  OBJ  6.0
    x500  r16  4.0
    x500  r24  -1.0
    x500  r116  -3.0
    x500  r236  3.0
    x500  r240  1.0
    x500  r307  1.0
    x501  OBJ  4.0
    x501  r44  1.0
    x501  r152  -2.0
    x501  r168  -3.0
    x502  OBJ  4.0
    x502  r205  1.0
    x502  r234  1.0
    x503  OBJ  8.0
    x504  OBJ  2.0
    x504  r266  -1.0
    x504  r295  1.0
    x504  r342  -1.0
    x505  OBJ  7.0
    x505  r300  -1.0
    x505  r378  3.0
    x506  OBJ  2.0
    x506  r123  2.0
    x506  r176  5.0
    x506  r264  5.0
    x506  r268  5.0
    x506  r305  -5.0
    x506  r324  4.0
    x507  OBJ  8.0
    x507  r305  4.0
    x508  OBJ  10.0
    x508  r61  1.0
    x509  OBJ  8.0
    x509  r237  5.0
    x509  r398  -4.0
    x510  OBJ  10.0
    x510  r113  -5.0
    x510  r323  4.0
    x511  OBJ  6.0
    x511  r33  -5.0
    x511  r261  -1.0
    x511  r305  2.0
    x512  OBJ  3.0
    x512  r22  -2.0
    x512  r87  -2.0
    x512  r195  3.0
    x512  r316  -1.0
    x512  r333  -5.0
    x513  OBJ  5.0
    x513  r99  -3.0
    x513  r125  4.0
    x513  r296  5.0
    x513  r313  -2.0
    x514  OBJ  2.0
    x514  r47  5.0
    x514  r269  3.0
    x515  OBJ  3.0
    x515  r36  3.0
    x515  r221  -5.0
    x516  OBJ  8.0
    x516  r26  -2.0
    x516  r112  -1.0
    x516  r342  5.0
    x517  OBJ  4.0
    x517  r39  4.0
    x517  r94  4.0
    x517  r229  3.0
    x517  r306  -5.0
    x517  r331  -2.0
    x517  r390  4.0
    x518  OBJ  3.0
    x518  r366  -4.0
    x518  r375  -1.0
    x518  r376  2.0
    x519  OBJ  9.0
    x519  r135  4.0
    x519  r203  -5.0
    x519  r228  -5.0
    x519  r294  5.0
    x519  r333  5.0
    x520  OBJ  4.0
    x520  r208  1.0
    x520  r371  4.0
    x521  OBJ  10.0
    x521  r37  -2.0
    x521  r48  -3.0
    x521  r82  1.0
    x521  r90  -4.0
    x521  r169  2.0
    x521  r319  3.0
    x521  r332  3.0
    x521  r350  4.0
    x522  OBJ  3.0
    x522  r19  2.0
    x522  r241  2.0
    x522  r361  5.0
    x523  OBJ  2.0
    x523  r82  5.0
    x524  OBJ  5.0
    x524  r7  3.0
    x524  r60  1.0
    x524  r207  4.0
    x524  r270  -5.0
    x524  r367  4.0
    x524  r390  -5.0
    x525  OBJ  6.0
    x525  r146  -2.0
    x525  r171  -3.0
    x525  r222  2.0
    x525  r284  4.0
    x525  r362  5.0
    x525  r386  1.0
    x526  OBJ  3.0
    x526  r70  -1.0
    x526  r228  2.0
    x526  r268  -2.0
    x526  r288  3.0
    x527  OBJ  2.0
    x527  r45  1.0
    x527  r108  -2.0
    x527  r172  -2.0
    x527  r297  -3.0
    x527  r333  -5.0
    x527  r336  -5.0
    x527  r369  5.0
    x527  r399  -2.0
    x528  OBJ  4.0
    x528  r65  -1.0
    x528  r75  1.0
    x528  r101  4.0
    x529  OBJ  5.0
    x529  r40  -5.0
    x529  r205  1.0
    x529  r274  4.0
    x530  OBJ  8.0
    x530  r350  -2.0
    x530  r397  3.0
    x531  OBJ  2.0
    x531  r31  -1.0
    x531  r43  2.0
    x531  r232  5.0
    x531  r278  -5.0
    x531  r336  1.0
    x531  r365  5.0
    x532  OBJ  1.0
    x532  r42  -5.0
    x532  r312  -3.0
    x533  OBJ  2.0
    x533  r53  -5.0
    x533  r294  -4.0
    x534  OBJ  10.0
    x534  r133  -2.0
    x534  r185  -4.0
    x534  r320  5.0
    x534  r342  2.0
    x535  OBJ  5.0
    x535  r12  -3.0
    x535  r111  -2.0
    x535  r149  -1.0
    x535  r228  5.0
    x535  r241  5.0
    x535  r275  3.0
    x535  r342  -5.0
    x536  OBJ  1.0
    x536  r135  4.0
    x536  r193  -3.0
    x537  OBJ  2.0
    x537  r93  3.0
    x537  r155  3.0
    x537  r200  -5.0
    x537  r322  -5.0
    x538  OBJ  10.0
    x538  r190  2.0
    x538  r276  1.0
    x539  OBJ  3.0
    x539  r12  4.0
    x540  OBJ  3.0
    x540  r74  4.0
    x540  r159  3.0
    x540  r250  4.0
    x540  r273  4.0
    x541  OBJ  9.0
    x541  r162  -1.0
    x542  OBJ  9.0
    x542  r158  -5.0
    x543  OBJ  6.0
    x543  r77  -3.0
    x543  r119  3.0
    x543  r164  -1.0
    x543  r229  -4.0
    x543  r257  2.0
    x544  OBJ  9.0
    x545  OBJ  1.0
    x545  r54  3.0
    x545  r349  2.0
    x545  r352  -2.0
    x546  OBJ  4.0
    x546  r174  3.0
    x546  r186  2.0
    x546  r212  2.0
    x546  r343  4.0
    x547  OBJ  1.0
    x547  r173  -1.0
    x548  OBJ  5.0
    x548  r139  2.0
    x548  r172  -4.0
    x548  r256  -5.0
    x548  r275  -4.0
    x548  r367  -5.0
    x548  r380  -2.0
    x548  r391  -2.0
    x549  OBJ  4.0
    x549  r76  1.0
    x549  r108  -5.0
    x549  r141  4.0
    x549  r326  -3.0
    x549  r391  2.0
    x550  OBJ  10.0
    x550  r35  1.0
    x550  r54  2.0
    x550  r72  -5.0
    x550  r105  5.0
    x550  r114  2.0
    x550  r144  -3.0
    x550  r233  -1.0
    x550  r317  -1.0
    x551  OBJ  4.0
    x551  r329  -5.0
    x552  OBJ  6.0
    x552  r105  -2.0
    x552  r328  3.0
    x553  OBJ  8.0
    x553  r108  -5.0
    x553  r119  1.0
    x553  r328  3.0
    x554  OBJ  6.0
    x554  r28  3.0
    x554  r61  4.0
    x554  r386  3.0
    x555  OBJ  7.0
    x555  r53  2.0
    x555  r121  -3.0
    x555  r166  -1.0
    x555  r217  4.0
    x555  r295  1.0
    x555  r297  5.0
    x555  r353  -3.0
    x556  OBJ  9.0
    x556  r63  -4.0
    x557  OBJ  4.0
    x557  r153  -1.0
    x557  r242  -3.0
    x557  r349  -3.0
    x557  r399  -2.0
    x558  OBJ  8.0
    x558  r49  4.0
    x558  r108  -4.0
    x558  r165  -5.0
    x558  r346  -4.0
    x558  r355  5.0
    x558  r359  -2.0
    x558  r398  3.0
    x559  OBJ  3.0
    x559  r64  3.0
    x559  r137  -3.0
    x559  r278  1.0
    x560  OBJ  5.0
    x560  r159  -4.0
    x560  r321  1.0
    x560  r374  1.0
    x561  OBJ  4.0
    x561  r81  2.0
    x562  OBJ  2.0
    x562  r38  3.0
    x562  r132  4.0
    x562  r319  -2.0
    x563  OBJ  4.0
    x563  r77  -3.0
    x563  r357  -4.0
    x563  r374  3.0
    x564  OBJ  2.0
    x564  r133  3.0
    x564  r166  4.0
    x564  r234  -2.0
    x564  r238  3.0
    x564  r309  2.0
    x564  r358  4.0
    x565  OBJ  1.0
    x565  r1  -5.0
    x565  r172  -4.0
    x565  r368  2.0
    x566  OBJ  6.0
    x566  r291  -1.0
    x566  r308  5.0
    x566  r335  2.0
    x566  r344  -4.0
    x567  OBJ  4.0
    x567  r37  -3.0
    x567  r159  2.0
    x567  r174  5.0
    x568  OBJ  3.0
    x568  r193  2.0
    x568  r330  4.0
    x569  OBJ  4.0
    x569  r263  5.0
    x569  r269  -3.0
    x569  r314  4.0
    x569  r315  -4.0
    x569  r377  -2.0
    x570  OBJ  10.0
    x570  r88  -2.0
    x570  r189  -2.0
    x570  r326  -5.0
    x571  OBJ  8.0
    x571  r104  3.0
    x571  r292  3.0
    x571  r310  -3.0
    x572  OBJ  3.0
    x572  r247  -1.0
    x572  r350  -1.0
    x573  OBJ  4.0
    x573  r183  -2.0
    x573  r286  3.0
    x573  r385  -3.0
    x574  OBJ  5.0
    x574  r105  2.0
    x574  r240  4.0
    x574  r249  4.0
    x574  r274  -1.0
    x575  OBJ  4.0
    x575  r5  2.0
    x575  r9  -1.0
    x575  r153  -2.0
    x575  r202  3.0
    x575  r286  -2.0
    x575  r352  -2.0
    x576  OBJ  9.0
    x576  r2  5.0
    x576  r144  3.0
    x576  r176  3.0
    x576  r195  3.0
    x576  r213  2.0
    x576  r323  -3.0
    x577  OBJ  1.0
    x577  r34  2.0
    x577  r71  -3.0
    x577  r78  1.0
    x577  r195  -4.0
    x577  r207  4.0
    x577  r221  1.0
    x577  r278  -3.0
    x578  OBJ  8.0
    x578  r97  -3.0
    x578  r110  -3.0
    x578  r144  -4.0
    x578  r219  -1.0
    x579  OBJ  8.0
    x579  r119  3.0
    x579  r128  5.0
    x579  r339  5.0
    x579  r361  2.0
    x579  r394  -1.0
    x580  OBJ  6.0
    x580  r142  4.0
    x580  r206  1.0
    x581  OBJ  8.0
    x581  r10  -5.0
    x581  r32  3.0
    x581  r37  -4.0
    x581  r55  -4.0
    x581  r239  -4.0
    x581  r347  -5.0
    x582  OBJ  3.0
    x582  r214  -2.0
    x582  r237  5.0
    x583  OBJ  8.0
    x583  r141  -1.0
    x584  OBJ  6.0
    x584  r7  3.0
    x584  r269  -5.0
    x585  OBJ  7.0
    x585  r198  1.0
    x585  r333  -5.0
    x586  OBJ  2.0
    x586  r43  1.0
    x586  r137  5.0
    x586  r350  -2.0
    x586  r385  4.0
    x587  OBJ  2.0
    x587  r125  3.0
    x587  r128  -4.0
    x587  r361  -2.0
    x588  OBJ  8.0
    x588  r26  1.0
    x588  r132  2.0
    x588  r183  -1.0
    x588  r224  -2.0
    x588  r229  -4.0
    x588  r287  2.0
    x589  OBJ  1.0
    x589  r39  3.0
    x589  r280  4.0
    x589  r294  3.0
    x589  r329  -4.0
    x590  OBJ  4.0
    x590  r5  2.0
    x590  r78  4.0
    x590  r201  -1.0
    x590  r250  -1.0
    x590  r269  -4.0
    x590  r349  -4.0
    x591  OBJ  2.0
    x591  r189  -1.0
    x591  r337  -1.0
    x592  OBJ  9.0
    x592  r48  -3.0
    x592  r78  2.0
    x592  r93  3.0
    x592  r123  -5.0
    x592  r244  -4.0
    x592  r399  -5.0
    x593  OBJ  1.0
    x593  r42  4.0
    x593  r193  2.0
    x593  r248  5.0
    x593  r257  -1.0
    x593  r263  1.0
    x593  r378  2.0
    x594  OBJ  1.0
    x594  r4  4.0
    x594  r196  -1.0
    x594  r245  -5.0
    x595  OBJ  5.0
    x595  r24  2.0
    x595  r110  -1.0
    x595  r171  4.0
    x595  r246  -1.0
    x596  OBJ  2.0
    x596  r2  -3.0
    x596  r53  1.0
    x596  r123  2.0
    x596  r153  5.0
    x596  r165  4.0
    x597  OBJ  1.0
    x597  r6  4.0
    x597  r11  -1.0
    x597  r22  1.0
    x597  r95  -1.0
    x597  r154  5.0
    x597  r237  5.0
    x597  r248  -5.0
    x597  r250  5.0
    x598  OBJ  2.0
    x598  r227  4.0
    x598  r310  1.0
    x599  OBJ  7.0
    x599  r129  1.0
    x599  r270  -1.0
    x599  r271  4.0
    x599  r324  -4.0
    x599  r386  -2.0
    x600  OBJ  1.0
    x600  r241  1.0
    x600  r327  3.0
    x600  r351  -3.0
    x600  r374  5.0
    x601  OBJ  4.0
    x601  r2  5.0
    x601  r65  5.0
    x601  r113  4.0
    x601  r184  5.0
    x601  r381  -5.0
    x602  OBJ  2.0
    x602  r81  -5.0
    x602  r372  -1.0
    x603  OBJ  6.0
    x603  r4  -3.0
    x603  r36  -5.0
    x603  r106  -1.0
    x603  r165  -3.0
    x604  OBJ  5.0
    x604  r25  5.0
    x604  r160  -1.0
    x604  r172  3.0
    x604  r242  -4.0
    x604  r261  4.0
    x604  r387  2.0
    x605  OBJ  1.0
    x606  OBJ  3.0
    x606  r158  2.0
    x606  r296  -2.0
    x606  r336  -5.0
    x607  OBJ  8.0
    x607  r4  -1.0
    x607  r143  1.0
    x607  r175  -2.0
    x607  r310  2.0
    x607  r340  -2.0
    x607  r382  -3.0
    x607  r384  1.0
    x608  OBJ  2.0
    x608  r146  5.0
    x609  OBJ  9.0
    x610  OBJ  4.0
    x610  r30  -1.0
    x610  r248  -1.0
    x610  r320  -2.0
    x611  OBJ  5.0
    x611  r167  2.0
    x611  r330  -5.0
    x611  r395  5.0
    x612  OBJ  6.0
    x612  r94  -3.0
    x612  r111  -1.0
    x612  r154  -3.0
    x613  OBJ  4.0
    x613  r311  5.0
    x614  OBJ  7.0
    x614  r21  -3.0
    x614  r108  1.0
    x614  r151  -2.0
    x614  r281  1.0
    x614  r308  2.0
    x614  r309  -4.0
    x614  r322  5.0
    x614  r335  -4.0
    x614  r362  4.0
    x615  OBJ  4.0
    x615  r35  -5.0
    x615  r304  -3.0
    x615  r376  5.0
    x615  r380  -1.0
    x616  OBJ  2.0
    x616  r113  3.0
    x616  r125  1.0
    x616  r223  5.0
    x616  r235  1.0
    x616  r260  -1.0
    x617  OBJ  7.0
    x617  r0  -5.0
    x617  r315  -1.0
    x618  OBJ  4.0
    x618  r157  -4.0
    x618  r292  5.0
    x619  OBJ  1.0
    x619  r22  -5.0
    x619  r106  5.0
    x620  OBJ  8.0
    x620  r353  -1.0
    x621  OBJ  4.0
    x621  r163  1.0
    x622  OBJ  3.0
    x622  r23  3.0
    x622  r48  -5.0
    x622  r196  -4.0
    x622  r391  3.0
    x622  r398  -5.0
    x623  OBJ  8.0
    x623  r14  -2.0
    x623  r55  -5.0
    x623  r274  -1.0
    x624  OBJ  4.0
    x624  r133  -4.0
    x624  r201  1.0
    x624  r237  5.0
    x624  r339  2.0
    x625  OBJ  8.0
    x625  r179  -4.0
    x625  r207  -3.0
    x625  r217  -5.0
    x625  r349  1.0
    x626  OBJ  3.0
    x626  r71  3.0
    x626  r388  -1.0
    x627  OBJ  10.0
    x627  r10  -1.0
    x627  r74  -1.0
    x627  r134  -4.0
    x627  r190  3.0
    x627  r372  5.0
    x628  OBJ  2.0
    x628  r73  3.0
    x628  r79  2.0
    x628  r146  -2.0
    x628  r214  -5.0
    x628  r221  -2.0
    x628  r347  -3.0
    x629  OBJ  6.0
    x629  r85  -4.0
    x629  r122  -4.0
    x629  r147  2.0
    x630  OBJ  6.0
    x630  r134  -2.0
    x630  r158  -5.0
    x631  OBJ  2.0
    x631  r390  4.0
    x632  OBJ  4.0
    x632  r18  -5.0
    x632  r382  5.0
    x633  OBJ  4.0
    x633  r54  -2.0
    x634  OBJ  2.0
    x634  r52  -1.0
    x634  r111  -3.0
    x634  r152  4.0
    x634  r280  -4.0
    x635  OBJ  4.0
    x635  r66  5.0
    x635  r116  3.0
    x635  r256  5.0
    x635  r328  -4.0
    x636  OBJ  6.0
    x636  r38  4.0
    x636  r201  -2.0
    x636  r290  -2.0
    x637  OBJ  2.0
    x637  r169  -5.0
    x637  r231  2.0
    x637  r236  2.0
    x637  r381  -3.0
    x637  r388  2.0
    x638  OBJ  6.0
    x638  r70  2.0
    x638  r71  -4.0
    x638  r189  1.0
    x638  r219  2.0
    x638  r399  3.0
    x639  OBJ  10.0
    x639  r89  -1.0
    x639  r158  5.0
    x639  r234  2.0
    x639  r248  1.0
    x639  r338  -4.0
    x640  OBJ  1.0
    x640  r34  2.0
    x640  r357  4.0
    x641  OBJ  9.0
    x641  r361  -4.0
    x642  OBJ  8.0
    x642  r164  2.0
    x642  r256  -4.0
    x642  r291  -1.0
    x643  OBJ  3.0
    x643  r185  -1.0
    x644  OBJ  7.0
    x644  r26  4.0
    x644  r79  -5.0
    x644  r192  -4.0
    x644  r219  2.0
    x645  OBJ  10.0
    x645  r12  -2.0
    x645  r99  -5.0
    x645  r104  -3.0
    x645  r143  -1.0
    x645  r218  -5.0
    x645  r261  -5.0
    x645  r290  -5.0
    x645  r351  1.0
    x646  OBJ  7.0
    x646  r17  4.0
    x646  r81  3.0
    x646  r362  4.0
    x647  OBJ  10.0
    x647  r118  3.0
    x647  r329  1.0
    x648  OBJ  7.0
    x648  r164  -5.0
    x648  r365  -4.0
    x649  OBJ  4.0
    x649  r99  1.0
    x649  r117  5.0
    x649  r164  1.0
    x649  r330  1.0
    x650  OBJ  6.0
    x650  r8  5.0
    x650  r34  4.0
    x650  r251  -3.0
    x651  OBJ  5.0
    x651  r264  -4.0
    x652  OBJ  1.0
    x652  r151  -2.0
    x652  r310  5.0
    x652  r313  -2.0
    x653  OBJ  4.0
    x653  r80  -3.0
    x653  r178  1.0
    x653  r362  -5.0
    x654  OBJ  3.0
    x654  r27  -2.0
    x654  r66  -1.0
    x654  r206  2.0
    x654  r303  3.0
    x654  r323  -2.0
    x655  OBJ  5.0
    x655  r65  2.0
    x655  r149  -4.0
    x655  r158  -3.0
    x656  OBJ  1.0
    x656  r50  -4.0
    x656  r173  2.0
    x656  r359  -1.0
    x656  r363  -3.0
    x657  OBJ  8.0
    x657  r20  -5.0
    x657  r281  -2.0
    x658  OBJ  4.0
    x658  r163  -1.0
    x658  r250  -4.0
    x658  r350  -3.0
    x659  OBJ  7.0
    x659  r12  -3.0
    x659  r225  -1.0
    x660  OBJ  2.0
    x660  r55  -4.0
    x660  r121  3.0
    x660  r130  -4.0
    x660  r152  2.0
    x660  r161  5.0
    x660  r317  -5.0
    x660  r330  -1.0
    x661  OBJ  4.0
    x661  r255  -3.0
    x661  r328  -2.0
    x661  r335  -2.0
    x662  OBJ  10.0
    x662  r96  2.0
    x662  r111  4.0
    x662  r119  -5.0
    x662  r184  -2.0
    x662  r267  -3.0
    x663  OBJ  4.0
    x663  r48  1.0
    x663  r52  -1.0
    x663  r124  4.0
    x663  r225  -4.0
    x664  OBJ  8.0
    x664  r98  1.0
    x664  r101  -4.0
    x664  r208  3.0
    x664  r289  -3.0
    x665  OBJ  5.0
    x665  r75  -2.0
    x665  r93  -3.0
    x666  OBJ  2.0
    x666  r135  -4.0
    x666  r300  -2.0
    x666  r308  1.0
    x666  r332  2.0
    x666  r381  -1.0
    x667  OBJ  1.0
    x667  r55  -3.0
    x667  r149  -1.0
    x667  r286  -4.0
    x667  r320  -1.0
    x668  OBJ  6.0
    x668  r54  3.0
    x668  r103  5.0
    x668  r224  -1.0
    x668  r322  3.0
    x669  OBJ  8.0
    x669  r26  -5.0
    x669  r92  -4.0
    x669  r118  4.0
    x669  r229  -3.0
    x669  r313  1.0
    x669  r351  -1.0
    x670  OBJ  4.0
    x670  r47  -3.0
    x670  r274  5.0
    x670  r394  -5.0
    x671  OBJ  4.0
    x671  r24  1.0
    x671  r77  -2.0
    x672  OBJ  3.0
    x672  r123  -3.0
    x672  r148  5.0
    x672  r226  -4.0
    x672  r299  4.0
    x672  r349  3.0
    x672  r352  -5.0
    x672  r375  -2.0
    x673  OBJ  1.0
    x673  r10  -3.0
    x673  r42  5.0
    x673  r119  -3.0
    x674  OBJ  1.0
    x674  r60  -5.0
    x674  r252  5.0
    x674  r333  1.0
    x675  OBJ  5.0
    x675  r69  -4.0
    x675  r188  2.0
    x675  r215  -5.0
    x675  r249  2.0
    x675  r307  3.0
    x676  OBJ  7.0
    x676  r379  -2.0
    x677  OBJ  7.0
    x677  r15  5.0
    x677  r182  2.0
    x677  r200  1.0
    x678  OBJ  10.0
    x678  r67  4.0
    x678  r294  -1.0
    x679  OBJ  3.0
    x679  r44  3.0
    x679  r336  -4.0
    x679  r396  5.0
    x680  OBJ  4.0
    x680  r117  -5.0
    x680  r253  -2.0
    x681  OBJ  4.0
    x681  r30  -4.0
    x681  r72  -4.0
    x681  r314  2.0
    x682  OBJ  4.0
    x682  r28  -3.0
    x682  r197  4.0
    x682  r336  -1.0
    x683  OBJ  2.0
    x683  r10  -3.0
    x683  r52  4.0
    x683  r167  5.0
    x683  r305  -4.0
    x683  r354  -5.0
    x683  r357  4.0
    x683  r397  1.0
    x684  OBJ  7.0
    x684  r37  3.0
    x684  r164  -2.0
    x685  OBJ  1.0
    x685  r3  -3.0
    x685  r114  -1.0
    x685  r122  -5.0
    x685  r280  1.0
    x686  OBJ  1.0
    x687  OBJ  2.0
    x687  r42  1.0
    x687  r83  -1.0
    x687  r328  2.0
    x688  OBJ  10.0
    x688  r11  -2.0
    x688  r28  -4.0
    x688  r276  -5.0
    x688  r286  -5.0
    x689  OBJ  7.0
    x689  r91  1.0
    x689  r108  -2.0
    x689  r177  -2.0
    x689  r232  -1.0
    x689  r239  2.0
    x690  OBJ  3.0
    x690  r71  2.0
    x690  r110  -1.0
    x690  r118  4.0
    x690  r276  -4.0
    x691  OBJ  5.0
    x691  r249  -4.0
    x691  r259  -1.0
    x691  r350  1.0
    x692  OBJ  2.0
    x692  r184  3.0
    x692  r222  -1.0
    x692  r256  -5.0
    x692  r279  4.0
    x692  r334  -5.0
    x693  OBJ  3.0
    x693  r267  3.0
    x693  r305  -4.0
    x693  r383  1.0
    x694  OBJ  6.0
    x694  r30  4.0
    x694  r286  -1.0
    x695  OBJ  5.0
    x695  r42  -1.0
    x695  r117  -2.0
    x695  r203  -2.0
    x696  OBJ  5.0
    x696  r134  2.0
    x696  r142  -5.0
    x696  r148  3.0
    x696  r354  -4.0
    x697  OBJ  9.0
    x697  r268  5.0
    x697  r352  4.0
    x698  OBJ  4.0
    x698  r209  -4.0
    x698  r341  1.0
    x699  OBJ  3.0
    x699  r74  -3.0
    x699  r189  -4.0
    x699  r273  3.0
    x699  r280  -1.0
    x699  r354  -2.0
    x700  OBJ  7.0
    x700  r33  -1.0
    x701  OBJ  8.0
    x702  OBJ  3.0
    x702  r235  -5.0
    x702  r330  5.0
    x702  r390  -3.0
    x703  OBJ  7.0
    x703  r17  4.0
    x703  r172  2.0
    x703  r287  -2.0
    x703  r311  -2.0
    x703  r349  2.0
    x704  OBJ  7.0
    x704  r135  -1.0
    x704  r147  -2.0
    x704  r192  -3.0
    x704  r225  -1.0
    x704  r252  1.0
    x704  r333  4.0
    x704  r397  -2.0
    x705  OBJ  4.0
    x705  r163  -3.0
    x706  OBJ  2.0
    x706  r136  -5.0
    x706  r156  -2.0
    x706  r343  -5.0
    x706  r352  1.0
    x707  OBJ  3.0
    x707  r31  -5.0
    x707  r92  -5.0
    x707  r129  5.0
    x708  OBJ  1.0
    x708  r1  5.0
    x708  r7  -2.0
    x708  r52  2.0
    x708  r72  2.0
    x708  r242  -2.0
    x709  OBJ  5.0
    x709  r110  -1.0
    x709  r145  4.0
    x709  r233  -5.0
    x709  r245  -4.0
    x709  r323  1.0
    x709  r331  3.0
    x710  OBJ  10.0
    x710  r53  -3.0
    x710  r70  2.0
    x710  r96  -3.0
    x710  r188  1.0
    x710  r294  -5.0
    x711  OBJ  1.0
    x711  r74  3.0
    x711  r245  2.0
    x711  r266  3.0
    x711  r288  1.0
    x712  OBJ  2.0
    x712  r66  5.0
    x712  r216  -3.0
    x712  r349  5.0
    x713  OBJ  10.0
    x713  r66  -1.0
    x713  r73  -4.0
    x713  r123  1.0
    x713  r230  -3.0
    x714  OBJ  8.0
    x714  r207  -2.0
    x714  r217  -4.0
    x714  r289  -4.0
    x714  r323  4.0
    x714  r383  4.0
    x715  OBJ  9.0
    x715  r57  1.0
    x715  r104  -3.0
    x715  r113  -5.0
    x715  r143  4.0
    x715  r148  -4.0
    x715  r160  5.0
    x716  OBJ  4.0
    x716  r30  -1.0
    x716  r328  -2.0
    x716  r344  1.0
    x717  OBJ  5.0
    x717  r90  -5.0
    x717  r201  -5.0
    x718  OBJ  3.0
    x718  r27  -2.0
    x718  r42  4.0
    x718  r95  -2.0
    x718  r263  -3.0
    x718  r301  -4.0
    x718  r328  2.0
    x718  r342  3.0
    x719  OBJ  7.0
    x719  r15  -5.0
    x719  r350  5.0
    x720  OBJ  4.0
    x720  r154  2.0
    x720  r176  5.0
    x720  r273  -3.0
    x720  r295  -3.0
    x720  r308  -5.0
    x721  OBJ  8.0
    x721  r212  3.0
    x722  OBJ  3.0
    x722  r195  2.0
    x722  r294  -4.0
    x722  r298  -4.0
    x723  OBJ  10.0
    x723  r38  1.0
    x723  r90  -3.0
    x723  r96  4.0
    x723  r157  5.0
    x724  OBJ  2.0
    x724  r23  2.0
    x724  r181  3.0
    x725  OBJ  6.0
    x725  r140  -4.0
    x725  r157  -4.0
    x725  r175  -3.0
    x725  r280  4.0
    x725  r303  -2.0
    x725  r305  1.0
    x725  r317  5.0
    x726  OBJ  4.0
    x726  r42  5.0
    x726  r87  -1.0
    x726  r168  2.0
    x727  OBJ  3.0
    x727  r295  5.0
    x728  OBJ  7.0
    x728  r37  -2.0
    x728  r48  -2.0
    x728  r89  2.0
    x728  r228  3.0
    x728  r244  -3.0
    x728  r300  -5.0
    x729  OBJ  2.0
    x729  r45  4.0
    x729  r91  -3.0
    x730  OBJ  8.0
    x730  r375  -5.0
    x731  OBJ  8.0
    x731  r37  4.0
    x731  r72  1.0
    x731  r99  2.0
    x731  r114  -1.0
    x732  OBJ  8.0
    x732  r7  4.0
    x732  r134  -1.0
    x732  r151  2.0
    x732  r271  1.0
    x733  OBJ  3.0
    x733  r71  3.0
    x733  r86  -1.0
    x733  r153  1.0
    x733  r391  -5.0
    x734  OBJ  4.0
    x734  r9  3.0
    x734  r190  -4.0
    x734  r284  -2.0
    x734  r336  -1.0
    x735  OBJ  4.0
    x735  r190  -2.0
    x735  r262  -5.0
    x735  r321  -3.0
    x736  OBJ  2.0
    x736  r62  5.0
    x736  r352  -3.0
    x736  r360  3.0
    x737  OBJ  8.0
    x737  r95  5.0
    x737  r214  -3.0
    x738  OBJ  10.0
    x738  r57  -3.0
    x738  r79  2.0
    x738  r106  -2.0
    x738  r153  1.0
    x738  r176  2.0
    x738  r377  3.0
    x739  OBJ  7.0
    x739  r189  4.0
    x739  r396  -3.0
    x740  OBJ  10.0
    x740  r190  1.0
    x740  r373  -5.0
    x741  OBJ  3.0
    x741  r69  -3.0
    x741  r87  1.0
    x741  r194  -5.0
    x741  r203  4.0
    x741  r283  -3.0
    x741  r372  -4.0
    x742  OBJ  8.0
    x742  r12  3.0
    x742  r54  -4.0
    x742  r165  -4.0
    x742  r226  -3.0
    x742  r309  3.0
    x742  r396  -4.0
    x743  OBJ  8.0
    x743  r100  -3.0
    x743  r284  5.0
    x744  OBJ  8.0
    x744  r119  2.0
    x744  r307  -3.0
    x744  r355  2.0
    x745  OBJ  9.0
    x746  OBJ  2.0
    x746  r176  -3.0
    x747  OBJ  3.0
    x747  r89  4.0
    x747  r140  5.0
    x747  r171  -3.0
    x747  r194  -2.0
    x747  r338  -4.0
    x747  r351  5.0
    x748  OBJ  3.0
    x748  r11  3.0
    x748  r152  3.0
    x748  r272  -3.0
    x748  r364  1.0
    x749  OBJ  4.0
    x749  r32  -5.0
    x749  r106  5.0
    x749  r294  -3.0
    x749  r367  1.0
    x750  OBJ  1.0
    x750  r4  3.0
    x750  r148  1.0
    x750  r253  3.0
    x750  r308  1.0
    x750  r378  1.0
    x751  OBJ  3.0
    x751  r214  5.0
    x751  r219  -1.0
    x751  r256  5.0
    x751  r370  -5.0
    x752  OBJ  6.0
    x752  r95  5.0
    x752  r327  3.0
    x753  OBJ  3.0
    x753  r39  4.0
    x753  r170  5.0
    x753  r188  -5.0
    x753  r205  -4.0
    x753  r382  3.0
    x754  OBJ  1.0
    x754  r0  5.0
    x754  r188  5.0
    x754  r237  4.0
    x754  r257  3.0
    x754  r291  4.0
    x754  r311  3.0
    x755  OBJ  1.0
    x755  r342  -4.0
    x756  OBJ  5.0
    x756  r18  -2.0
    x756  r169  -4.0
    x756  r215  1.0
    x756  r264  -4.0
    x756  r367  2.0
    x757  OBJ  3.0
    x757  r110  5.0
    x757  r126  -4.0
    x757  r195  -3.0
    x757  r258  -3.0
    x758  OBJ  2.0
    x758  r335  4.0
    x759  OBJ  3.0
    x759  r226  -2.0
    x759  r352  -1.0
    x759  r371  4.0
    x760  OBJ  3.0
    x760  r139  2.0
    x761  OBJ  3.0
    x761  r185  1.0
    x761  r221  -5.0
    x761  r246  -2.0
    x761  r297  -4.0
    x761  r352  4.0
    x762  OBJ  4.0
    x762  r109  -3.0
    x762  r199  5.0
    x762  r273  4.0
    x762  r361  -5.0
    x762  r379  4.0
    x763  OBJ  6.0
    x763  r100  -4.0
    x763  r191  -4.0
    x764  OBJ  1.0
    x764  r4  -3.0
    x764  r305  -1.0
    x765  OBJ  8.0
    x765  r49  1.0
    x765  r165  -2.0
    x766  OBJ  5.0
    x766  r79  2.0
    x766  r82  2.0
    x766  r204  -2.0
    x766  r223  -5.0
    x767  OBJ  5.0
    x767  r4  -2.0
    x767  r92  5.0
    x767  r166  5.0
    x767  r220  1.0
    x767  r261  5.0
    x767  r283  4.0
    x767  r304  -5.0
    x767  r310  -1.0
    x767  r353  1.0
    x767  r399  -3.0
    x768  OBJ  2.0
    x768  r7  -3.0
    x768  r152  2.0
    x768  r307  -3.0
    x769  OBJ  10.0
    x769  r239  2.0
    x769  r324  -3.0
    x769  r336  5.0
    x769  r359  4.0
    x770  OBJ  9.0
    x770  r33  -5.0
    x770  r112  -1.0
    x770  r212  2.0
    x770  r249  -4.0
    x770  r335  -1.0
    x771  OBJ  1.0
    x771  r288  -4.0
    x771  r307  2.0
    x771  r389  4.0
    x772  OBJ  1.0
    x772  r186  -4.0
    x772  r250  2.0
    x772  r303  5.0
    x772  r315  -2.0
    x772  r398  2.0
    x773  OBJ  4.0
    x773  r72  -5.0
    x773  r128  -2.0
    x773  r193  3.0
    x773  r240  4.0
    x773  r359  2.0
    x773  r372  -2.0
    x773  r373  3.0
    x774  OBJ  1.0
    x774  r148  -2.0
    x774  r155  -2.0
    x774  r189  -2.0
    x775  OBJ  2.0
    x775  r101  4.0
    x775  r395  -3.0
    x776  OBJ  3.0
    x776  r370  -3.0
    x777  OBJ  2.0
    x777  r70  -2.0
    x777  r144  1.0
    x777  r158  -3.0
    x777  r273  -2.0
    x777  r321  4.0
    x777  r331  1.0
    x777  r359  3.0
    x778  OBJ  7.0
    x778  r92  -5.0
    x778  r162  -1.0
    x778  r291  -3.0
    x779  OBJ  3.0
    x779  r215  -2.0
    x780  OBJ  4.0
    x780  r118  -4.0
    x780  r136  -4.0
    x780  r150  -3.0
    x780  r256  3.0
    x781  OBJ  5.0
    x781  r17  4.0
    x781  r38  1.0
    x781  r251  5.0
    x781  r293  -3.0
    x781  r305  -2.0
    x782  OBJ  2.0
    x783  OBJ  6.0
    x783  r19  -1.0
    x783  r144  -3.0
    x783  r233  2.0
    x783  r355  -5.0
    x783  r385  -3.0
    x784  OBJ  4.0
    x784  r146  5.0
    x784  r314  -4.0
    x785  OBJ  2.0
    x785  r73  -2.0
    x785  r294  3.0
    x785  r295  -3.0
    x786  OBJ  3.0
    x786  r2  -2.0
    x786  r32  4.0
    x787  OBJ  3.0
    x787  r58  -3.0
    x787  r62  4.0
    x787  r234  3.0
    x787  r388  -4.0
    x788  OBJ  5.0
    x788  r4  4.0
    x788  r59  -1.0
    x788  r84  3.0
    x788  r177  2.0
    x788  r392  -4.0
    x789  OBJ  3.0
    x789  r17  4.0
    x789  r237  -3.0
    x790  OBJ  4.0
    x790  r137  -2.0
    x790  r190  1.0
    x790  r192  -3.0
    x790  r233  3.0
    x790  r277  5.0
    x791  OBJ  4.0
    x791  r12  -3.0
    x791  r115  2.0
    x791  r209  1.0
    x791  r290  3.0
    x791  r359  5.0
    x791  r392  -3.0
    x792  OBJ  1.0
    x792  r39  5.0
    x792  r233  1.0
    x792  r252  5.0
    x792  r343  -1.0
    x793  OBJ  9.0
    x793  r110  -1.0
    x793  r146  -4.0
    x793  r289  1.0
    x793  r368  -2.0
    x793  r387  -2.0
    x794  OBJ  2.0
    x794  r88  -1.0
    x794  r107  -5.0
    x794  r248  -5.0
    x795  OBJ  4.0
    x795  r64  2.0
    x795  r222  -5.0
    x795  r227  -3.0
    x795  r249  3.0
    x795  r257  2.0
    x796  OBJ  4.0
    x796  r46  -2.0
    x796  r81  -4.0
    x796  r144  3.0
    x796  r149  -3.0
    x796  r253  4.0
    x796  r320  -1.0
    x797  OBJ  4.0
    x797  r64  -1.0
    x797  r281  -4.0
    x797  r299  4.0
    x797  r301  -4.0
    x798  OBJ  5.0
    x798  r45  -5.0
    x798  r120  -1.0
    x798  r186  -4.0
    x798  r239  -4.0
    x798  r346  -3.0
    x799  OBJ  8.0
    x799  r60  -4.0
    x799  r67  5.0
    x799  r109  -3.0
    x799  r122  5.0
    x799  r198  4.0
    x799  r276  1.0
    x799  r320  -4.0
RHS
    RHS  r0  9.0
    RHS  r1  -12.0
    RHS  r2  14.0
    RHS  r3  -4.0
    RHS  r4  7.0
    RHS  r5  6.0
    RHS  r7  9.0
    RHS  r8  5.0
    RHS  r9  4.0
    RHS  r10  -4.0
    RHS  r11  -8.0
    RHS  r14  -4.0
    RHS  r15  -5.0
    RHS  r16  1.0
    RHS  r17  -5.0
    RHS  r18  -13.0
    RHS  r20  5.0
    RHS  r21  -8.0
    RHS  r22  -9.0
    RHS  r23  10.0
    RHS  r24  -9.0
    RHS  r25  -4.0
    RHS  r26  24.0
    RHS  r27  2.0
    RHS  r28  -1.0
    RHS  r29  -1.0
    RHS  r30  5.0
    RHS  r31  -5.0
    RHS  r32  3.0
    RHS  r33  -3.0
    RHS  r34  -6.0
    RHS  r35  -6.0
    RHS  r36  6.0
    RHS  r37  -30.0
    RHS  r38  -1.0
    RHS  r40  -9.0
    RHS  r41  -5.0
    RHS  r42  22.0
    RHS  r43  6.0
    RHS  r44  -8.0
    RHS  r46  -6.0
    RHS  r47  15.0
    RHS  r48  -11.0
    RHS  r50  2.0
    RHS  r51  -21.0
    RHS  r52  2.0
    RHS  r53  -1.0
    RHS  r54  -8.0
    RHS  r55  -5.0
    RHS  r56  7.0
    RHS  r57  -6.0
    RHS  r59  13.0
    RHS  r60  -12.0
    RHS  r62  9.0
    RHS  r63  6.0
    RHS  r64  -14.0
    RHS  r65  5.0
    RHS  r66  -9.0
    RHS  r67  3.0
    RHS  r68  18.0
    RHS  r70  3.0
    RHS  r71  -17.0
    RHS  r72  1.0
    RHS  r73  -6.0
    RHS  r74  11.0
    RHS  r75  -15.0
    RHS  r76  -1.0
    RHS  r77  -36.0
    RHS  r78  -9.0
    RHS  r79  -13.0
    RHS  r80  2.0
    RHS  r81  -10.0
    RHS  r82  6.0
    RHS  r83  -15.0
    RHS  r85  -16.0
    RHS  r87  -10.0
    RHS  r88  -8.0
    RHS  r89  8.0
    RHS  r90  -20.0
    RHS  r92  -6.0
    RHS  r93  -15.0
    RHS  r94  -8.0
    RHS  r95  -6.0
    RHS  r96  1.0
    RHS  r97  39.0
    RHS  r98  3.0
    RHS  r99  -2.0
    RHS  r100  -6.0
    RHS  r102  7.0
    RHS  r103  -4.0
    RHS  r104  2.0
    RHS  r105  6.0
    RHS  r106  7.0
    RHS  r107  4.0
    RHS  r108  -3.0
    RHS  r109  30.0
    RHS  r110  1.0
    RHS  r111  7.0
    RHS  r112  5.0
    RHS  r113  7.0
    RHS  r114  -3.0
    RHS  r115  -3.0
    RHS  r116  27.0
    RHS  r117  8.0
    RHS  r118  -31.0
    RHS  r119  -5.0
    RHS  r120  8.0
    RHS  r121  -15.0
    RHS  r122  -10.0
    RHS  r123  1.0
    RHS  r124  27.0
    RHS  r127  6.0
    RHS  r129  -4.0
    RHS  r130  2.0
    RHS  r133  3.0
    RHS  r134  -14.0
    RHS  r135  16.0
    RHS  r136  -7.0
    RHS  r137  -15.0
    RHS  r138  -1.0
    RHS  r139  4.0
    RHS  r140  -12.0
    RHS  r141  1.0
    RHS  r142  -12.0
    RHS  r143  -21.0
    RHS  r144  15.0
    RHS  r145  4.0
    RHS  r146  -7.0
    RHS  r147  8.0
    RHS  r148  7.0
    RHS  r149  3.0
    RHS  r150  -18.0
    RHS  r151  -5.0
    RHS  r152  12.0
    RHS  r153  3.0
    RHS  r154  6.0
    RHS  r156  2.0
    RHS  r157  -15.0
    RHS  r158  -8.0
    RHS  r159  12.0
    RHS  r160  9.0
    RHS  r161  7.0
    RHS  r162  10.0
    RHS  r163  -7.0
    RHS  r164  -9.0
    RHS  r165  11.0
    RHS  r166  -9.0
    RHS  r167  5.0
    RHS  r168  7.0
    RHS  r169  -6.0
    RHS  r170  2.0
    RHS  r171  -32.0
    RHS  r172  -13.0
    RHS  r173  -18.0
    RHS  r174  -6.0
    RHS  r175  12.0
    RHS  r176  9.0
    RHS  r179  -12.0
    RHS  r181  -4.0
    RHS  r182  2.0
    RHS  r183  16.0
    RHS  r184  -1.0
    RHS  r185  12.0
    RHS  r186  2.0
    RHS  r187  -4.0
    RHS  r188  11.0
    RHS  r189  -16.0
    RHS  r190  -1.0
    RHS  r191  -9.0
    RHS  r192  -24.0
    RHS  r194  -6.0
    RHS  r195  4.0
    RHS  r196  -16.0
    RHS  r197  15.0
    RHS  r198  13.0
    RHS  r199  5.0
    RHS  r200  -6.0
    RHS  r201  -12.0
    RHS  r202  3.0
    RHS  r203  -10.0
    RHS  r204  -2.0
    RHS  r205  6.0
    RHS  r207  -3.0
    RHS  r208  14.0
    RHS  r209  7.0
    RHS  r210  5.0
    RHS  r211  6.0
    RHS  r212  -9.0
    RHS  r213  1.0
    RHS  r214  -9.0
    RHS  r215  -4.0
    RHS  r217  -16.0
    RHS  r218  1.0
    RHS  r219  1.0
    RHS  r220  -10.0
    RHS  r221  9.0
    RHS  r222  -8.0
    RHS  r223  -3.0
    RHS  r224  5.0
    RHS  r225  6.0
    RHS  r226  -8.0
    RHS  r228  -5.0
    RHS  r229  -30.0
    RHS  r230  10.0
    RHS  r231  12.0
    RHS  r232  -21.0
    RHS  r233  -17.0
    RHS  r234  5.0
    RHS  r235  10.0
    RHS  r236  21.0
    RHS  r237  16.0
    RHS  r238  -6.0
    RHS  r239  -10.0
    RHS  r240  -12.0
    RHS  r241  13.0
    RHS  r242  -12.0
    RHS  r243  -20.0
    RHS  r244  -12.0
    RHS  r245  -9.0
    RHS  r246  4.0
    RHS  r247  -25.0
    RHS  r248  -1.0
    RHS  r249  -6.0
    RHS  r250  10.0
    RHS  r251  -3.0
    RHS  r252  -3.0
    RHS  r253  -21.0
    RHS  r254  8.0
    RHS  r255  -16.0
    RHS  r256  -9.0
    RHS  r257  14.0
    RHS  r258  -4.0
    RHS  r259  12.0
    RHS  r260  -8.0
    RHS  r261  8.0
    RHS  r262  -8.0
    RHS  r263  -6.0
    RHS  r264  -8.0
    RHS  r266  -7.0
    RHS  r267  -12.0
    RHS  r268  4.0
    RHS  r269  -15.0
    RHS  r270  2.0
    RHS  r271  -2.0
    RHS  r272  -1.0
    RHS  r274  -3.0
    RHS  r275  1.0
    RHS  r276  14.0
    RHS  r277  4.0
    RHS  r278  -19.0
    RHS  r279  18.0
    RHS  r280  -25.0
    RHS  r282  6.0
    RHS  r283  20.0
    RHS  r284  16.0
    RHS  r286  -4.0
    RHS  r287  8.0
    RHS  r288  9.0
    RHS  r289  4.0
    RHS  r290  6.0
    RHS  r291  3.0
    RHS  r292  -8.0
    RHS  r293  -2.0
    RHS  r294  -6.0
    RHS  r295  39.0
    RHS  r296  -2.0
    RHS  r297  15.0
    RHS  r298  -20.0
    RHS  r299  -20.0
    RHS  r300  -18.0
    RHS  r301  -11.0
    RHS  r303  -1.0
    RHS  r304  -9.0
    RHS  r305  -2.0
    RHS  r306  5.0
    RHS  r308  2.0
    RHS  r309  -3.0
    RHS  r310  2.0
    RHS  r311  -1.0
    RHS  r312  3.0
    RHS  r313  14.0
    RHS  r315  -22.0
    RHS  r316  8.0
    RHS  r317  -6.0
    RHS  r318  -4.0
    RHS  r319  21.0
    RHS  r320  19.0
    RHS  r322  15.0
    RHS  r323  -1.0
    RHS  r324  -19.0
    RHS  r325  2.0
    RHS  r326  -21.0
    RHS  r327  -6.0
    RHS  r328  12.0
    RHS  r329  15.0
    RHS  r330  12.0
    RHS  r331  1.0
    RHS  r332  6.0
    RHS  r333  10.0
    RHS  r334  9.0
    RHS  r335  2.0
    RHS  r336  -3.0
    RHS  r337  -3.0
    RHS  r339  -2.0
    RHS  r340  -8.0
    RHS  r341  20.0
    RHS  r342  8.0
    RHS  r343  -12.0
    RHS  r344  6.0
    RHS  r345  8.0
    RHS  r348  -16.0
    RHS  r349  4.0
    RHS  r350  -2.0
    RHS  r351  -17.0
    RHS  r352  -22.0
    RHS  r353  -20.0
    RHS  r357  8.0
    RHS  r358  15.0
    RHS  r359  20.0
    RHS  r360  -16.0
    RHS  r361  2.0
    RHS  r362  23.0
    RHS  r363  15.0
    RHS  r364  -15.0
    RHS  r365  -1.0
    RHS  r366  2.0
    RHS  r367  4.0
    RHS  r368  -3.0
    RHS  r369  6.0
    RHS  r370  -2.0
    RHS  r371  16.0
    RHS  r372  -2.0
    RHS  r375  21.0
    RHS  r376  16.0
    RHS  r380  -5.0
    RHS  r381  -11.0
    RHS  r382  28.0
    RHS  r383  25.0
    RHS  r384  -4.0
    RHS  r385  3.0
    RHS  r386  -1.0
    RHS  r387  -4.0
    RHS  r388  7.0
    RHS  r389  5.0
    RHS  r391  19.0
    RHS  r392  9.0
    RHS  r394  5.0
    RHS  r395  -16.0
    RHS  r396  10.0
    RHS  r397  9.0
    RHS  r398  -23.0
    RHS  r399  2.0
RANGES
BOUNDS
 UP BND  x0  10.0
 UP BND  x1  10.0
 UP BND  x2  10.0
 UP BND  x3  10.0
 UP BND  x4  10.0
 UP BND  x5  10.0
 UP BND  x6  10.0
 UP BND  x7  10.0
 UP BND  x8  10.0
 UP BND  x9  10.0
 UP BND  x10  10.0
 UP BND  x11  10.0
 UP BND  x12  10.0
 UP BND  x13  10.0
 UP BND  x14  10.0
 UP BND  x15  10.0
 UP BND  x16  10.0
 UP BND  x17  10.0
 UP BND  x18  10.0
 UP BND  x19  10.0
 UP BND  x20  10.0
 UP BND  x21  10.0
 UP BND  x22  10.0
 UP BND  x23  10.0
 UP BND  x24  10.0
 UP BND  x25  10.0
 UP BND  x26  10.0
 UP BND  x27  10.0
 UP BND  x28  10.0
 UP BND  x29  10.0
 UP BND  x30  10.0
 UP BND  x31  10.0
 UP BND  x32  10.0
 UP BND  x33  10.0
 UP BND  x34  10.0
 UP BND  x35  10.0
 UP BND  x36  10.0
 UP BND  x37  10.0
 UP BND  x38  10.0
 UP BND  x39  10.0
 UP BND  x40  10.0
 UP BND  x41  10.0
 UP BND  x42  10.0
 UP BND  x43  10.0
 UP BND  x44  10.0
 UP BND  x45  10.0
 UP BND  x46  10.0
 UP BND  x47  10.0
 UP BND  x48  10.0
 UP BND  x49  10.0
 UP BND  x50  10.0
 UP BND  x51  10.0
 UP BND  x52  10.0
 UP BND  x53  10.0
 UP BND  x54  10.0
 UP BND  x55  10.0
 UP BND  x56  10.0
 UP BND  x57  10.0
 UP BND  x58  10.0
 UP BND  x59  10.0
 UP BND  x60  10.0
 UP BND  x61  10.0
 UP BND  x62  10.0
 UP BND  x63  10.0
 UP BND  x64  10.0
 UP BND  x65  10.0
 UP BND  x66  10.0
 UP BND  x67  10.0
 UP BND  x68  10.0
 UP BND  x69  10.0
 UP BND  x70  10.0
 UP BND  x71  10.0
 UP BND  x72  10.0
 UP BND  x73  10.0
 UP BND  x74  10.0
 UP BND  x75  10.0
 UP BND  x76  10.0
 UP BND  x77  10.0
 UP BND  x78  10.0
 UP BND  x79  10.0
 UP BND  x80  10.0
 UP BND  x81  10.0
 UP BND  x82  10.0
 UP BND  x83  10.0
 UP BND  x84  10.0
 UP BND  x85  10.0
 UP BND  x86  10.0
 UP BND  x87  10.0
 UP BND  x88  10.0
 UP BND  x89  10.0
 UP BND  x90  10.0
 UP BND  x91  10.0
 UP BND  x92  10.0
 UP BND  x93  10.0
 UP BND  x94  10.0
 UP BND  x95  10.0
 UP BND  x96  10.0
 UP BND  x97  10.0
 UP BND  x98  10.0
 UP BND  x99  10.0
 UP BND  x100  10.0
 UP BND  x101  10.0
 UP BND  x102  10.0
 UP BND  x103  10.0
 UP BND  x104  10.0
 UP BND  x105  10.0
 UP BND  x106  10.0
 UP BND  x107  10.0
 UP BND  x108  10.0
 UP BND  x109  10.0
 UP BND  x110  10.0
 UP BND  x111  10.0
 UP BND  x112  10.0
 UP BND  x113  10.0
 UP BND  x114  10.0
 UP BND  x115  10.0
 UP BND  x116  10.0
 UP BND  x117  10.0
 UP BND  x118  10.0
 UP BND  x119  10.0
 UP BND  x120  10.0
 UP BND  x121  10.0
 UP BND  x122  10.0
 UP BND  x123  10.0
 UP BND  x124  10.0
 UP BND  x125  10.0
 UP BND  x126  10.0
 UP BND  x127  10.0
 UP BND  x128  10.0
 UP BND  x129  10.0
 UP BND  x130  10.0
 UP BND  x131  10.0
 UP BND  x132  10.0
 UP BND  x133  10.0
 UP BND  x134  10.0
 UP BND  x135  10.0
 UP BND  x136  10.0
 UP BND  x137  10.0
 UP BND  x138  10.0
 UP BND  x139  10.0
 UP BND  x140  10.0
 UP BND  x141  10.0
 UP BND  x142  10.0
 UP BND  x143  10.0
 UP BND  x144  10.0
 UP BND  x145  10.0
 UP BND  x146  10.0
 UP BND  x147  10.0
 UP BND  x148  10.0
 UP BND  x149  10.0
 UP BND  x150  10.0
 UP BND  x151  10.0
 UP BND  x152  10.0
 UP BND  x153  10.0
 UP BND  x154  10.0
 UP BND  x155  10.0
 UP BND  x156  10.0
 UP BND  x157  10.0
 UP BND  x158  10.0
 UP BND  x159  10.0
 UP BND  x160  10.0
 UP BND  x161  10.0
 UP BND  x162  10.0
 UP BND  x163  10.0
 UP BND  x164  10.0
 UP BND  x165  10.0
 UP BND  x166  10.0
 UP BND  x167  10.0
 UP BND  x168  10.0
 UP BND  x169  10.0
 UP BND  x170  10.0
 UP BND  x171  10.0
 UP BND  x172  10.0
 UP BND  x173  10.0
 UP BND  x174  10.0
 UP BND  x175  10.0
 UP BND  x176  10.0
 UP BND  x177  10.0
 UP BND  x178  10.0
 UP BND  x179  10.0
 UP BND  x180  10.0
 UP BND  x181  10.0
 UP BND  x182  10.0
 UP BND  x183  10.0
 UP BND  x184  10.0
 UP BND  x185  10.0
 UP BND  x186  10.0
 UP BND  x187  10.0
 UP BND  x188  10.0
 UP BND  x189  10.0
 UP BND  x190  10.0
 UP BND  x191  10.0
 UP BND  x192  10.0
 UP BND  x193  10.0
 UP BND  x194  10.0
 UP BND  x195  10.0
 UP BND  x196  10.0
 UP BND  x197  10.0
 UP BND  x198  10.0
 UP BND  x199  10.0
 UP BND  x200  10.0
 UP BND  x201  10.0
 UP BND  x202  10.0
 UP BND  x203  10.0
 UP BND  x204  10.0
 UP BND  x205  10.0
 UP BND  x206  10.0
 UP BND  x207  10.0
 UP BND  x208  10.0
 UP BND  x209  10.0
 UP BND  x210  10.0
 UP BND  x211  10.0
 UP BND  x212  10.0
 UP BND  x213  10.0
 UP BND  x214  10.0
 UP BND  x215  10.0
 UP BND  x216  10.0
 UP BND  x217  10.0
 UP BND  x218  10.0
 UP BND  x219  10.0
 UP BND  x220  10.0
 UP BND  x221  10.0
 UP BND  x222  10.0
 UP BND  x223  10.0
 UP BND  x224  10.0
 UP BND  x225  10.0
 UP BND  x226  10.0
 UP BND  x227  10.0
 UP BND  x228  10.0
 UP BND  x229  10.0
 UP BND  x230  10.0
 UP BND  x231  10.0
 UP BND  x232  10.0
 UP BND  x233  10.0
 UP BND  x234  10.0
 UP BND  x235  10.0
 UP BND  x236  10.0
 UP BND  x237  10.0
 UP BND  x238  10.0
 UP BND  x239  10.0
 UP BND  x240  10.0
 UP BND  x241  10.0
 UP BND  x242  10.0
 UP BND  x243  10.0
 UP BND  x244  10.0
 UP BND  x245  10.0
 UP BND  x246  10.0
 UP BND  x247  10.0
 UP BND  x248  10.0
 UP BND  x249  10.0
 UP BND  x250  10.0
 UP BND  x251  10.0
 UP BND  x252  10.0
 UP BND  x253  10.0
 UP BND  x254  10.0
 UP BND  x255  10.0
 UP BND  x256  10.0
 UP BND  x257  10.0
 UP BND  x258  10.0
 UP BND  x259  10.0
 UP BND  x260  10.0
 UP BND  x261  10.0
 UP BND  x262  10.0
 UP BND  x263  10.0
 UP BND  x264  10.0
 UP BND  x265  10.0
 UP BND  x266  10.0
 UP BND  x267  10.0
 UP BND  x268  10.0
 UP BND  x269  10.0
 UP BND  x270  10.0
 UP BND  x271  10.0
 UP BND  x272  10.0
 UP BND  x273  10.0
 UP BND  x274  10.0
 UP BND  x275  10.0
 UP BND  x276  10.0
 UP BND  x277  10.0
 UP BND  x278  10.0
 UP BND  x279  10.0
 UP BND  x280  10.0
 UP BND  x281  10.0
 UP BND  x282  10.0
 UP BND  x283  10.0
 UP BND  x284  10.0
 UP BND  x285  10.0
 UP BND  x286  10.0
 UP BND  x287  10.0
 UP BND  x288  10.0
 UP BND  x289  10.0
 UP BND  x290  10.0
 UP BND  x291  10.0
 UP BND  x292  10.0
 UP BND  x293  10.0
 UP BND  x294  10.0
 UP BND  x295  10.0
 UP BND  x296  10.0
 UP BND  x297  10.0
 UP BND  x298  10.0
 UP BND  x299  10.0
 UP BND  x300  10.0
 UP BND  x301  10.0
 UP BND  x302  10.0
 UP BND  x303  10.0
 UP BND  x304  10.0
 UP BND  x305  10.0
 UP BND  x306  10.0
 UP BND  x307  10.0
 UP BND  x308  10.0
 UP BND  x309  10.0
 UP BND  x310  10.0
 UP BND  x311  10.0
 UP BND  x312  10.0
 UP BND  x313  10.0
 UP BND  x314  10.0
 UP BND  x315  10.0
 UP BND  x316  10.0
 UP BND  x317  10.0
 UP BND  x318  10.0
 UP BND  x319  10.0
 UP BND  x320  10.0
 UP BND  x321  10.0
 UP BND  x322  10.0
 UP BND  x323  10.0
 UP BND  x324  10.0
 UP BND  x325  10.0
 UP BND  x326  10.0
 UP BND  x327  10.0
 UP BND  x328  10.0
 UP BND  x329  10.0
 UP BND  x330  10.0
 UP BND  x331  10.0
 UP BND  x332  10.0
 UP BND  x333  10.0
 UP BND  x334  10.0
 UP BND  x335  10.0
 UP BND  x336  10.0
 UP BND  x337  10.0
 UP BND  x338  10.0
 UP BND  x339  10.0
 UP BND  x340  10.0
 UP BND  x341  10.0
 UP BND  x342  10.0
 UP BND  x343  10.0
 UP BND  x344  10.0
 UP BND  x345  10.0
 UP BND  x346  10.0
 UP BND  x347  10.0
 UP BND  x348  10.0
 UP BND  x349  10.0
 UP BND  x350  10.0
 UP BND  x351  10.0
 UP BND  x352  10.0
 UP BND  x353  10.0
 UP BND  x354  10.0
 UP BND  x355  10.0
 UP BND  x356  10.0
 UP BND  x357  10.0
 UP BND  x358  10.0
 UP BND  x359  10.0
 UP BND  x360  10.0
 UP BND  x361  10.0
 UP BND  x362  10.0
 UP BND  x363  10.0
 UP BND  x364  10.0
 UP BND  x365  10.0
 UP BND  x366  10.0
 UP BND  x367  10.0
 UP BND  x368  10.0
 UP BND  x369  10.0
 UP BND  x370  10.0
 UP BND  x371  10.0
 UP BND  x372  10.0
 UP BND  x373  10.0
 UP BND  x374  10.0
 UP BND  x375  10.0
 UP BND  x376  10.0
 UP BND  x377  10.0
 UP BND  x378  10.0
 UP BND  x379  10.0
 UP BND  x380  10.0
 UP BND  x381  10.0
 UP BND  x382  10.0
 UP BND  x383  10.0
 UP BND  x384  10.0
 UP BND  x385  10.0
 UP BND  x386  10.0
 UP BND  x387  10.0
 UP BND  x388  10.0
 UP BND  x389  10.0
 UP BND  x390  10.0
 UP BND  x391  10.0
 UP BND  x392  10.0
 UP BND  x393  10.0
 UP BND  x394  10.0
 UP BND  x395  10.0
 UP BND  x396  10.0
 UP BND  x397  10.0
 UP BND  x398  10.0
 UP BND  x399  10.0
 UP BND  x400  10.0
 UP BND  x401  10.0
 UP BND  x402  10.0
 UP BND  x403  10.0
 UP BND  x404  10.0
 UP BND  x405  10.0
 UP BND  x406  10.0
 UP BND  x407  10.0
 UP BND  x408  10.0
 UP BND  x409  10.0
 UP BND  x410  10.0
 UP BND  x411  10.0
 UP BND  x412  10.0
 UP BND  x413  10.0
 UP BND  x414  10.0
 UP BND  x415  10.0
 UP BND  x416  10.0
 UP BND  x417  10.0
 UP BND  x418  10.0
 UP BND  x419  10.0
 UP BND  x420  10.0
 UP BND  x421  10.0
 UP BND  x422  10.0
 UP BND  x423  10.0
 UP BND  x424  10.0
 UP BND  x425  10.0
 UP BND  x426  10.0
 UP BND  x427  10.0
 UP BND  x428  10.0
 UP BND  x429  10.0
 UP BND  x430  10.0
 UP BND  x431  10.0
 UP BND  x432  10.0
 UP BND  x433  10.0
 UP BND  x434  10.0
 UP BND  x435  10.0
 UP BND  x436  10.0
 UP BND  x437  10.0
 UP BND  x438  10.0
 UP BND  x439  10.0
 UP BND  x440  10.0
 UP BND  x441  10.0
 UP BND  x442  10.0
 UP BND  x443  10.0
 UP BND  x444  10.0
 UP BND  x445  10.0
 UP BND  x446  10.0
 UP BND  x447  10.0
 UP BND  x448  10.0
 UP BND  x449  10.0
 UP BND  x450  10.0
 UP BND  x451  10.0
 UP BND  x452  10.0
 UP BND  x453  10.0
 UP BND  x454  10.0
 UP BND  x455  10.0
 UP BND  x456  10.0
 UP BND  x457  10.0
 UP BND  x458  10.0
 UP BND  x459  10.0
 UP BND  x460  10.0
 UP BND  x461  10.0
 UP BND  x462  10.0
 UP BND  x463  10.0
 UP BND  x464  10.0
 UP BND  x465  10.0
 UP BND  x466  10.0
 UP BND  x467  10.0
 UP BND  x468  10.0
 UP BND  x469  10.0
 UP BND  x470  10.0
 UP BND  x471  10.0
 UP BND  x472  10.0
 UP BND  x473  10.0
 UP BND  x474  10.0
 UP BND  x475  10.0
 UP BND  x476  10.0
 UP BND  x477  10.0
 UP BND  x478  10.0
 UP BND  x479  10.0
 UP BND  x480  10.0
 UP BND  x481  10.0
 UP BND  x482  10.0
 UP BND  x483  10.0
 UP BND  x484  10.0
 UP BND  x485  10.0
 UP BND  x486  10.0
 UP BND  x487  10.0
 UP BND  x488  10.0
 UP BND  x489  10.0
 UP BND  x490  10.0
 UP BND  x491  10.0
 UP BND  x492  10.0
 UP BND  x493  10.0
 UP BND  x494  10.0
 UP BND  x495  10.0
 UP BND  x496  10.0
 UP BND  x497  10.0
 UP BND  x498  10.0
 UP BND  x499  10.0
 UP BND  x500  10.0
 UP BND  x501  10.0
 UP BND  x502  10.0
 UP BND  x503  10.0
 UP BND  x504  10.0
 UP BND  x505  10.0
 UP BND  x506  10.0
 UP BND  x507  10.0
 UP BND  x508  10.0
 UP BND  x509  10.0
 UP BND  x510  10.0
 UP BND  x511  10.0
 UP BND  x512  10.0
 UP BND  x513  10.0
 UP BND  x514  10.0
 UP BND  x515  10.0
 UP BND  x516  10.0
 UP BND  x517  10.0
 UP BND  x518  10.0
 UP BND  x519  10.0
 UP BND  x520  10.0
 UP BND  x521  10.0
 UP BND  x522  10.0
 UP BND  x523  10.0
 UP BND  x524  10.0
 UP BND  x525  10.0
 UP BND  x526  10.0
 UP BND  x527  10.0
 UP BND  x528  10.0
 UP BND  x529  10.0
 UP BND  x530  10.0
 UP BND  x531  10.0
 UP BND  x532  10.0
 UP BND  x533  10.0
 UP BND  x534  10.0
 UP BND  x535  10.0
 UP BND  x536  10.0
 UP BND  x537  10.0
 UP BND  x538  10.0
 UP BND  x539  10.0
 UP BND  x540  10.0
 UP BND  x541  10.0
 UP BND  x542  10.0
 UP BND  x543  10.0
 UP BND  x544  10.0
 UP BND  x545  10.0
 UP BND  x546  10.0
 UP BND  x547  10.0
 UP BND  x548  10.0
 UP BND  x549  10.0
 UP BND  x550  10.0
 UP BND  x551  10.0
 UP BND  x552  10.0
 UP BND  x553  10.0
 UP BND  x554  10.0
 UP BND  x555  10.0
 UP BND  x556  10.0
 UP BND  x557  10.0
 UP BND  x558  10.0
 UP BND  x559  10.0
 UP BND  x560  10.0
 UP BND  x561  10.0
 UP BND  x562  10.0
 UP BND  x563  10.0
 UP BND  x564  10.0
 UP BND  x565  10.0
 UP BND  x566  10.0
 UP BND  x567  10.0
 UP BND  x568  10.0
 UP BND  x569  10.0
 UP BND  x570  10.0
 UP BND  x571  10.0
 UP BND  x572  10.0
 UP BND  x573  10.0
 UP BND  x574  10.0
 UP BND  x575  10.0
 UP BND  x576  10.0
 UP BND  x577  10.0
 UP BND  x578  10.0
 UP BND  x579  10.0
 UP BND  x580  10.0
 UP BND  x581  10.0
 UP BND  x582  10.0
 UP BND  x583  10.0
 UP BND  x584  10.0
 UP BND  x585  10.0
 UP BND  x586  10.0
 UP BND  x587  10.0
 UP BND  x588  10.0
 UP BND  x589  10.0
 UP BND  x590  10.0
 UP BND  x591  10.0
 UP BND  x592  10.0
 UP BND  x593  10.0
 UP BND  x594  10.0
 UP BND  x595  10.0
 UP BND  x596  10.0
 UP BND  x597  10.0
 UP BND  x598  10.0
 UP BND  x599  10.0
 UP BND  x600  10.0
 UP BND  x601  10.0
 UP BND  x602  10.0
 UP BND  x603  10.0
 UP BND  x604  10.0
 UP BND  x605  10.0
 UP BND  x606  10.0
 UP BND  x607  10.0
 UP BND  x608  10.0
 UP BND  x609  10.0
 UP BND  x610  10.0
 UP BND  x611  10.0
 UP BND  x612  10.0
 UP BND  x613  10.0
 UP BND  x614  10.0
 UP BND  x615  10.0
 UP BND  x616  10.0
 UP BND  x617  10.0
 UP BND  x618  10.0
 UP BND  x619  10.0
 UP BND  x620  10.0
 UP BND  x621  10.0
 UP BND  x622  10.0
 UP BND  x623  10.0
 UP BND  x624  10.0
 UP BND  x625  10.0
 UP BND  x626  10.0
 UP BND  x627  10.0
 UP BND  x628  10.0
 UP BND  x629  10.0
 UP BND  x630  10.0
 UP BND  x631  10.0
 UP BND  x632  10.0
 UP BND  x633  10.0
 UP BND  x634  10.0
 UP BND  x635  10.0
 UP BND  x636  10.0
 UP BND  x637  10.0
 UP BND  x638  10.0
 UP BND  x639  10.0
 UP BND  x640  10.0
 UP BND  x641  10.0
 UP BND  x642  10.0
 UP BND  x643  10.0
 UP BND  x644  10.0
 UP BND  x645  10.0
 UP BND  x646  10.0
 UP BND  x647  10.0
 UP BND  x648  10.0
 UP BND  x649  10.0
 UP BND  x650  10.0
 UP BND  x651  10.0
 UP BND  x652  10.0
 UP BND  x653  10.0
 UP BND  x654  10.0
 UP BND  x655  10.0
 UP BND  x656  10.0
 UP BND  x657  10.0
 UP BND  x658  10.0
 UP BND  x659  10.0
 UP BND  x660  10.0
 UP BND  x661  10.0
 UP BND  x662  10.0
 UP BND  x663  10.0
 UP BND  x664  10.0
 UP BND  x665  10.0
 UP BND  x666  10.0
 UP BND  x667  10.0
 UP BND  x668  10.0
 UP BND  x669  10.0
 UP BND  x670  10.0
 UP BND  x671  10.0
 UP BND  x672  10.0
 UP BND  x673  10.0
 UP BND  x674  10.0
 UP BND  x675  10.0
 UP BND  x676  10.0
 UP BND  x677  10.0
 UP BND  x678  10.0
 UP BND  x679  10.0
 UP BND  x680  10.0
 UP BND  x681  10.0
 UP BND  x682  10.0
 UP BND  x683  10.0
 UP BND  x684  10.0
 UP BND  x685  10.0
 UP BND  x686  10.0
 UP BND  x687  10.0
 UP BND  x688  10.0
 UP BND  x689  10.0
 UP BND  x690  10.0
 UP BND  x691  10.0
 UP BND  x692  10.0
 UP BND  x693  10.0
 UP BND  x694  10.0
 UP BND  x695  10.0
 UP BND  x696  10.0
 UP BND  x697  10.0
 UP BND  x698  10.0
 UP BND  x699  10.0
 UP BND  x700  10.0
 UP BND  x701  10.0
 UP BND  x702  10.0
 UP BND  x703  10.0
 UP BND  x704  10.0
 UP BND  x705  10.0
 UP BND  x706  10.0
 UP BND  x707  10.0
 UP BND  x708  10.0
 UP BND  x709  10.0
 UP BND  x710  10.0
 UP BND  x711  10.0
 UP BND  x712  10.0
 UP BND  x713  10.0
 UP BND  x714  10.0
 UP BND  x715  10.0
 UP BND  x716  10.0
 UP BND  x717  10.0
 UP BND  x718  10.0
 UP BND  x719  10.0
 UP BND  x720  10.0
 UP BND  x721  10.0
 UP BND  x722  10.0
 UP BND  x723  10.0
 UP BND  x724  10.0
 UP BND  x725  10.0
 UP BND  x726  10.0
 UP BND  x727  10.0
 UP BND  x728  10.0
 UP BND  x729  10.0
 UP BND  x730  10.0
 UP BND  x731  10.0
 UP BND  x732  10.0
 UP BND  x733  10.0
 UP BND  x734  10.0
 UP BND  x735  10.0
 UP BND  x736  10.0
 UP BND  x737  10.0
 UP BND  x738  10.0
 UP BND  x739  10.0
 UP BND  x740  10.0
 UP BND  x741  10.0
 UP BND  x742  10.0
 UP BND  x743  10.0
 UP BND  x744  10.0
 UP BND  x745  10.0
 UP BND  x746  10.0
 UP BND  x747  10.0
 UP BND  x748  10.0
 UP BND  x749  10.0
 UP BND  x750  10.0
 UP BND  x751  10.0
 UP BND  x752  10.0
 UP BND  x753  10.0
 UP BND  x754  10.0
 UP BND  x755  10.0
 UP BND  x756  10.0
 UP BND  x757  10.0
 UP BND  x758  10.0
 UP BND  x759  10.0
 UP BND  x760  10.0
 UP BND  x761  10.0
 UP BND  x762  10.0
 UP BND  x763  10.0
 UP BND  x764  10.0
 UP BND  x765  10.0
 UP BND  x766  10.0
 UP BND  x767  10.0
 UP BND  x768  10.0
 UP BND  x769  10.0
 UP BND  x770  10.0
 UP BND  x771  10.0
 UP BND  x772  10.0
 UP BND  x773  10.0
 UP BND  x774  10.0
 UP BND  x775  10.0
 UP BND  x776  10.0
 UP BND  x777  10.0
 UP BND  x778  10.0
 UP BND  x779  10.0
 UP BND  x780  10.0
 UP BND  x781  10.0
 UP BND  x782  10.0
 UP BND  x783  10.0
 UP BND  x784  10.0
 UP BND  x785  10.0
 UP BND  x786  10.0
 UP BND  x787  10.0
 UP BND  x788  10.0
 UP BND  x789  10.0
 UP BND  x790  10.0
 UP BND  x791  10.0
 UP BND  x792  10.0
 UP BND  x793  10.0
 UP BND  x794  10.0
 UP BND  x795  10.0
 UP BND  x796  10.0
 UP BND  x797  10.0
 UP BND  x798  10.0
 UP BND  x799  10.0
ENDATA
