NAME illcond_1200x2000
ROWS
 N  OBJ
 G  r0
 G  r1
 L  r2
 L  r3
 G  r4
 G  r5
 L  r6
 G  r7
 G  r8
 G  r9
 G  r10
 G  r11
 G  r12
 L  r13
 L  r14
 G  r15
 G  r16
 G  r17
 L  r18
 G  r19
 L  r20
 G  r21
 L  r22
 L  r23
 L  r24
 G  r25
 G  r26
 G  r27
 L  r28
 G  r29
 G  r30
 L  r31
 G  r32
 G  r33
 L  r34
 G  r35
 G  r36
 L  r37
 G  r38
 G  r39
 G  r40
 L  r41
 L  r42
 G  r43
 L  r44
 L  r45
 G  r46
 G  r47
 G  r48
 G  r49
 G  r50
 G  r51
 G  r52
 L  r53
 G  r54
 L  r55
 G  r56
 G  r57
 L  r58
 L  r59
 G  r60
 G  r61
 G  r62
 G  r63
 G  r64
 L  r65
 L  r66
 G  r67
 G  r68
 G  r69
 L  r70
 G  r71
 G  r72
 G  r73
 L  r74
 G  r75
 L  r76
 G  r77
 G  r78
 G  r79
 L  r80
 G  r81
 G  r82
 L  r83
 G  r84
 G  r85
 L  r86
 G  r87
 L  r88
 L  r89
 G  r90
 G  r91
 L  r92
 G  r93
 G  r94
 G  r95
 G  r96
 G  r97
 G  r98
 G  r99
 G  r100
 L  r101
 L  r102
 G  r103
 L  r104
 G  r105
 L  r106
 G  r107
 G  r108
 G  r109
 L  r110
 G  r111
 G  r112
 L  r113
 L  r114
 G  r115
 G  r116
 L  r117
 L  r118
 L  r119
 G  r120
 G  r121
 G  r122
 G  r123
 L  r124
 L  r125
 G  r126
 G  r127
 G  r128
 G  r129
 G  r130
 G  r131
 G  r132
 G  r133
 G  r134
 G  r135
 G  r136
 G  r137
 G  r138
 L  r139
 L  r140
 G  r141
 L  r142
 G  r143
 L  r144
 L  r145
 G  r146
 G  r147
 G  r148
 G  r149
 G  r150
 G  r151
 G  r152
 L  r153
 G  r154
 G  r155
 L  r156
 L  r157
 G  r158
 G  r159
 G  r160
 G  r161
 G  r162
 G  r163
 G  r164
 G  r165
 G  r166
 L  r167
 G  r168
 G  r169
 G  r170
 G  r171
 L  r172
 L  r173
 G  r174
 G  r175
 G  r176
 G  r177
 G  r178
 G  r179
 L  r180
 G  r181
 L  r182
 L  r183
 G  r184
 L  r185
 G  r186
 L  r187
 L  r188
 G  r189
 G  r190
 G  r191
 G  r192
 L  r193
 G  r194
 L  r195
 L  r196
 G  r197
 G  r198
 L  r199
 L  r200
 G  r201
 G  r202
 G  r203
 L  r204
 L  r205
 G  r206
 L  r207
 G  r208
 L  r209
 G  r210
 L  r211
 G  r212
 G  r213
 G  r214
 L  r215
 L  r216
 G  r217
 L  r218
 G  r219
 G  r220
 G  r221
 L  r222
 L  r223
 G  r224
 G  r225
 L  r226
 G  r227
 G  r228
 G  r229
 L  r230
 G  r231
 G  r232
 G  r233
 G  r234
 L  r235
 G  r236
 G  r237
 G  r238
 L  r239
 G  r240
 G  r241
 L  r242
 G  r243
 L  r244
 L  r245
 G  r246
 G  r247
 G  r248
 G  r249
 L  r250
 G  r251
 G  r252
 G  r253
 G  r254
 G  r255
 G  r256
 G  r257
 G  r258
 G  r259
 L  r260
 G  r261
 L  r262
 G  r263
 G  r264
 L  r265
 G  r266
 L  r267
 G  r268
 L  r269
 L  r270
 G  r271
 G  r272
 G  r273
 G  r274
 G  r275
 L  r276
 G  r277
 G  r278
 G  r279
 L  r280
 L  r281
 L  r282
 G  r283
 G  r284
 L  r285
 G  r286
 L  r287
 L  r288
 G  r289
 G  r290
 G  r291
 L  r292
 G  r293
 G  r294
 G  r295
 G  r296
 L  r297
 L  r298
 G  r299
 G  r300
 L  r301
 G  r302
 G  r303
 G  r304
 G  r305
 G  r306
 G  r307
 G  r308
 G  r309
 G  r310
 G  r311
 G  r312
 G  r313
 G  r314
 L  r315
 G  r316
 G  r317
 G  r318
 G  r319
 G  r320
 G  r321
 G  r322
 G  r323
 L  r324
 G  r325
 G  r326
 G  r327
 L  r328
 G  r329
 G  r330
 G  r331
 L  r332
 G  r333
 L  r334
 G  r335
 L  r336
 G  r337
 L  r338
 G  r339
 L  r340
 G  r341
 L  r342
 L  r343
 G  r344
 G  r345
 G  r346
 G  r347
 G  r348
 G  r349
 L  r350
 G  r351
 G  r352
 G  r353
 L  r354
 G  r355
 L  r356
 G  r357
 L  r358
 L  r359
 G  r360
 G  r361
 G  r362
 G  r363
 G  r364
 G  r365
 G  r366
 G  r367
 G  r368
 G  r369
 G  r370
 G  r371
 G  r372
 G  r373
 G  r374
 G  r375
 L  r376
 L  r377
 G  r378
 G  r379
 L  r380
 L  r381
 G  r382
 L  r383
 L  r384
 L  r385
 L  r386
 L  r387
 G  r388
 G  r389
 L  r390
 L  r391
 G  r392
 G  r393
 L  r394
 G  r395
 L  r396
 G  r397
 G  r398
 G  r399
 G  r400
 G  r401
 G  r402
 L  r403
 G  r404
 L  r405
 L  r406
 G  r407
 L  r408
 G  r409
 G  r410
 G  r411
 L  r412
 G  r413
 G  r414
 G  r415
 L  r416
 L  r417
 G  r418
 L  r419
 G  r420
 G  r421
 L  r422
 L  r423
 G  r424
 L  r425
 G  r426
 G  r427
 G  r428
 L  r429
 G  r430
 G  r431
 G  r432
 L  r433
 L  r434
 G  r435
 L  r436
 G  r437
 L  r438
 L  r439
 G  r440
 G  r441
 G  r442
 G  r443
 G  r444
 G  r445
 L  r446
 L  r447
 L  r448
 G  r449
 G  r450
 G  r451
 G  r452
 L  r453
 G  r454
 G  r455
 G  r456
 G  r457
 G  r458
 G  r459
 L  r460
 G  r461
 G  r462
 G  r463
 G  r464
 G  r465
 L  r466
 L  r467
 G  r468
 G  r469
 G  r470
 G  r471
 G  r472
 G  r473
 L  r474
 L  r475
 G  r476
 L  r477
 G  r478
 G  r479
 G  r480
 L  r481
 G  r482
 G  r483
 G  r484
 G  r485
 L  r486
 L  r487
 L  r488
 G  r489
 L  r490
 G  r491
 G  r492
 G  r493
 G  r494
 G  r495
 L  r496
 G  r497
 L  r498
 G  r499
 L  r500
 G  r501
 L  r502
 L  r503
 G  r504
 G  r505
 G  r506
 G  r507
 L  r508
 G  r509
 G  r510
 G  r511
 L  r512
 L  r513
 G  r514
 G  r515
 G  r516
 G  r517
 G  r518
 G  r519
 G  r520
 L  r521
 L  r522
 L  r523
 L  r524
 L  r525
 L  r526
 L  r527
 L  r528
 G  r529
 G  r530
 G  r531
 G  r532
 G  r533
 G  r534
 L  r535
 G  r536
 G  r537
 G  r538
 L  r539
 G  r540
 G  r541
 L  r542
 G  r543
 G  r544
 L  r545
 G  r546
 L  r547
 G  r548
 G  r549
 G  r550
 G  r551
 G  r552
 L  r553
 L  r554
 G  r555
 G  r556
 G  r557
 G  r558
 G  r559
 G  r560
 G  r561
 L  r562
 G  r563
 G  r564
 L  r565
 G  r566
 L  r567
 L  r568
 G  r569
 G  r570
 G  r571
 L  r572
 L  r573
 L  r574
 G  r575
 G  r576
 G  r577
 L  r578
 G  r579
 G  r580
 G  r581
 L  r582
 G  r583
 G  r584
 L  r585
 L  r586
 L  r587
 L  r588
 G  r589
 G  r590
 G  r591
 G  r592
 G  r593
 G  r594
 G  r595
 G  r596
 L  r597
 G  r598
 G  r599
 G  r600
 G  r601
 L  r602
 L  r603
 G  r604
 G  r605
 G  r606
 G  r607
 L  r608
 G  r609
 G  r610
 L  r611
 G  r612
 G  r613
 L  r614
 G  r615
 G  r616
 G  r617
 G  r618
 G  r619
 L  r620
 G  r621
 G  r622
 L  r623
 G  r624
 G  r625
 G  r626
 G  r627
 L  r628
 L  r629
 L  r630
 L  r631
 L  r632
 L  r633
 L  r634
 G  r635
 G  r636
 L  r637
 L  r638
 G  r639
 L  r640
 L  r641
 L  r642
 G  r643
 G  r644
 G  r645
 G  r646
 L  r647
 G  r648
 L  r649
 G  r650
 G  r651
 G  r652
 G  r653
 L  r654
 G  r655
 L  r656
 L  r657
 G  r658
 L  r659
 L  r660
 G  r661
 G  r662
 G  r663
 L  r664
 G  r665
 G  r666
 G  r667
 G  r668
 L  r669
 L  r670
 G  r671
 G  r672
 L  r673
 G  r674
 G  r675
 G  r676
 G  r677
 G  r678
 G  r679
 G  r680
 L  r681
 L  r682
 L  r683
 G  r684
 L  r685
 G  r686
 G  r687
 G  r688
 G  r689
 G  r690
 G  r691
 L  r692
 G  r693
 G  r694
 G  r695
 L  r696
 L  r697
 L  r698
 L  r699
 L  r700
 G  r701
 G  r702
 L  r703
 G  r704
 G  r705
 G  r706
 G  r707
 G  r708
 G  r709
 G  r710
 L  r711
 G  r712
 G  r713
 G  r714
 G  r715
 G  r716
 G  r717
 G  r718
 G  r719
 G  r720
 L  r721
 G  r722
 G  r723
 G  r724
 G  r725
 G  r726
 L  r727
 L  r728
 L  r729
 G  r730
 L  r731
 G  r732
 G  r733
 L  r734
 L  r735
 G  r736
 G  r737
 G  r738
 G  r739
 L  r740
 G  r741
 L  r742
 G  r743
 G  r744
 L  r745
 G  r746
 G  r747
 L  r748
 L  r749
 G  r750
 L  r751
 G  r752
 G  r753
 L  r754
 G  r755
 G  r756
 G  r757
 G  r758
 G  r759
 G  r760
 G  r761
 G  r762
 L  r763
 G  r764
 L  r765
 G  r766
 L  r767
 G  r768
 L  r769
 G  r770
 G  r771
 G  r772
 G  r773
 G  r774
 L  r775
 G  r776
 G  r777
 G  r778
 G  r779
 G  r780
 L  r781
 G  r782
 L  r783
 L  r784
 G  r785
 G  r786
 G  r787
 G  r788
 G  r789
 L  r790
 G  r791
 G  r792
 G  r793
 G  r794
 G  r795
 G  r796
 L  r797
 G  r798
 G  r799
 L  r800
 L  r801
 L  r802
 L  r803
 G  r804
 L  r805
 L  r806
 L  r807
 G  r808
 L  r809
 G  r810
 G  r811
 L  r812
 G  r813
 L  r814
 G  r815
 G  r816
 L  r817
 G  r818
 G  r819
 G  r820
 L  r821
 L  r822
 G  r823
 G  r824
 L  r825
 G  r826
 G  r827
 L  r828
 G  r829
 L  r830
 G  r831
 L  r832
 L  r833
 G  r834
 G  r835
 G  r836
 G  r837
 L  r838
 G  r839
 G  r840
 L  r841
 G  r842
 G  r843
 G  r844
 G  r845
 L  r846
 G  r847
 G  r848
 G  r849
 L  r850
 L  r851
 G  r852
 G  r853
 G  r854
 G  r855
 G  r856
 G  r857
 G  r858
 G  r859
 G  r860
 G  r861
 L  r862
 G  r863
 G  r864
 G  r865
 G  r866
 G  r867
 G  r868
 G  r869
 G  r870
 G  r871
 G  r872
 L  r873
 G  r874
 G  r875
 L  r876
 G  r877
 G  r878
 G  r879
 L  r880
 G  r881
 G  r882
 L  r883
 G  r884
 L  r885
 G  r886
 G  r887
 G  r888
 G  r889
 G  r890
 G  r891
 G  r892
 L  r893
 G  r894
 L  r895
 L  r896
 L  r897
 G  r898
 G  r899
 G  r900
 L  r901
 G  r902
 G  r903
 G  r904
 G  r905
 G  r906
 G  r907
 G  r908
 G  r909
 L  r910
 G  r911
 G  r912
 L  r913
 G  r914
 L  r915
 G  r916
 G  r917
 L  r918
 G  r919
 G  r920
 G  r921
 L  r922
 G  r923
 G  r924
 L  r925
 L  r926
 G  r927
 L  r928
 G  r929
 L  r930
 G  r931
 G  r932
 G  r933
 G  r934
 G  r935
 L  r936
 G  r937
 L  r938
 L  r939
 L  r940
 G  r941
 L  r942
 L  r943
 G  r944
 G  r945
 G  r946
 L  r947
 G  r948
 G  r949
 G  r950
 G  r951
 L  r952
 G  r953
 G  r954
 L  r955
 L  r956
 L  r957
 G  r958
 G  r959
 G  r960
 L  r961
 G  r962
 G  r963
 L  r964
 G  r965
 L  r966
 G  r967
 G  r968
 G  r969
 L  r970
 G  r971
 G  r972
 G  r973
 L  r974
 G  r975
 G  r976
 L  r977
 G  r978
 G  r979
 G  r980
 G  r981
 G  r982
 G  r983
 L  r984
 L  r985
 G  r986
 L  r987
 G  r988
 G  r989
 G  r990
 G  r991
 G  r992
 G  r993
 G  r994
 G  r995
 G  r996
 L  r997
 G  r998
 G  r999
 L  r1000
 G  r1001
 G  r1002
 G  r1003
 G  r1004
 G  r1005
 L  r1006
 G  r1007
 L  r1008
 G  r1009
 L  r1010
 L  r1011
 L  r1012
 G  r1013
 G  r1014
 L  r1015
 L  r1016
 G  r1017
 L  r1018
 G  r1019
 L  r1020
 L  r1021
 G  r1022
 L  r1023
 G  r1024
 L  r1025
 G  r1026
 L  r1027
 L  r1028
 L  r1029
 G  r1030
 L  r1031
 G  r1032
 G  r1033
 G  r1034
 G  r1035
 G  r1036
 G  r1037
 G  r1038
 G  r1039
 G  r1040
 G  r1041
 G  r1042
 L  r1043
 G  r1044
 G  r1045
 L  r1046
 G  r1047
 G  r1048
 G  r1049
 G  r1050
 G  r1051
 L  r1052
 L  r1053
 G  r1054
 G  r1055
 G  r1056
 G  r1057
 L  r1058
 L  r1059
 G  r1060
 L  r1061
 G  r1062
 L  r1063
 G  r1064
 G  r1065
 G  r1066
 G  r1067
 G  r1068
 G  r1069
 L  r1070
 G  r1071
 G  r1072
 L  r1073
 L  r1074
 G  r1075
 G  r1076
 L  r1077
 G  r1078
 L  r1079
 G  r1080
 G  r1081
 G  r1082
 G  r1083
 L  r1084
 L  r1085
 G  r1086
 G  r1087
 G  r1088
 G  r1089
 G  r1090
 G  r1091
 G  r1092
 G  r1093
 L  r1094
 G  r1095
 G  r1096
 G  r1097
 L  r1098
 G  r1099
 G  r1100
 G  r1101
 G  r1102
 G  r1103
 G  r1104
 G  r1105
 L  r1106
 G  r1107
 L  r1108
 G  r1109
 G  r1110
 L  r1111
 L  r1112
 L  r1113
 L  r1114
 G  r1115
 L  r1116
 G  r1117
 G  r1118
 G  r1119
 G  r1120
 G  r1121
 G  r1122
 G  r1123
 G  r1124
 L  r1125
 G  r1126
 G  r1127
 G  r1128
 G  r1129
 L  r1130
 G  r1131
 G  r1132
 G  r1133
 G  r1134
 L  r1135
 G  r1136
 G  r1137
 G  r1138
 G  r1139
 L  r1140
 G  r1141
 G  r1142
 L  r1143
 L  r1144
 G  r1145
 G  r1146
 G  r1147
 L  r1148
 G  r1149
 G  r1150
 G  r1151
 G  r1152
 G  r1153
 G  r1154
 G  r1155
 G  r1156
 G  r1157
 G  r1158
 G  r1159
 L  r1160
 G  r1161
 G  r1162
 L  r1163
 G  r1164
 L  r1165
 G  r1166
 L  r1167
 G  r1168
 G  r1169
 G  r1170
 L  r1171
 G  r1172
 G  r1173
 G  r1174
 G  r1175
 L  r1176
 G  r1177
 L  r1178
 G  r1179
 L  r1180
 L  r1181
 G  r1182
 L  r1183
 G  r1184
 G  r1185
 G  r1186
 G  r1187
 G  r1188
 G  r1189
 L  r1190
 G  r1191
 G  r1192
 G  r1193
 L  r1194
 G  r1195
 G  r1196
 G  r1197
 G  r1198
 G  r1199
COLUMNS
    x0  OBJ  0.16422985467410148
    x0  r69  -5840.954571383383
    x0  r73  1.590954755353232
    x0  r93  2.8076738566517347
    x0  r652  -0.4710337435771385
    x1  OBJ  -1603.6403704116315
    x1  r84  -1.5685250134619124
    x1  r734  -24.83599522337426
    x1  r894  0.00016124222796503376
    x1  r1130  0.12905103602306303
    x1  r1131  0.014251358898027344
    x2  OBJ  2.2359239005082694
    x2  r199  70.82087903493908
    x3  OBJ  133.201754901941
    x3  r554  0.09911773414844281
    x3  r655  5.43979681021301e-05
    x3  r656  0.14386274540137725
    x3  r705  53.22573190995298
    x3  r706  3.2302096547392446e-05
    x4  OBJ  0.0019418411809146814
    x4  r375  7.301267134693744
    x4  r376  0.058811743553167234
    x4  r1003  498.7159756491935
    x4  r1079  -363.61117804043937
    x4  r1194  -3.9108107798289176
    x5  OBJ  0.00032458308407866377
    x5  r632  1.9747714474000284
    x5  r935  -10004.145250604692
    x5  r936  -0.00031664051930331485
    x5  r963  0.014067441383131329
    x5  r1112  -0.04059653534468907
    x5  r1188  -0.02425556015350544
    x6  OBJ  -2.4417707760649616
    x6  r35  0.5591588764028004
    x6  r36  0.1624072809605223
    x6  r204  0.0005673099417618449
    x6  r248  -0.04038308739878159
    x6  r599  -557.6795279095852
    x6  r600  -0.0002006446516838897
    x6  r601  -0.07554808517791657
    x6  r823  6.260300541354882e-05
    x6  r834  138.26433166814357
    x7  OBJ  3.7544864091681336
    x7  r578  -0.006478321736842705
    x7  r732  15.727699344550944
    x7  r812  0.0010755880967283132
    x7  r1065  0.2698124597238916
    x7  r1066  9.235711396017129
    x8  OBJ  980.534469098168
    x8  r448  2.2131570223853774e-05
    x8  r480  -2.582275855879907e-05
    x8  r481  -38.346131610716064
    x8  r514  0.4570497192415826
    x8  r889  3.25764339758615e-07
    x9  OBJ  0.39450057917192644
    x9  r200  514.5688345209012
    x9  r201  1.742532799184359e-05
    x9  r334  3.527634812045442e-05
    x9  r473  -0.005064360444168229
    x9  r569  626.7277385328455
    x10  OBJ  -2.639987680699066
    x10  r568  0.006081650075634075
    x11  OBJ  0.010073049990156126
    x11  r9  137566.58913953163
    x11  r459  3034.6621772811177
    x11  r605  0.06965460849205383
    x11  r606  1980.1799985394807
    x11  r984  164.38291770917053
    x11  r1050  -149.71395163011104
    x11  r1051  -0.025928079156149638
    x12  OBJ  1.952610943858667
    x12  r170  0.005005172991212717
    x12  r171  0.0230730130569126
    x13  OBJ  -0.3175622438268873
    x13  r1018  119.9273799880782
    x14  OBJ  0.00010109160766831765
    x14  r654  -1434861.5014300835
    x14  r670  -969836.6043779539
    x14  r671  -3.2193735182948116
    x14  r742  -748970.6710260359
    x14  r1064  113.18875092662941
    x14  r1113  1023.9497590592259
    x15  OBJ  -57.27862692144393
    x15  r410  0.031874156069996135
    x15  r411  0.04091407569895569
    x15  r1055  1.140932818934148e-05
    x15  r1056  3.128890752242826e-06
    x15  r1087  0.005971587759288846
    x16  OBJ  -481.4079478497331
    x16  r299  1.2145854563951857
    x16  r319  65.87899766735381
    x16  r554  3.422292051186643
    x17  OBJ  0.003934989295907115
    x17  r1127  0.00403221251736898
    x17  r1153  -94.8906896286349
    x18  OBJ  1586.9071132566178
    x18  r189  0.5725030762544859
    x18  r629  8.181169460554541e-05
    x18  r668  0.00030585151654787034
    x19  OBJ  -0.6242168595673584
    x19  r663  0.003103746671349949
    x19  r1145  43.17576006305506
    x19  r1146  4.630314028038786e-06
    x20  OBJ  -15.568896092767673
    x20  r263  -0.0010064124968501471
    x20  r274  1.6279175139904225e-05
    x20  r294  0.0005007945983052206
    x20  r739  -192.45825945940877
    x21  OBJ  -4.38820958647882
    x21  r513  -0.06346281563301026
    x21  r604  -0.0006741824100656257
    x21  r777  -5.284999015915151e-06
    x22  OBJ  0.048992327802124404
    x22  r369  80.54193969873336
    x23  OBJ  0.0006053992919751687
    x23  r110  -2.1419447248697825
    x23  r111  -1.7464489424382175
    x23  r1075  -279.10580973591595
    x23  r1076  -6876.112916858346
    x23  r1093  26.596178776913842
    x24  OBJ  -4154.528966753494
    x24  r79  0.0005095592069074406
    x24  r177  5.733152699142589e-06
    x24  r197  -0.083630298998655
    x24  r235  -0.00474063875745783
    x24  r236  -0.06321671648539834
    x24  r538  -0.0016033252318792116
    x24  r870  0.0002963001544673933
    x24  r871  4.080534876844809e-06
    x24  r1169  0.8540431541447482
    x25  OBJ  30.773331222878188
    x25  r235  -0.1400206431160407
    x25  r236  -1.867183910370792
    x25  r299  -2.457508738728361
    x25  r774  7.688512547664256e-05
    x25  r825  44.56312918872581
    x25  r826  0.026539988874547907
    x25  r1053  -2.587543782474231e-05
    x26  OBJ  882.8406569087578
    x26  r362  8.040217919871114e-06
    x26  r555  -51.1464456255822
    x26  r556  -0.005394777305112148
    x26  r869  79.79345995959838
    x26  r1150  8.12215311381914
    x26  r1151  0.00018619173625684186
    x27  OBJ  -27.607124178229903
    x27  r720  67.48826345451835
    x27  r721  0.0010280010982200009
    x27  r905  0.000938601747306261
    x27  r906  1.1791687233552905
    x28  OBJ  0.058646464265856124
    x28  r179  93.60716575173444
    x28  r589  5618.299431980138
    x29  OBJ  0.0007330433644317385
    x29  r57  6.635932496035777
    x29  r1129  -1033.4113554588046
    x30  OBJ  47.86930811728064
    x30  r3  -357.0081931225658
    x30  r344  4275.43876991939
    x30  r900  2.231242193806337
    x30  r901  5693.7690693939485
    x31  OBJ  -47.614322988314285
    x31  r705  -268.16328592294855
    x31  r706  -0.00016274525826681476
    x31  r1038  230.97130607238844
    x32  OBJ  0.0006871516481436591
    x32  r85  -0.020615007793427974
    x32  r86  -133036.7787413413
    x32  r294  -4.437464123565391
    x33  OBJ  -0.008340487938240299
    x33  r714  222756.5683121823
    x33  r872  1251.449497478
    x34  OBJ  2437.5607848042496
    x34  r297  3.6382880797479004e-07
    x34  r583  -5.672515852654191e-05
    x34  r594  0.0017698413783274385
    x35  OBJ  0.01467955616625359
    x35  r60  767.9053802752888
    x35  r61  18.950444406879637
    x35  r270  0.7218541913778928
    x35  r271  0.0024289633631078486
    x35  r360  0.03474413746790043
    x35  r361  66863.10994255915
    x35  r494  -9.96077364197159
    x35  r1005  -123.35700693846849
    x35  r1006  -39.21749043350559
    x35  r1175  -0.0023062317618388756
    x35  r1176  -1.0407997041099486
    x36  OBJ  1497.2724010955826
    x36  r28  -3.536207668015798e-07
    x36  r468  -0.044327560697615113
    x36  r534  8.736369509840529
    x36  r1062  0.030417169385973365
    x37  OBJ  -0.7472629534976378
    x37  r438  -0.009757936210050742
    x37  r442  -0.14282823322417598
    x37  r618  1199.3788493909913
    x38  OBJ  -0.33477325761140586
    x38  r695  -0.0032708692526361117
    x38  r696  -0.37547339671710317
    x38  r715  20.86956960961255
    x38  r716  14.469162250655723
    x38  r747  1957.7884643721052
    x39  OBJ  0.020586751878890915
    x39  r598  0.0055997769757863206
    x39  r628  5202.319858627071
    x39  r1065  -0.045813483397310256
    x39  r1066  -1.5682006265565582
    x40  OBJ  7.964937890577567e-05
    x40  r175  0.031080413063093348
    x40  r176  885.9780283377804
    x40  r187  1.3749543610631805
    x40  r304  -4299.223792261989
    x40  r632  159.5902009415397
    x40  r815  -0.6272065862453201
    x40  r816  -11.874481106303659
    x40  r818  -66.03043522724782
    x40  r852  0.8922673117595822
    x41  OBJ  0.43913735497101514
    x41  r639  -351.51678448349975
    x41  r913  -0.8382407834733089
    x42  OBJ  -526.1167698178494
    x42  r815  7.665682986280896e-06
    x42  r816  0.00014512921369308279
    x43  OBJ  -0.02810281086478244
    x43  r215  -1.024012708936456
    x43  r216  -0.023372286514850852
    x43  r318  -3.1626836094946027
    x43  r667  0.00250589850379825
    x43  r983  -5909.9526195964745
    x44  OBJ  -0.05768895470606039
    x44  r377  0.6297534594061069
    x45  OBJ  -0.00039911818692755325
    x45  r142  -5.267748733516713
    x45  r229  0.5957608804160482
    x45  r943  163.89493330259532
    x46  OBJ  4.853425929332774
    x46  r87  0.0008549479280515553
    x46  r299  1.3745240498429596
    x46  r738  -0.00010695339687524521
    x46  r850  0.0009131452473948005
    x46  r851  0.2804143062684112
    x46  r1084  428.86477360296976
    x47  OBJ  -336.35673779852385
    x47  r358  1.3948030504436928
    x47  r714  32.11465275878414
    x48  OBJ  3.1475543006584714
    x48  r949  8201.815580039549
    x49  OBJ  -0.052096338113911296
    x49  r894  -0.00617281870356549
    x50  OBJ  -0.00044125499334600005
    x50  r258  18.95082867790247
    x50  r962  -1610.7337661819342
    x50  r1124  561.2846174698569
    x51  OBJ  0.0006573285314083698
    x51  r32  15817.051309294344
    x51  r334  0.0005323561516285204
    x51  r1018  4431.877025785805
    x51  r1039  0.002791443929247732
    x51  r1175  0.0008059152438621809
    x51  r1176  0.3637085731578919
    x52  OBJ  -0.0015782200559719378
    x52  r93  -2.2518998672659083
    x52  r133  26154.01764512227
    x52  r144  -0.06629485576357441
    x52  r488  105.05935853367073
    x52  r617  -1311.4872264672028
    x52  r664  23861.90411113777
    x52  r1023  -0.0018450191916751155
    x53  OBJ  -0.21842850874042594
    x53  r135  10.31718427199627
    x53  r136  9.45246817052349
    x53  r374  297764.2349964843
    x53  r444  1376.036535448334
    x53  r523  2033.1280973786445
    x53  r964  227860.7096914661
    x54  OBJ  0.04132442158627269
    x54  r1088  7.080758802524244
    x55  OBJ  -5.787003284840025e-05
    x55  r395  -0.03150470533943274
    x55  r396  -19.862883857745615
    x56  OBJ  -0.008607637957767174
    x56  r49  -0.15155164700844717
    x56  r73  1.629794571334152
    x56  r477  5.4496906299937615
    x56  r693  -0.6218067942480128
    x56  r888  0.0511511662768305
    x57  OBJ  3.6275466139329087
    x57  r69  -2.858720992483917
    x57  r190  -2.2005367944678067
    x57  r191  -0.09346250167289717
    x57  r197  2.863761999721625
    x58  OBJ  -0.050522651506959095
    x58  r237  -3450.385232074432
    x58  r424  0.2535640807272292
    x58  r1197  0.20405872473033548
    x59  OBJ  9800.033459843613
    x59  r114  -0.2043573213281728
    x59  r897  -0.0021205299586935706
    x60  OBJ  0.0732351797330242
    x60  r433  36392.35790372732
    x60  r539  -0.08013870014317856
    x60  r728  15.765188535405812
    x61  OBJ  -0.025174432070427626
    x61  r233  53.77238776417756
    x61  r363  -106.7063144877333
    x61  r460  -0.3046795331570571
    x61  r461  -0.0027267520786390695
    x61  r495  -0.8673434166768896
    x61  r496  -416.3170201229187
    x61  r809  -416.9180495107733
    x61  r917  0.003805388528194492
    x62  OBJ  -1.843354630568495
    x63  OBJ  0.00011154501398107235
    x63  r392  518.7607833466622
    x63  r1138  2.6392319524221475
    x63  r1158  2665.456965800909
    x64  OBJ  0.022842749267404067
    x64  r89  26.828534058282862
    x64  r142  -20.034677530515495
    x64  r1035  -0.05527470848658986
    x64  r1036  -17749.623476334247
    x64  r1053  0.25941468531907697
    x65  OBJ  -3.626559335637911
    x65  r818  3.4647463325380117
    x65  r864  36.03228797970164
    x66  OBJ  -0.41108985120388886
    x66  r29  -13349.955935371652
    x66  r84  -87.15373886324694
    x66  r387  -0.0014814274506516744
    x66  r549  1.4746090176812372
    x66  r1152  -0.07101110728782031
    x67  OBJ  0.4869723581513453
    x67  r863  -199.0993922946329
    x67  r899  7.475334525393185
    x67  r962  -2.8123978611226823
    x67  r1080  -17369.1784021768
    x67  r1081  -10.830835433106952
    x68  OBJ  1.4081640606264043
    x68  r1145  1652.8943776968658
    x68  r1146  0.00017726194622624008
    x69  OBJ  -0.01950619938236508
    x69  r288  3676.5021135769884
    x69  r767  47783.901948458995
    x69  r870  0.9127504289466993
    x69  r871  0.012570056176366171
    x69  r1055  0.5614646264638852
    x69  r1056  0.15397587593451365
    x70  OBJ  -0.0031853062220979205
    x70  r640  2511.195670808327
    x70  r641  0.35550975601489615
    x70  r680  186046.3473117652
    x70  r681  25.50659002163327
    x70  r780  1686.3401508625545
    x70  r781  86760.72708273485
    x70  r832  -617.4014616619318
    x70  r907  26.08499979519639
    x71  OBJ  2756.0885854668754
    x71  r405  -0.00032196377365721125
    x71  r406  -5.75211006176997e-07
    x71  r778  1.1747673647167826e-07
    x71  r803  0.026671161850707878
    x72  OBJ  -69.3310702493674
    x72  r354  1.2721847839468651e-05
    x72  r867  0.0441540614601708
    x73  OBJ  -554.0689255399965
    x73  r463  -0.0004699172076412364
    x73  r464  2.2428911858011617e-05
    x73  r675  0.08411223301436074
    x73  r676  2.0013229722999533e-08
    x73  r1070  5.704214462724727e-05
    x73  r1071  5.327809874820619e-07
    x74  OBJ  60.25058914348103
    x74  r59  17.18953541301434
    x74  r528  4.833085652990775e-06
    x75  OBJ  -39.98176191667693
    x75  r484  4.602460568256727e-06
    x75  r583  0.00017924308583780956
    x76  OBJ  18.559735940765588
    x76  r230  0.0028657013561089162
    x76  r231  253.112757659363
    x76  r383  0.1856546018381135
    x76  r552  44.99182649864997
    x76  r672  0.05618679648171438
    x77  OBJ  -0.00023319923818443595
    x77  r1069  -366863.8738381378
    x78  OBJ  0.20888876961637506
    x78  r27  0.10687816853876017
    x78  r377  0.0003198762521817504
    x78  r733  -0.6974284613945608
    x79  OBJ  0.0031516585965063212
    x79  r113  -7.494520608722233
    x79  r155  739.4985749104112
    x79  r156  1.2476678874038782
    x79  r497  -12467.727815278062
    x79  r947  8535.13221492417
    x79  r1150  36107.847114299235
    x79  r1151  0.8277339740088369
    x80  OBJ  -1.021807323490152
    x80  r774  -0.0002446550837762402
    x80  r968  1.330519653090497
    x80  r1060  4.640936056473568e-05
    x80  r1061  0.02478641670392059
    x81  OBJ  255.99762573457363
    x81  r12  0.0066968879546104735
    x81  r110  8.937788195078574e-05
    x81  r111  7.287484592321495e-05
    x81  r375  0.000389850275589276
    x81  r376  3.140245619882058e-06
    x82  OBJ  -0.26206341296807
    x82  r654  85904.05789785324
    x83  OBJ  325.19522583835027
    x83  r345  0.00038146075004234596
    x83  r346  1.2304204638758633
    x83  r535  -0.05936362609325747
    x83  r536  -1.9029013283695368
    x83  r659  3.5863318480927556e-05
    x83  r1063  0.18428386499783936
    x84  OBJ  -0.24131769836109265
    x84  r545  6.172943885785331e-05
    x84  r546  0.5630671285707823
    x84  r849  21.62481268868531
    x84  r868  15.239516281181956
    x84  r943  -1.1085023862227772
    x84  r970  -1.904730759299079
    x84  r971  -0.7804736266198021
    x85  OBJ  -1.048853541904821
    x85  r49  1.820443221691334e-05
    x85  r594  -0.03975901797222347
    x85  r1117  2.5858205200547992e-05
    x86  OBJ  0.021123119324901615
    x86  r1147  -26862.681453489717
    x87  OBJ  0.035748082468172175
    x87  r17  0.02243332136730403
    x87  r609  -3436.529519623733
    x87  r828  0.04348595623219318
    x87  r855  -889.1892922353179
    x87  r856  -0.01854892971284222
    x87  r864  -13.12788106165986
    x88  OBJ  -6.520613447005683
    x88  r224  -404.06070227753975
    x88  r587  -503.0861419136187
    x88  r734  30990.548133134595
    x89  OBJ  -2.981951283593212
    x89  r349  -3.250036735756865e-05
    x89  r502  -2.8194411083888076
    x89  r548  -0.5977634000041474
    x89  r600  0.0005457814446800823
    x89  r601  0.2055013109091211
    x89  r942  -119.5026053148472
    x89  r1103  -83.28681146026327
    x89  r1115  60.12545535129881
    x89  r1116  5.617103746911391
    x90  OBJ  0.27389454497724613
    x90  r464  0.07272047527583189
    x90  r790  0.000719869296164439
    x90  r791  5.883462160687553
    x91  OBJ  -0.010226101011254117
    x91  r164  1580.8045101252235
    x91  r767  322709.10614618234
    x92  OBJ  3.144789563209458
    x93  OBJ  -237.27095968143954
    x93  r397  1.6041528089386353e-06
    x93  r989  0.6249534407558182
    x94  OBJ  -0.4614103328057117
    x94  r914  -0.0065556825211437655
    x95  OBJ  -0.0018011805039022805
    x95  r37  0.0035027417722226554
    x95  r89  -0.003830047448363015
    x95  r664  2033.0673352009899
    x95  r709  -48.285910544338876
    x95  r753  1703.7364268242006
    x95  r924  2299.6658903554703
    x96  OBJ  -4610.022116256181
    x96  r132  -3.01775885080882e-07
    x96  r315  0.08517945563373398
    x96  r316  0.009437925164632193
    x96  r967  0.0001656766731814775
    x96  r1063  -0.015754083966442105
    x97  OBJ  0.189729960541245
    x97  r315  14.803319502359871
    x97  r316  1.6402148457124086
    x97  r453  0.060477478575717246
    x98  OBJ  -1.4401129777048494
    x98  r758  -0.0675120324177671
    x98  r973  -21.72026953418427
    x98  r1008  8045.177457949163
    x98  r1182  -0.047243358422023096
    x99  OBJ  0.0006396980837130983
    x99  r20  0.1948223543060817
    x99  r21  4271.236740026101
    x99  r52  455360.2357583185
    x99  r87  0.26707133829834334
    x99  r682  -38.52000686359663
    x99  r718  0.3846083228974017
    x99  r1032  -132520.8791303042
    x100  OBJ  -61.532246714825185
    x100  r197  1.7569485251326291
    x100  r310  -0.0014273443905911951
    x100  r311  -0.38131462310044656
    x100  r445  0.0016294614765453167
    x100  r446  0.1331669827981676
    x100  r692  0.004830979168110671
    x100  r997  -0.0006112482946476881
    x101  OBJ  -0.029254165996362033
    x101  r525  35663.00426730866
    x101  r526  310409.4820466837
    x102  OBJ  0.0005309146393409418
    x102  r524  -1567.3676827314664
    x102  r1033  404.5788957031018
    x102  r1063  998.4329206549684
    x102  r1183  -53934.43949515556
    x103  OBJ  1.4499801675124246
    x103  r1120  28.758223247484825
    x103  r1121  0.20589457205210757
    x104  OBJ  0.004752657963821581
    x104  r390  -25842.200103936684
    x104  r391  -382.373209942952
    x104  r714  2584.11715931325
    x104  r1197  0.16394063440710555
    x105  OBJ  -343.71922636618206
    x105  r282  -1.4189239080070036e-05
    x105  r370  5.878123637979659e-06
    x105  r371  0.0009551753143320023
    x105  r662  0.004142286608828759
    x106  OBJ  -0.0009071744920903069
    x106  r443  -0.06884013128969499
    x106  r838  280.2953971390591
    x106  r897  -496.3329767257629
    x107  OBJ  269.8736632346741
    x107  r299  0.03475178143676035
    x107  r813  -3.117981597987042e-05
    x108  OBJ  -2293.5186522797435
    x108  r195  -0.21474361831691746
    x108  r196  -3.2183994657716395e-07
    x108  r268  1.0341368561141807e-05
    x109  OBJ  14.066769556602857
    x109  r292  -0.0013103690613864923
    x109  r537  1.411779427581486
    x109  r577  0.9877957806830995
    x109  r690  27.538306538808403
    x109  r691  0.309440599013608
    x109  r813  0.0016579337678464822
    x109  r920  1.8461424648698894
    x109  r921  1000.7622420008508
    x109  r1072  -0.3660548043875026
    x110  OBJ  -155.49171495329145
    x110  r143  0.23833292247483995
    x110  r332  4.268465500352258e-06
    x110  r417  -1.3378444194673423e-08
    x110  r895  17.3287551262112
    x110  r896  3.8754905983820555e-06
    x110  r983  13.013638495165353
    x111  OBJ  1.9155566520407459
    x111  r210  -0.3007795026475009
    x111  r211  -0.00018875466240537896
    x111  r299  0.18673948231502147
    x111  r432  -0.006745794383163528
    x111  r525  -0.26884872307935026
    x111  r526  -2.3400491980187517
    x111  r614  15.802376448082136
    x111  r1189  0.00038949199407577336
    x112  OBJ  -0.12646904590375918
    x112  r112  0.023818109150384594
    x112  r620  -265.42524264202194
    x112  r621  -0.0453425504230151
    x112  r897  1949.6345605545412
    x112  r980  -14.149585889752455
    x112  r981  -0.018422930999113053
    x113  OBJ  -12.007714803247937
    x113  r644  59.872689395702494
    x113  r677  0.0001476246979449142
    x113  r1008  0.6818281475643192
    x114  OBJ  -2.217573272423984
    x114  r125  2.3005591206999982
    x114  r126  6.953538649108473e-05
    x114  r478  159.25183555919406
    x114  r488  -0.3104558320260475
    x114  r500  -1.2751473823719426
    x114  r501  -0.00013255738854867105
    x114  r1088  -0.0003801029271170802
    x114  r1092  -0.7577239462254081
    x115  OBJ  -192.93011222182562
    x115  r214  9.221921181567698e-05
    x115  r495  0.001977584181924197
    x115  r496  0.9492224826990507
    x115  r575  0.00010190137512619992
    x115  r576  9.530840666641802e-05
    x115  r642  -0.003680741966525762
    x116  OBJ  -0.11665929753150428
    x116  r229  0.1611828507552082
    x116  r475  -0.000425367059687224
    x116  r476  -1192.1267901967815
    x116  r932  -742.3419318940346
    x116  r1113  19.300204145169864
    x117  OBJ  0.0012696563347019067
    x117  r374  291385.4251297347
    x117  r740  0.013821445381561286
    x117  r741  4.331675240902271
    x118  OBJ  -3.7917381992823586e-05
    x118  r660  3.836922632018907
    x118  r661  3.6857963129193823
    x118  r897  152.32310195928864
    x119  OBJ  -17.238047853857918
    x119  r390  1068.6100226860356
    x119  r391  15.811649242227029
    x119  r482  63.74842458612477
    x120  OBJ  0.0076939043068081645
    x120  r504  -0.03462541320311416
    x120  r609  -3858.8638596436317
    x120  r858  425.4036476169932
    x120  r1013  4254.3871064862615
    x121  OBJ  0.04377740935070506
    x121  r742  1384.0397610443326
    x121  r1198  -895.7459713049155
    x122  OBJ  -5.6430865620244
    x122  r30  -5.422056041046792
    x122  r31  -376.10819178209465
    x122  r57  -0.04055636684256548
    x122  r103  0.3255676203692854
    x122  r717  1.1214763937984913
    x122  r880  9361.570372620215
    x122  r881  918.4902838343911
    x123  OBJ  -0.01561259865410537
    x123  r317  -23418.368622924594
    x123  r474  11.521460956270964
    x124  OBJ  -0.04885492977979939
    x124  r995  0.0002814510485549826
    x124  r996  98.07600416496479
    x124  r1137  -0.006650162253029598
    x125  OBJ  -0.03903985849623676
    x125  r263  -4.646772206970378e-06
    x125  r944  7.948203685363285e-05
    x125  r1008  0.20182690061403646
    x125  r1178  5.3111011508593674e-06
    x126  OBJ  1404.1799651003982
    x126  r179  0.11102344313033675
    x126  r307  -0.9495589448255418
    x126  r365  2.634412305463522e-06
    x126  r366  0.07562038680177074
    x126  r755  10.505271487606962
    x126  r756  1.4365419655097156e-06
    x127  OBJ  0.4363466855033148
    x127  r10  1554.4340614013847
    x127  r11  0.003228434148177163
    x127  r583  0.1403248532086291
    x127  r758  0.005471253069413075
    x128  OBJ  0.8939289490296968
    x128  r127  0.0019997340919480954
    x128  r349  -4.3955152376740676e-05
    x128  r440  -0.35937666252326866
    x128  r441  -0.0545865065132565
    x128  r588  0.00041250965395935697
    x129  OBJ  13.242017942563498
    x129  r440  -0.1273875610158288
    x129  r441  -0.01934917305122462
    x129  r614  154.9426578680821
    x129  r923  0.023150626302588472
    x130  OBJ  -2.1439129036845332
    x130  r350  -1.7502654697570608
    x130  r351  -0.197767954410826
    x130  r463  0.00016495533515331444
    x130  r860  3.537879238645177e-06
    x130  r861  4.067841509928467
    x131  OBJ  -0.5436121537729852
    x131  r49  -0.0019650516757437034
    x131  r724  94.09575712508007
    x131  r950  466.0413278239168
    x131  r951  0.3351038385822742
    x132  OBJ  0.04027685842823286
    x132  r389  40022.65176975494
    x132  r917  0.20309149769931922
    x133  OBJ  0.36274898648870635
    x133  r69  266.4360726721181
    x133  r79  0.054068339070349254
    x133  r627  -488.20456891575867
    x134  OBJ  -9.87125710267967
    x134  r994  6.549446063005016
    x135  OBJ  -9.884353036225645e-05
    x135  r170  -0.15349761284559726
    x135  r171  -0.7075983342521907
    x135  r420  1.8545765773363052
    x135  r421  0.22814109838126112
    x135  r850  1.4116698273484123
    x135  r851  433.5042829824503
    x136  OBJ  -8.254596644731649
    x136  r377  -2.832271582457336e-06
    x136  r433  -0.5314612921738786
    x136  r578  1.0280322863847587e-05
    x136  r1042  -3.570312103503589e-06
    x137  OBJ  -270.4631798100753
    x137  r267  -1.8509569997227154e-05
    x137  r523  0.3779961264598733
    x137  r798  -0.006246962605946586
    x138  OBJ  1.3357651276117595
    x138  r133  14255.549714892155
    x138  r495  0.5511933476286714
    x138  r496  264.56781090057456
    x138  r590  0.108046733531421
    x138  r591  0.8657642502076089
    x138  r977  -419.5750570978203
    x139  OBJ  -47.41167492654063
    x139  r379  7.779618177788303
    x139  r610  0.04848179295802739
    x139  r611  0.013808708905725007
    x139  r674  -0.0017181718438182576
    x139  r677  5.7005663617986023e-05
    x139  r1078  -0.09011321434053178
    x140  OBJ  0.7151156749264226
    x140  r87  -3.1241659281364054e-05
    x140  r169  0.23699674439290153
    x140  r477  -0.014459704572601711
    x140  r619  6.914931723675417
    x140  r627  195.31810337009324
    x140  r1165  -0.0001560174165523331
    x140  r1166  -0.0003724948387872332
    x141  OBJ  -0.40068896692832573
    x141  r962  -0.12951726989048873
    x141  r1083  5.584918314883011e-06
    x141  r1147  2.9501888353378276
    x142  OBJ  -0.001350235993503702
    x142  r629  0.02284995845854954
    x142  r882  1301.8539010953116
    x143  OBJ  0.14016976127247338
    x143  r57  0.009796530546632966
    x143  r217  5.3743992955023276e-05
    x143  r242  -1.6331846280427078
    x143  r773  1.5603307222528386
    x144  OBJ  -1497.611260272309
    x144  r87  0.000205996828398399
    x144  r190  -3.1918944631402106
    x144  r191  -0.13556801800301654
    x144  r270  0.004249712063627115
    x144  r271  1.4299832289350137e-05
    x144  r404  0.006226786546185691
    x144  r465  0.3469125643754628
    x144  r466  0.0034865435936642865
    x144  r952  -7.857721832740944e-06
    x144  r1078  -0.017703121112885276
    x145  OBJ  -0.5468616625101451
    x145  r180  0.008458896491667128
    x145  r181  0.0004136407245220845
    x145  r1139  0.0010789255708130601
    x146  OBJ  899.3578827927897
    x146  r460  -0.0024867540218288693
    x146  r461  -2.2255387323685006e-05
    x146  r514  0.35935614087201395
    x146  r578  1.259640375183088e-05
    x147  OBJ  0.019508828876096215
    x147  r85  -0.0030710183083680993
    x147  r86  -19818.49080238468
    x147  r89  -136.8701819821366
    x147  r297  0.05907535407559185
    x147  r1002  4.916644382130642
    x147  r1173  1078.668255150441
    x148  OBJ  0.7959377809534914
    x148  r37  -0.009693191113038
    x148  r40  -0.7207285221441712
    x148  r41  -343.55203288275425
    x148  r68  16079.111681281904
    x148  r262  -34369.82166662154
    x148  r532  0.0012175908498201608
    x148  r1033  5170.489357484512
    x149  OBJ  1.1433454095725886
    x149  r347  -0.00242466037643195
    x149  r638  0.6930167398157937
    x149  r917  -0.12493429110072332
    x149  r1028  0.006428850948132007
    x150  OBJ  8.368170516747071
    x150  r72  -0.00360842333286227
    x150  r422  -1.0514371971118546
    x151  OBJ  2.7035052982075043
    x151  r1117  1.4597034619609013e-05
    x152  OBJ  -58.71933227907994
    x152  r105  0.0003128728573905846
    x152  r106  3.0094649173477655e-07
    x152  r712  -0.08937867511554583
    x152  r939  2.031020146167708e-06
    x152  r998  0.012058358125584395
    x153  OBJ  -653.4742444001182
    x153  r214  -0.0007039996613370519
    x153  r253  0.0006958350499172066
    x153  r887  0.0006077768364412878
    x153  r997  1.8842245552472727e-05
    x154  OBJ  218.02500935128268
    x154  r405  0.010794010896132081
    x154  r406  1.928426039004222e-05
    x154  r935  53.28941159458843
    x154  r936  1.6866593647568371e-06
    x155  OBJ  -10.6712921548199
    x155  r54  -0.0019259409817418878
    x155  r372  1.610074686229009e-05
    x155  r695  1.1272710946696767e-06
    x155  r696  0.00012940299104572382
    x155  r1102  4.495323210441551e-05
    x156  OBJ  -3.2364122597269156
    x156  r29  -102.50250338703195
    x156  r323  4.069961722407525e-05
    x156  r1190  -0.10655056898967104
    x156  r1191  -0.0008351846923781459
    x157  OBJ  1.2526703864611015
    x157  r610  1.2845760547344032
    x157  r611  0.3658762176682559
    x158  OBJ  0.7593313559763516
    x158  r30  -31.054133872181094
    x158  r31  -2154.111444373585
    x158  r315  -155.55497695635
    x158  r316  -17.235565474864146
    x158  r842  -0.6761736402482544
    x159  OBJ  0.04440555811665236
    x159  r212  0.9399131413198891
    x159  r500  -23900.17531345584
    x159  r501  -2.484532025387922
    x159  r560  -479242.19410814036
    x159  r561  -160465.2891205784
    x159  r859  1.9065266764020896
    x159  r1147  -50342.14384396964
    x159  r1159  2.470703922890275
    x160  OBJ  0.015343487266141806
    x160  r128  54.92539496440977
    x160  r734  516815.6756688808
    x160  r753  880.2280134165383
    x160  r890  -4994.518271341065
    x160  r891  -427375.1653226498
    x161  OBJ  -1.1709784747807863
    x161  r207  -0.0018724901225638296
    x161  r375  -0.013985409874025884
    x161  r376  -0.00011265253572741903
    x161  r435  0.1379483736251157
    x161  r436  1.1111494856424025
    x161  r998  0.17253815682611676
    x162  OBJ  3280.667764918978
    x162  r90  -0.06710027124224383
    x162  r91  -0.00017328404284313188
    x162  r485  -59.143650782251626
    x162  r486  -0.001144612134275419
    x162  r644  6.836384614492005
    x162  r772  9.303846538930947e-06
    x163  OBJ  1.1922956182090536
    x163  r110  0.16694948048641547
    x163  r111  0.13612336074497175
    x163  r378  0.00027756794097812283
    x163  r1029  -0.0007202261308573311
    x164  OBJ  -4.16929348616932e-05
    x164  r113  54.285514463451015
    x164  r163  -51.25122035460164
    x164  r1118  11401.294671876121
    x165  OBJ  0.004697032096923994
    x165  r199  7389.962588618195
    x165  r858  16856.36156050623
    x165  r1188  -0.6938325444421716
    x166  OBJ  0.000777129889436356
    x166  r284  -25232.446921466133
    x166  r297  0.0024165404004815117
    x166  r434  3.0260784655055306
    x166  r1057  2.071347808903367
    x166  r1079  493.12256627579075
    x167  OBJ  -41.97337709853396
    x167  r95  190.13778979724833
    x167  r96  0.000815266701888392
    x167  r945  12.324173098301141
    x167  r946  0.33339163591770776
    x168  OBJ  0.001718133644178504
    x168  r193  0.007002770087852973
    x168  r282  -0.0008517213913493767
    x168  r320  1686.0294312835792
    x168  r321  0.0010152781229584703
    x168  r515  243.51558462887328
    x168  r516  0.011525355965645714
    x168  r674  0.008615110706151919
    x168  r778  -3.4322886140949635e-05
    x168  r848  -0.01227963409595657
    x169  OBJ  0.22534161395164867
    x169  r429  -204.9619806744163
    x169  r524  28.863300137617042
    x170  OBJ  3.543153872149023
    x170  r58  4.1060808946906695
    x170  r203  -0.1582955807342173
    x170  r308  -0.0002556159849773734
    x170  r317  -0.8804321632989661
    x170  r894  0.0005618212211589193
    x170  r1110  1.5495099742137061e-06
    x170  r1111  0.001676826231307276
    x171  OBJ  2.3901476276821483
    x171  r104  -107.27370048927678
    x171  r275  0.06147175769189566
    x171  r276  0.01875169579900887
    x171  r630  0.08786675243039883
    x171  r631  35.3815598070481
    x171  r698  -0.00933095635487516
    x171  r1194  3.017030412067716
    x172  OBJ  138.16126710531321
    x172  r240  -0.007346839773240229
    x172  r241  -0.031888596609370344
    x172  r468  -0.02206319038195971
    x173  OBJ  4.154426275387199
    x173  r570  -0.019552994111347824
    x173  r571  -0.00038202067401765235
    x173  r950  50.01745444045437
    x173  r951  0.035964705922688314
    x173  r1122  0.005557867492399827
    x174  OBJ  19.37460697175445
    x174  r3  -4.347450966089197
    x174  r869  29.27025303645204
    x174  r1015  -3.408095374541103e-05
    x174  r1016  -0.0022315352727132246
    x175  OBJ  -0.0004887746081136139
    x175  r302  8.415103176649696
    x175  r787  23.689314955882526
    x175  r788  31.800269103591944
    x175  r1099  18.56018070407833
    x176  OBJ  12.737367691026526
    x176  r633  -0.10699572795195622
    x176  r648  -0.018234128510409005
    x176  r745  568.0443505262683
    x176  r746  0.8450118703657905
    x176  r1174  -1228.3736621802213
    x177  OBJ  -0.003394934339070108
    x177  r809  1928.0396967856616
    x177  r824  -29126.544215777736
    x177  r945  30.55512685794093
    x177  r946  0.8265725115110543
    x177  r1070  0.014447747064723999
    x177  r1071  0.0001349438074004224
    x177  r1114  0.019288529208116086
    x178  OBJ  -2.238244755771607e-05
    x178  r208  0.10616014616766442
    x178  r220  1997.2578541706966
    x178  r221  357.5027868998808
    x179  OBJ  1276.2341981410345
    x179  r84  20.915538361681556
    x179  r543  9.577638060815207e-06
    x179  r567  -0.00018255535394166072
    x179  r894  -0.0006285489377070422
    x180  OBJ  -1711.1209922409728
    x180  r433  15.612179810001704
    x180  r453  0.06773948958420233
    x180  r1139  -4.993130868137693e-06
    x181  OBJ  28655.653372381603
    x181  r180  -3.934843506149838e-05
    x181  r181  -1.9241414735445286e-06
    x181  r439  -0.004315759994076961
    x181  r577  -0.051717985102287534
    x181  r1090  0.14349952326437865
    x181  r1091  1.8083368108886388
    x182  OBJ  0.0388789135862812
    x182  r853  0.0004413401309764371
    x183  OBJ  -0.025682780078578403
    x183  r127  0.00191204972665534
    x183  r339  0.0030974172120083795
    x183  r527  0.004704032937335682
    x183  r532  -0.00012193455910299393
    x183  r879  0.12860124702590667
    x183  r1178  0.00010419647861900108
    x184  OBJ  -95191.27486683677
    x184  r85  -6.265822477352883e-08
    x184  r86  -0.40435820521949456
    x184  r262  -0.4630565205229456
    x184  r777  -3.414174940122154e-07
    x184  r813  0.0002553069819368139
    x185  OBJ  1.2007219096445383
    x185  r237  11.483781606236578
    x185  r1159  0.0015250735855015913
    x186  OBJ  -2.9579310359920656
    x186  r305  100.72698068747688
    x186  r306  0.042985627285057004
    x186  r468  178.8051777455218
    x186  r594  -41.50144290847346
    x186  r625  -0.0830307806205572
    x186  r626  -15950.165488683326
    x186  r750  2990.400110394145
    x186  r751  0.10018696114219963
    x186  r875  0.06997483884324304
    x186  r876  139.11494682528044
    x187  OBJ  0.09506143138967882
    x187  r685  1466.7231048110823
    x187  r686  681.0316404567908
    x187  r768  0.006678239227212034
    x187  r778  -0.02669871664515186
    x187  r832  -831.4316892115589
    x187  r874  -12.860584646732088
    x187  r980  90.51146773668236
    x187  r981  0.11784700774885243
    x187  r1089  0.6385614850670278
    x188  OBJ  -645.7813810268669
    x188  r113  0.005559940892072027
    x188  r1093  0.03620832007192574
    x189  OBJ  -43.168736599521566
    x189  r123  -0.036461290721053835
    x189  r199  4.053032249906899
    x189  r240  -0.6614177121455304
    x189  r241  -2.870850754164629
    x189  r602  2.375788850795148e-05
    x190  OBJ  -0.3021707170552771
    x190  r907  95.80379200484596
    x191  OBJ  -0.06008424969644146
    x191  r137  -0.03497819216220454
    x191  r392  83.05183631804388
    x191  r595  4629.492830453192
    x191  r596  39628.98766926124
    x191  r663  -16.565994021132337
    x192  OBJ  -4.37603705550163
    x192  r205  59.66874454207244
    x192  r206  5.610344136457066
    x192  r375  0.0005908754158504017
    x192  r376  4.759503975508422e-06
    x192  r620  0.013741741133327826
    x192  r621  2.347499136582642e-06
    x193  OBJ  0.0006076281746402271
    x193  r14  -0.5416649197551784
    x193  r119  108.4708269435734
    x193  r544  1.2200832145381824
    x193  r1074  -0.035673765134918864
    x193  r1187  -0.49429526703612997
    x194  OBJ  268.2561000944679
    x194  r17  4.0964050280868203e-05
    x194  r75  0.00020059651846894254
    x194  r76  38.94838416630654
    x194  r102  0.009348583877057347
    x194  r433  -10.334911916338502
    x194  r823  6.2102123457062676e-06
    x195  OBJ  0.033453742046312435
    x195  r19  -6710.743105735459
    x195  r195  44494.12039138252
    x195  r196  0.06668409524807721
    x195  r704  -6.894484165468806
    x195  r1004  -1712.0903493518363
    x195  r1029  -0.7571693474478289
    x196  OBJ  0.059959906907067186
    x196  r502  -5.557711614346969
    x196  r874  -0.0008505919760162075
    x196  r924  83.74898354237173
    x196  r1179  -0.011699897661911025
    x197  OBJ  -0.0009585521649005804
    x197  r199  3440.1602839795914
    x197  r247  165434.51575922722
    x197  r302  -55.13436454327126
    x197  r855  -803.5923618132338
    x197  r856  -0.016763333608079665
    x197  r860  0.06853037670775114
    x197  r861  78795.98606438341
    x197  r927  7570.743902270346
    x197  r940  -11.035322003905447
    x197  r941  -9169.69996668837
    x198  OBJ  29.230233893541467
    x198  r920  -0.014680994146195229
    x198  r921  -7.958314933384543
    x198  r1055  0.00017792976633047435
    x198  r1056  4.879540105332059e-05
    x199  OBJ  -0.1668391243719553
    x199  r195  280.89744398273166
    x199  r196  0.00042098577845161184
    x199  r420  0.03232183173260846
    x199  r421  0.003976076019664231
    x199  r810  -0.11547008364840484
    x199  r811  -0.8274088909007644
    x200  OBJ  0.010645090324576327
    x200  r188  0.05386344116847355
    x200  r265  395.3959391903199
    x200  r266  0.0026462625065419264
    x200  r338  -11.861350288104541
    x200  r614  -22895.74878471573
    x201  OBJ  -4.380579934108961
    x201  r622  -0.056296015103368735
    x201  r707  0.002032946265095838
    x202  OBJ  -0.0009129234562907819
    x202  r467  -304.55606875935763
    x202  r537  -8.318021911112087
    x202  r1030  0.012656495243988482
    x202  r1031  2738.7299799053635
    x202  r1035  0.0027486768392340475
    x202  r1036  882.6455247170386
    x202  r1100  -23.412479496835438
    x202  r1101  -0.038071224019770485
    x203  OBJ  -457.56397937462066
    x203  r1005  0.16730429941090158
    x203  r1006  0.053189148053655225
    x204  OBJ  -0.12376698814608819
    x204  r405  -535.3086657193426
    x204  r406  -0.9563666183139594
    x204  r442  -23.367666305450875
    x204  r490  -609213.2998309688
    x204  r491  -1584.890927496265
    x204  r773  -4004.115753279367
    x205  OBJ  -0.008256453679620673
    x205  r497  56.96839292597556
    x205  r803  -20.893782505217445
    x205  r1034  0.00033133642437291517
    x206  OBJ  0.1983347166783083
    x206  r54  0.08789320280140403
    x206  r68  -53.593603271085925
    x206  r150  0.3275370702708255
    x206  r151  0.00043296467528846505
    x206  r289  0.16133684766001233
    x206  r725  71.71752097872822
    x206  r726  247.49460813779726
    x206  r875  -7.28717898066828e-05
    x206  r876  -0.14487427649493165
    x206  r929  0.30037497694440063
    x206  r1199  26.154337977018816
    x207  OBJ  -0.0017121122402592253
    x207  r95  -10864.145576765135
    x207  r96  -0.04658292944780685
    x207  r175  0.0026714324094521315
    x207  r176  76.15182518573204
    x207  r909  0.02367634702300568
    x207  r1082  -3307.153131234214
    x208  OBJ  0.00026613111250098337
    x208  r129  -56.71151737488369
    x208  r677  0.1612888585625962
    x209  OBJ  -8.553047149750766
    x209  r112  -0.00011684917603762592
    x209  r337  0.01728896369039726
    x209  r802  6.550672002290346
    x209  r822  -10.97765434180624
    x209  r862  -0.0005844620480112586
    x209  r1133  52.60271262312324
    x209  r1173  -0.35620600585080436
    x210  OBJ  -0.5728731139753963
    x210  r210  4.858609362835403
    x210  r211  0.0030490278435225744
    x210  r797  -0.5128013975495114
    x211  OBJ  -2085.9505931022977
    x211  r247  -0.18313455867444414
    x211  r439  0.0010348595953445837
    x211  r809  0.03473542881872677
    x212  OBJ  0.00014650933403134448
    x212  r5  -3.7827516269103385
    x212  r6  -0.13960754719217788
    x212  r427  66.66047288692712
    x212  r853  0.014320894315962424
    x212  r1063  3384.321488544643
    x212  r1170  20616.81132725435
    x212  r1171  0.007325549143679957
    x213  OBJ  0.28425553995951947
    x213  r34  -6.985064777163288e-07
    x213  r270  0.0005187261737732459
    x213  r271  1.7454587929711951e-06
    x213  r290  -1.9352752164302685e-05
    x213  r291  -1.9003441309350808e-06
    x213  r554  0.6963682826463234
    x213  r623  -75.68905325507905
    x213  r1100  0.00660260176848562
    x213  r1101  1.0736543557397016e-05
    x214  OBJ  0.04201552284833718
    x214  r5  -6.635967849973252
    x214  r6  -0.24490931298455154
    x214  r520  0.08373861405937001
    x214  r521  0.19263334305015334
    x214  r587  8756.944582223741
    x215  OBJ  -4.1884322663533825e-05
    x215  r267  0.20240102651989111
    x215  r477  -2.440841836472557
    x215  r962  735.4538958287433
    x216  OBJ  12.004291976811373
    x216  r672  -0.0009250120534762298
    x216  r710  235.19652906122874
    x216  r711  3.5403705508046746
    x216  r880  46.131982448047424
    x216  r881  4.526139496776909
    x216  r905  0.00024633508338740026
    x216  r906  0.30947161304793636
    x216  r1013  1.2245092654200562
    x216  r1085  13.126329512639812
    x216  r1086  10.550518817052684
    x217  OBJ  4.430248604141804
    x217  r89  0.040545961838745787
    x217  r250  -0.00015193870535202698
    x217  r251  -0.0024516364271614053
    x217  r687  0.004027706050675165
    x217  r1028  -0.00011718376133702972
    x217  r1132  0.02579953906375939
    x218  OBJ  0.06877838996968111
    x218  r784  0.0021769649734471627
    x219  OBJ  -0.031652862702847145
    x219  r45  2063.2252744800553
    x219  r46  0.0003515757210749563
    x219  r800  164.05197439097955
    x219  r801  28225.7169822552
    x219  r1057  -0.0008476855019711135
    x220  OBJ  -1.056301278025515
    x220  r317  0.15710706195927787
    x220  r368  0.8456345836818767
    x220  r794  -0.00024343519062196753
    x220  r927  -0.3459839884507656
    x221  OBJ  88.81328948192274
    x221  r423  0.001182295400447108
    x221  r807  0.0003225934166744717
    x221  r848  -3.7111778258871997e-06
    x222  OBJ  -333.65850585755106
    x222  r275  0.0013092484162808122
    x222  r276  0.0003993805691293268
    x222  r327  8.433357145320844e-05
    x222  r339  0.0006416917991985792
    x222  r932  -0.8387169931282671
    x222  r1022  2.5530946802397175e-06
    x223  OBJ  -0.026872755478197525
    x223  r19  63.031343901929446
    x223  r567  0.006673591097007279
    x223  r648  -7.919084552129932e-05
    x223  r682  0.5357327374295248
    x223  r749  -11.266930948812163
    x223  r978  4.679157063197328
    x224  OBJ  -3.8653388618975417
    x224  r190  -0.05805353040931836
    x224  r191  -0.002465683670482756
    x224  r199  0.10163333127919734
    x224  r303  2.8216048771938935e-06
    x224  r922  -0.012089101444058706
    x224  r1118  -0.04483135733692661
    x224  r1183  0.6858313089898621
    x225  OBJ  12777.529113376688
    x225  r3  1.5704836500123653
    x225  r177  -1.2685920973358351e-05
    x225  r198  0.005353393194759195
    x225  r700  0.03988673203732386
    x225  r701  4.218478680569752e-05
    x225  r1058  -2.0754128897095994e-06
    x226  OBJ  1.3607509776912132
    x226  r52  490.80874232351346
    x226  r387  -4.6222341831088696e-05
    x226  r425  -0.005171072497738456
    x226  r426  -77.83228002427508
    x226  r999  -234.86937764579937
    x226  r1094  0.0008802801887265589
    x227  OBJ  0.0011135997260705722
    x227  r603  0.004565464423378704
    x227  r912  87.57932926264571
    x227  r938  -0.8083247578774212
    x227  r1085  24692.801807688636
    x227  r1086  19847.272904030124
    x227  r1128  -0.25573405399995375
    x228  OBJ  -5.3837131181393625
    x228  r30  0.007346447852612875
    x228  r31  0.50959616068969
    x228  r95  -0.021164745109243314
    x228  r96  -9.074950452737387e-08
    x228  r242  0.08627050992372873
    x228  r477  5.245597065324146e-05
    x228  r647  -0.06032027581130921
    x229  OBJ  0.12320203439364245
    x229  r319  216.49955970507267
    x229  r757  -1.1371971010276534
    x229  r990  5.2048747212956745e-05
    x229  r991  0.0013071103672442233
    x230  OBJ  45.81073691906729
    x230  r178  0.034563069596913236
    x230  r325  -0.3302637580481686
    x230  r326  -0.002161396881689848
    x230  r443  6.504133063556481e-07
    x230  r633  0.00026005555063335063
    x230  r972  -2.9609815991706856e-05
    x231  OBJ  0.01182703131994119
    x231  r777  0.0820350448512927
    x232  OBJ  0.00567728879471713
    x232  r230  0.0015081107281193593
    x232  r231  133.20370116866084
    x232  r1104  66.42243729905363
    x233  OBJ  6.439709531274474
    x233  r38  7.389652724953944
    x233  r50  -0.0028650814608056183
    x233  r51  -695.2849461689912
    x233  r197  0.5822040909130334
    x233  r222  0.06679962412011309
    x233  r415  0.0013992761184156044
    x233  r416  0.0007733136141085391
    x234  OBJ  2.8779225553260077
    x234  r185  7746.2654389443505
    x234  r186  0.0329771263312459
    x234  r529  2550.2108370941355
    x234  r857  -54204.79561696398
    x235  OBJ  18.056171465876794
    x235  r25  6.730008932524935e-07
    x235  r26  0.0015583289086706135
    x235  r100  -0.08265167123246786
    x235  r101  -5.812620014546779e-07
    x236  OBJ  -33.245521197811144
    x236  r62  2.1144108714174834
    x236  r403  0.0021971802142658208
    x236  r1114  -7.482361100702034e-05
    x237  OBJ  0.09836073095616081
    x237  r184  162.48960999461204
    x237  r567  -0.005584876757877119
    x237  r873  1.303714673759281
    x237  r1012  0.15150066424858707
    x237  r1028  -5.311435981418633e-05
    x238  OBJ  -0.053793914287231806
    x238  r38  235.23732123005226
    x238  r122  73.6041955947362
    x238  r829  -1.3497923595946133
    x239  OBJ  -0.0648233459243343
    x239  r117  -327.04762083687035
    x239  r788  -5.743836079798746
    x239  r1137  0.019120567754268843
    x239  r1174  -15740.945292450782
    x240  OBJ  322.6878543629211
    x240  r10  -6.732401106931649
    x240  r11  -1.3982652593020024e-05
    x240  r30  3.050665257441374
    x240  r31  211.61346734240132
    x240  r32  34.52020735956575
    x240  r689  -0.3451569049630471
    x240  r892  -273.004165754799
    x240  r1029  -6.283491121975642e-05
    x241  OBJ  -3.5715192113770633
    x241  r525  -0.8005061973146006
    x241  r526  -6.967575905064624
    x241  r1055  0.001240495549532688
    x241  r1056  0.00034019309468367277
    x241  r1125  7.237370136294053
    x241  r1126  0.016143395440862778
    x241  r1183  63.09911569773442
    x242  OBJ  -0.24378250255454714
    x242  r387  -0.000682744004799916
    x242  r754  1.160090182921153
    x243  OBJ  177.2245642888039
    x243  r37  -9.216291349505606e-05
    x243  r452  0.00012391769967768938
    x243  r550  -3.766282318524024e-06
    x243  r551  -0.26841133990290544
    x243  r993  -3.316486241450728
    x243  r1104  1.4052235113526244
    x243  r1129  0.15787216094439943
    x244  OBJ  239.31615042887458
    x244  r113  0.0146097917059337
    x244  r182  -0.002416489787734124
    x244  r360  -0.0009225300403363244
    x244  r361  -1775.3562425024145
    x245  OBJ  -0.012259582431786903
    x245  r254  17998.715180134135
    x245  r423  -43.260640565841605
    x245  r633  21.620379465839125
    x245  r872  464.23514810228346
    x245  r1034  -0.035385553372685154
    x245  r1177  30241.3496394836
    x246  OBJ  -1152.0392691589814
    x246  r55  -0.03870399779568722
    x246  r56  -0.07236940729792476
    x246  r293  0.11421647691409452
    x246  r807  0.0021329342745100783
    x246  r809  -2.733441586299826
    x247  OBJ  -0.0003065291806074089
    x247  r374  1565267.4122964905
    x247  r434  9.459819124908131
    x247  r443  -0.03331274344440418
    x247  r1097  121.10998085868766
    x247  r1129  442.64237803280366
    x248  OBJ  0.02041113361142087
    x248  r24  -0.016419860310924263
    x248  r688  139.7305790849903
    x248  r834  -39579.51015179117
    x248  r1042  0.05963063719116702
    x249  OBJ  -793.0320099072279
    x249  r92  0.43056897557313856
    x249  r964  -22.8616728042708
    x249  r1050  -1.0371301942689358e-05
    x249  r1051  -1.7961446338412145e-09
    x250  OBJ  -20.528062241518285
    x250  r1149  -10.476191240724068
    x251  OBJ  -0.0003647665531770679
    x251  r508  -68803.83893692984
    x251  r643  -5.863744131869789
    x251  r702  5515.483328859763
    x251  r788  1115.1651258838824
    x251  r1119  0.9925627685334355
    x252  OBJ  -0.00011461150816307926
    x252  r42  -0.16201919621338912
    x252  r722  40173.49264919413
    x252  r998  359.40792721707487
    x252  r1014  -30233.60776544422
    x252  r1057  0.34129320744216957
    x253  OBJ  -0.16638870891077523
    x253  r168  0.1770016976474041
    x253  r180  0.0004291451390830317
    x253  r181  2.098523000950707e-05
    x253  r488  -0.7135236019942062
    x253  r714  30.913186213276195
    x254  OBJ  -0.002089512825025389
    x254  r137  0.01933375636538638
    x254  r153  -0.2402692897388314
    x254  r259  -2693.819587891759
    x254  r1117  -0.008029140392736082
    x255  OBJ  -1.8465421788778873
    x255  r97  13591.33837388155
    x255  r262  -19450.643720000902
    x255  r447  9903.011226885663
    x255  r493  -116.39678969651851
    x255  r673  0.2618620684800036
    x256  OBJ  -0.0003232456810991433
    x256  r615  0.831516245908342
    x256  r616  18438.96223618683
    x256  r619  1483.1914792370662
    x257  OBJ  -103.62004624597931
    x257  r130  0.0626955825307114
    x257  r131  0.037051411960481104
    x257  r454  0.11935479463060684
    x257  r613  1.0787026259906805
    x257  r912  -0.01492200194552374
    x257  r994  2.184096862905852
    x258  OBJ  -0.2989068072917326
    x258  r812  9.545120183161458e-06
    x258  r1029  3.639570199208739e-05
    x259  OBJ  133.79464624858784
    x259  r324  0.0006349677182484156
    x259  r414  0.08263040568095294
    x259  r833  -13.945553102282242
    x259  r1034  1.5494498186041937e-05
    x260  OBJ  -2.907354927422357
    x260  r3  -2519.47336566101
    x260  r389  -1218.2867084483305
    x260  r1019  103.10623386607439
    x260  r1063  -162.66676761745734
    x261  OBJ  2.3445512406303806
    x261  r42  -7.694449675191693e-05
    x261  r549  0.05042589492696289
    x261  r765  0.36826358461581743
    x261  r766  0.027687459302876673
    x261  r904  -81.34473937298968
    x261  r1067  4.869593453912749
    x262  OBJ  52.90439088430927
    x262  r309  1.1488016008834345e-05
    x262  r748  3.1694464137624374
    x262  r778  -6.673054919858298e-07
    x262  r930  -1.4822946726829072
    x262  r931  -0.0003900498671340577
    x263  OBJ  15.859354756212818
    x263  r103  0.0035697861485634126
    x263  r302  0.18463118024236017
    x263  r339  0.022169094023486793
    x263  r918  15.470118487781344
    x263  r1003  -1.0985439677674238
    x263  r1089  -0.00010140651615690866
    x264  OBJ  -10.906757896933385
    x264  r258  0.016605581084608106
    x264  r487  -639.7870861285961
    x265  OBJ  -21.861251030183723
    x265  r994  6075.643051263115
    x265  r1023  0.0009539518728624559
    x265  r1160  0.40537307301466724
    x265  r1161  0.0033574225611359256
    x266  OBJ  1294.171093594691
    x266  r495  -0.048560866152219086
    x266  r496  -23.3087756022477
    x266  r627  19.233635574654485
    x266  r798  0.07592632892319565
    x266  r1048  7.900224073231403e-05
    x267  OBJ  -0.6321807240291862
    x267  r182  0.03152875284034424
    x267  r458  8432.63471286759
    x267  r508  -225.90213291602555
    x267  r654  -3933.117676718477
    x267  r857  -7477.038993206974
    x267  r1040  25.964697277001804
    x267  r1041  0.2623210853580856
    x267  r1198  184.98862504109354
    x268  OBJ  0.016595782395697013
    x268  r85  -0.014015509962501102
    x268  r86  -90447.6064260784
    x268  r330  -19149.07919258931
    x268  r331  -0.18084519673017946
    x269  OBJ  44.84085547360998
    x269  r980  0.00037704993600019983
    x269  r981  4.909235021885698e-07
    x270  OBJ  1.871222498834239
    x270  r344  -13653.32667855712
    x270  r459  6.989279377258024
    x270  r837  493.45523282364377
    x271  OBJ  -0.0508708696000673
    x271  r104  2215.6099621268304
    x271  r348  0.08812802491978859
    x271  r473  0.8852359837043958
    x271  r635  0.049980120924770575
    x271  r636  20061.890518716802
    x272  OBJ  0.0006872132781343222
    x272  r473  -0.21118482706129
    x272  r959  0.0036025597607711236
    x272  r1043  0.010579532817112193
    x273  OBJ  0.010358080721072202
    x273  r682  83.72306410345462
    x274  OBJ  -173.0883995864162
    x274  r617  0.41150385005540263
    x274  r670  -11.689357972060634
    x274  r671  -3.8802830876874287e-05
    x274  r808  -8.080448166125525e-05
    x274  r863  -0.26300321058863024
    x274  r889  6.638008300449497e-07
    x275  OBJ  0.4180549907664215
    x275  r67  -144.93121185774683
    x275  r298  0.005443116846290272
    x275  r693  0.0010733926779756678
    x275  r943  -16.79161517989939
    x275  r1049  0.15286778793838682
    x276  OBJ  0.0016135768748040073
    x276  r859  -8.31120402671903
    x276  r980  -55.91040008093867
    x276  r981  -0.07279600603481862
    x277  OBJ  592.5030003145639
    x277  r374  -102.87822000171604
    x277  r570  0.010487028953457093
    x277  r571  0.00020489248070151486
    x277  r1163  0.0014066988611747277
    x278  OBJ  0.020377652951917995
    x278  r7  774.5533122947537
    x278  r162  7.944457777730073
    x278  r334  -0.022297036482765237
    x278  r382  -1649.4738063437653
    x278  r683  -0.4183301008546839
    x278  r938  159.4210548843894
    x278  r995  0.014447808563428836
    x278  r996  5034.5635534782095
    x279  OBJ  1.3209235772381596
    x279  r330  -324.526516258212
    x279  r331  -0.0030648500232159054
    x279  r388  2911.4235650988917
    x279  r497  -80.71365674983663
    x279  r819  19.638786109596186
    x279  r1054  20.034679539725257
    x280  OBJ  0.0007573921713873872
    x280  r237  21950.00519028227
    x280  r449  -0.031863053676174743
    x280  r455  3.6148047248166986
    x280  r456  9365.39962650103
    x280  r1004  -4.863799282430279
    x281  OBJ  -0.00012493842869491992
    x281  r449  0.7189256652600795
    x281  r543  0.12751192730744113
    x281  r603  -0.002813310750739987
    x281  r712  20730.652555130695
    x282  OBJ  -0.01806925630707847
    x282  r38  2550.7138995499936
    x282  r617  4317.0361011638615
    x283  OBJ  -38.9397865161916
    x283  r37  9.960861300194008e-07
    x283  r258  0.00016128767907724027
    x283  r764  -0.27761777805015214
    x283  r1017  0.6117607705517887
    x283  r1044  -0.10504121538298003
    x284  OBJ  -1.403650406712123
    x284  r10  -1839.4520059795702
    x284  r11  -0.003820393044416873
    x284  r974  -0.7727624338142064
    x284  r1118  393.13849828388805
    x284  r1179  0.777592175766293
    x285  OBJ  0.7361801102850107
    x285  r208  0.012618530641221018
    x285  r613  -233.33933559897244
    x285  r667  0.0005290614702366291
    x285  r928  0.009861113770805814
    x285  r1144  -7.516919913850472
    x286  OBJ  33.37473531111779
    x286  r262  -17.201778817710775
    x286  r403  -0.002036493074009745
    x286  r493  0.05209386797410075
    x286  r1028  -1.7458153449531298e-06
    x287  OBJ  0.01396872900323809
    x287  r423  -0.5803855691327324
    x287  r493  2.922226055273625
    x288  OBJ  427.4340159256344
    x288  r32  -33.151522845104125
    x288  r154  2.374709650682908
    x288  r297  8.188682291402992e-06
    x288  r363  533.8169388247264
    x288  r474  0.0016616861851795344
    x288  r524  -25.938318677843608
    x288  r735  -0.01910453065588956
    x288  r736  -285.2851428757713
    x289  OBJ  500.4096570494674
    x289  r7  -0.1642564717667134
    x289  r542  0.025281999570124405
    x289  r668  6.083341924890877e-05
    x290  OBJ  -3797.4014418594907
    x290  r63  -9.280219645875037e-05
    x290  r222  -0.0010368389332606777
    x290  r448  7.394047635321833e-06
    x290  r555  -7.130480947276795
    x290  r556  -0.0007521021738982327
    x290  r934  -0.3110195424955689
    x291  OBJ  -12.51763959981829
    x291  r277  0.0022559351931686206
    x291  r579  2.3011556949443586
    x291  r890  4.007210679188964
    x291  r891  342.8923596235067
    x292  OBJ  7.78425172581583
    x292  r53  -7.883914502205041
    x292  r610  -0.007855366702105914
    x292  r611  -0.0022373855146769917
    x292  r865  64.08520256791309
    x292  r866  0.00017235843721432692
    x293  OBJ  0.003967843635723372
    x293  r39  662.4770447843607
    x293  r407  -0.017376602293413455
    x293  r685  6.726287504565607
    x293  r686  3.1231621976302977
    x293  r1175  0.0006849992097234933
    x293  r1176  0.3091393134454975
    x294  OBJ  7.829665688151355e-05
    x294  r358  14176.556759618516
    x294  r434  -5.918934025542714
    x294  r685  39.78527639154134
    x294  r686  18.47317278126958
    x295  OBJ  116.50888257657357
    x295  r643  0.00016384167231149453
    x295  r935  51.717889508622534
    x295  r936  1.6369192313250435e-06
    x295  r1098  2.421625010648863e-05
    x296  OBJ  8.436006147791165e-05
    x296  r14  -5.233760682413264
    x296  r79  44.02925985916125
    x296  r614  -498643.810546517
    x296  r650  3036.3581334259816
    x296  r651  33.70650532849896
    x296  r1144  -138.01390623874087
    x296  r1173  291.02419919266293
    x297  OBJ  0.39686225986925433
    x297  r45  8.379996145154614
    x297  r46  1.4279598690260604e-06
    x297  r494  0.06988743617431824
    x298  OBJ  -4.569443022393736
    x298  r68  13.888507853819727
    x298  r305  0.22148322085219846
    x298  r306  9.45188088078055e-05
    x298  r362  -1.0569739014647361e-05
    x298  r660  -0.003145583438178911
    x298  r661  -0.003021686854530536
    x299  OBJ  -4770.347442097207
    x299  r483  0.03797882946782481
    x299  r572  2.1169273364321555
    x299  r1045  -0.17189194565440644
    x299  r1046  -0.08310068588581784
    x300  OBJ  0.07500061341171171
    x300  r109  -0.0002997296661306048
    x300  r200  -634.0848241798209
    x300  r201  -2.1472608113466216e-05
    x300  r373  3.179711104752088e-05
    x300  r425  0.009450863801881914
    x300  r426  142.24944722063768
    x300  r638  0.00098446985198683
    x300  r1169  29.507868449820457
    x300  r1172  215.69137071958795
    x301  OBJ  -10.478390081558654
    x301  r23  -0.20059083470779115
    x301  r124  3.229785419035002e-05
    x302  OBJ  3182.8691692487714
    x302  r220  -0.1018283474593525
    x302  r221  -0.01822694765511494
    x302  r612  -7.620570354597168e-05
    x302  r755  -5.588816966591328
    x302  r756  -7.642419633491149e-07
    x302  r988  1.6882922163031198e-06
    x303  OBJ  -233.96197212494891
    x303  r473  0.0001156368447584921
    x303  r1159  1.1040362031012315e-05
    x304  OBJ  -5.973914516799361
    x304  r75  -6.874706244843516e-07
    x304  r76  -0.1334812164849513
    x304  r434  8.573813405346792e-05
    x304  r548  -0.00816988183499298
    x304  r577  -8.790810394340367e-05
    x305  OBJ  0.5706959651640415
    x305  r329  0.9169788626605608
    x305  r538  -0.66648723587285
    x305  r805  -0.8688196291071972
    x305  r806  -0.0954081673305649
    x306  OBJ  590.6051539962405
    x306  r40  -0.0003948575636442439
    x306  r41  -0.1882180334977299
    x306  r118  -4.81943678073203e-07
    x306  r443  -5.672272891538767e-07
    x306  r590  5.190459582345478e-05
    x306  r591  0.00041590465091330387
    x306  r828  -3.4027060883779326e-05
    x306  r945  0.01471946471921607
    x306  r946  0.00039818865677197454
    x306  r1113  -0.00292739495299442
    x307  OBJ  -0.9314411652090634
    x307  r130  97.63836701122176
    x307  r131  57.70165698269773
    x307  r298  -0.0019759147011126814
    x307  r384  0.9356143250121065
    x307  r447  -33630.6404297368
    x307  r488  1573.424502304768
    x308  OBJ  1107.6618820981746
    x308  r87  1.714523331194675e-05
    x308  r99  -0.00247480102427201
    x308  r144  2.1710921390964367e-05
    x308  r247  -10.333188317983856
    x308  r1112  -8.38434886651547e-05
    x308  r1155  0.001263010107555098
    x308  r1156  0.0008115491655703601
    x309  OBJ  0.8797254367155989
    x309  r270  4.694078722395213
    x309  r271  0.015795079167309028
    x309  r789  39668.4659634031
    x310  OBJ  90.23248051943973
    x310  r62  -61.08719701085803
    x310  r177  -0.0012859168140678342
    x310  r178  2.5776104427445388
    x310  r527  0.0005876114736884562
    x310  r1098  -0.00023277786058957842
    x311  OBJ  -6.83216095784263
    x311  r872  0.3350173514674843
    x311  r1114  -0.0004914065828144965
    x312  OBJ  394.88481687589785
    x312  r120  3.370500204606234e-06
    x312  r121  5.232613014340975
    x312  r575  0.001173111929330821
    x312  r576  0.0010972120592747476
    x313  OBJ  -139.78906239456597
    x313  r162  -0.009533070885849192
    x313  r505  1.837734709555007e-05
    x313  r506  0.10594959311100106
    x314  OBJ  74.8941900893614
    x314  r1090  8.69022764338125
    x314  r1091  109.51156222373037
    x315  OBJ  0.36756389708626047
    x315  r267  -0.14388008094109847
    x315  r554  -214.68583432905783
    x315  r639  -8393.220852596927
    x315  r1020  -8619.859681230322
    x315  r1021  -0.013071706425983189
    x316  OBJ  0.07031940276958615
    x316  r20  -0.06484646000467771
    x316  r21  -1421.6774852233211
    x316  r527  -1.6741021353946897
    x316  r1157  12.060476248336316
    x317  OBJ  -679.6429071795778
    x317  r52  -100.39769677496537
    x317  r589  -4.024930027079413
    x317  r868  -0.11291570239507116
    x318  OBJ  0.0213400665597299
    x318  r93  0.04649075996338198
    x318  r244  0.0011163311992544369
    x318  r662  -0.053821405459340874
    x318  r825  698.6435497221463
    x318  r826  0.4160836664807733
    x318  r845  -317.2799551064006
    x318  r846  -0.043310381395554785
    x318  r1008  -240.15855514371913
    x318  r1067  5.409255259965282
    x318  r1130  -15.379969142276755
    x318  r1131  -1.698439973232426
    x319  OBJ  -2496.8111757808033
    x319  r30  0.30015845288458926
    x319  r31  20.820891709473102
    x319  r73  0.0005394318974014379
    x319  r328  0.0389402486908289
    x319  r737  11.923652826036465
    x319  r799  1.0142232036454076e-05
    x319  r985  0.0009473188922115434
    x319  r986  2.1238173796207684
    x319  r1060  -3.353444259633396e-06
    x319  r1061  -0.0017910149480451346
    x320  OBJ  11.74081879901687
    x320  r72  0.4146157513265672
    x320  r697  -0.09859941744847563
    x320  r785  -396.00498542091566
    x320  r786  -0.027737512654589534
    x320  r875  -0.002306370991953142
    x320  r876  -4.585228792575465
    x321  OBJ  0.00266485920246861
    x321  r144  -0.010807877817642494
    x321  r189  -8.231928738886113
    x321  r1050  1.204128710043119
    x321  r1051  0.00020853595170109028
    x322  OBJ  -0.02887646498453013
    x322  r213  -947.9362728182523
    x322  r435  711.8650470022536
    x322  r436  5733.945105247016
    x322  r607  0.3699471422344922
    x323  OBJ  -0.5557202044848465
    x323  r587  19117.22790603633
    x323  r698  5.460778410531677
    x323  r775  -228531.37011217052
    x323  r776  -0.33163199187765147
    x323  r808  -1.5018865210598988
    x323  r1163  -0.7194803264680056
    x324  OBJ  -8.502818326149844
    x324  r55  -0.010514191126767037
    x324  r56  -0.01965961521565215
    x324  r269  -11.261127916881458
    x324  r455  -0.0005552381690012575
    x324  r456  -1.4385360251637096
    x324  r598  7.5295836777782664e-06
    x324  r665  6.677939014701752e-05
    x324  r666  2.461074693106874e-06
    x324  r917  -1.4815394304220722e-07
    x324  r959  -9.004599833211663e-07
    x325  OBJ  2.993767215819426
    x325  r249  0.00010493842071336545
    x325  r489  1.337393015065456
    x325  r530  0.0001540837400405096
    x325  r531  0.02781860857566471
    x325  r722  -169.67800989586635
    x325  r990  1.8910781971243905e-05
    x325  r991  0.0004749101182844052
    x325  r1012  0.0018602968156236786
    x325  r1105  -20.761892022045217
    x325  r1106  -311.13082834084634
    x326  OBJ  1.3112253748428928
    x326  r38  12.143883712659173
    x326  r203  0.29469423392119454
    x326  r584  0.0008384511653655992
    x327  OBJ  0.01204854225832339
    x327  r373  0.007598068001770449
    x327  r450  255.1914709316434
    x327  r451  1377.912701197642
    x327  r474  -0.49169356967041017
    x327  r504  -0.26315387835419696
    x327  r540  1.136400056999296
    x327  r541  1.931348441940065
    x327  r594  92.17287879029433
    x327  r595  5469.744740868448
    x327  r596  46821.63536099926
    x328  OBJ  2967.76048907864
    x328  r277  4.2617501115630385e-06
    x328  r494  0.01661086738944568
    x328  r647  0.03229770706019274
    x328  r859  -1.2946761598944064e-05
    x329  OBJ  84.91394663494569
    x329  r739  -108.86785995194286
    x329  r754  0.2163231302065557
    x329  r1113  -0.4100529030592607
    x329  r1187  0.003060169290342979
    x330  OBJ  -0.025434200527327894
    x330  r108  -2811.473852506251
    x330  r398  0.2723940082217719
    x330  r472  0.1639131905383803
    x330  r503  0.016491490078525843
    x330  r959  -0.025661127035875822
    x330  r1034  0.01069988733376695
    x330  r1115  -26986.139975983093
    x330  r1116  -2521.1273981994414
    x330  r1125  -2213.8820046054952
    x330  r1126  -4.938198325186155
    x331  OBJ  58.27320113054769
    x331  r18  -7.239171215357239e-06
    x331  r363  -4284.255638951891
    x331  r579  0.5643449686637451
    x331  r598  0.0005343694957906917
    x331  r715  -0.11088768520860433
    x331  r716  -0.07687996343243922
    x331  r920  8.972796765114442
    x331  r921  4863.999111977113
    x331  r1082  51.57092063206802
    x332  OBJ  0.32719605245277833
    x332  r75  0.0004501742189997749
    x332  r76  87.40708365150023
    x332  r523  -2.1134596752378574
    x332  r848  -0.004057281586453917
    x333  OBJ  -55.371428028621075
    x333  r44  0.004190835670833881
    x333  r650  -0.033287697666593535
    x333  r651  -0.000369525529356883
    x333  r729  0.04887324002992516
    x333  r1018  -2.4620417796069383
    x334  OBJ  -0.0007635468303513062
    x334  r35  557.2017742654386
    x334  r36  161.8388259122945
    x334  r768  -0.010132692535285105
    x334  r912  -608.0955359022574
    x335  OBJ  6.458084796496251
    x335  r644  -2.8460853983506462
    x335  r755  -0.8015052705588703
    x335  r756  -1.0960172166457097e-07
    x335  r763  0.007544840048823231
    x336  OBJ  346.567144631538
    x336  r464  -8.557054819835038e-05
    x336  r513  0.18651026783277022
    x336  r1017  10.288162837330187
    x336  r1070  0.00021986791347061217
    x336  r1071  2.0535944625825864e-06
    x337  OBJ  0.0020447606046327567
    x337  r572  1868685.767156459
    x337  r698  -8.529119079676004
    x337  r759  -0.12692821361401518
    x337  r797  383.25992405584776
    x337  r1005  -17316.041541887756
    x337  r1006  -5505.091623573053
    x338  OBJ  -19.25676386150917
    x338  r208  -0.00046658977754487403
    x338  r403  -0.026399417058781544
    x338  r478  1918.776426159811
    x338  r510  0.0013656882671380277
    x338  r511  0.07299126184777127
    x338  r1185  -0.00022977711326110388
    x338  r1186  -5.606958291087124e-06
    x339  OBJ  -0.6909139253792957
    x339  r109  0.005585023021889115
    x339  r252  0.095524605103412
    x339  r785  -2089.4251540643822
    x339  r786  -0.14635030615721228
    x340  OBJ  -0.00878175111450901
    x340  r94  0.001735880802471188
    x340  r723  -5.494010360996196
    x340  r787  3.113164839750284
    x341  OBJ  -0.40767640402066596
    x341  r265  0.8709952189303234
    x341  r266  5.8293005372394155e-06
    x341  r1189  -0.0008361352730227365
    x342  OBJ  -0.9831422183272794
    x342  r140  -81104.540207393
    x342  r141  -191.65210096257707
    x342  r244  0.031290376769145
    x342  r490  -40904.97649963343
    x342  r491  -106.41579833978109
    x342  r629  0.007479272324380818
    x342  r1013  4419.812692660939
    x343  OBJ  10.075924804461652
    x343  r54  10.177556707847131
    x343  r67  -11.100201585276059
    x343  r190  121.94196656917497
    x343  r191  5.179190888068838
    x343  r270  0.0450613809934532
    x343  r271  0.0001516267881883091
    x343  r787  -7.559630085774201
    x343  r893  -0.3376585444390651
    x343  r1132  0.934834026153059
    x344  OBJ  0.12375629007308446
    x344  r22  -0.0024897899617985124
    x344  r352  -0.06216527317968047
    x344  r407  -0.00918648470540041
    x344  r929  -67.64518383646704
    x345  OBJ  -135.3153903147473
    x345  r170  9.714602848064725e-06
    x345  r171  4.4782695090683646e-05
    x345  r259  0.9891120519754636
    x345  r468  0.5703044568906287
    x345  r617  -1.6649404075324634
    x345  r692  0.009062149992243107
    x345  r700  0.48783019766705793
    x345  r701  0.0005159362468905275
    x345  r777  -7.934716511232433e-06
    x345  r820  1.3848196722626296
    x345  r821  1.0560236761468543e-05
    x346  OBJ  0.04807518240099371
    x346  r533  -0.0019495073336567809
    x346  r593  0.06971181120796871
    x346  r1070  0.042675842233439606
    x346  r1071  0.0003985978304576652
    x347  OBJ  2.8790327592779103e-05
    x347  r39  41538.0918856549
    x347  r55  1280.06254936358
    x347  r56  2393.482947859705
    x347  r305  -137.91591596658137
    x347  r306  -0.058856142883607875
    x348  OBJ  -0.08879652020235085
    x348  r182  -0.005146355955962341
    x348  r293  4.165479012928951
    x348  r804  -1.115233624732312
    x348  r1115  -34.20209922757884
    x348  r1116  -3.195264291792947
    x349  OBJ  0.9698422718603329
    x349  r73  -0.04993132390751878
    x349  r329  0.031467544792536335
    x349  r537  -2.369626967787361
    x349  r707  -9.399117785795856e-05
    x349  r902  -0.0010064250804785726
    x349  r950  56.734522089554154
    x349  r951  0.040794567125446525
    x349  r987  0.0005396989996202967
    x350  OBJ  -1416.1538159597837
    x350  r7  0.49709658015438835
    x350  r295  -0.039400775448402474
    x350  r296  -0.0007990927613429151
    x350  r967  -0.004323552306869494
    x350  r1083  -0.0010502056813944563
    x351  OBJ  0.0013223437840675148
    x351  r365  0.0008256432488964781
    x351  r366  23.699955951766384
    x351  r702  12.116914813584705
    x351  r964  -29241.75118242559
    x352  OBJ  0.035280385915311276
    x352  r5  -0.21931151363071955
    x352  r6  -0.00809398618968869
    x352  r83  3.783016412158878
    x352  r649  0.2366250586400057
    x352  r763  4.830151344927494
    x353  OBJ  -0.009535874395101712
    x353  r73  -0.8464206388666319
    x353  r990  -0.0008710125556058135
    x353  r991  -0.021873906453946063
    x354  OBJ  2.2341274418231905
    x354  r540  -0.0006218969173598393
    x354  r541  -0.0010569337047129756
    x354  r650  -0.6007099598201607
    x354  r651  -0.006668459564725812
    x354  r772  -7.202268144007571e-05
    x354  r1037  2.0725957829617143
    x355  OBJ  2.4815492417946294
    x355  r67  0.3954092234466489
    x355  r513  0.6939019459399898
    x355  r945  -0.17413243009682436
    x355  r946  -0.004710603256528409
    x356  OBJ  0.04825122835301543
    x356  r79  86.3180591770889
    x356  r928  5.315713510594049
    x356  r1007  202.31992610640435
    x356  r1043  0.22684453185074036
    x356  r1128  7.436929174731826
    x357  OBJ  123.3235399028895
    x357  r319  1.368040095448072
    x357  r1035  2.0148509137016663e-07
    x357  r1036  0.06470019016300164
    x358  OBJ  13.626447705548806
    x358  r694  155.6794706564737
    x358  r1043  -9.282534732587525e-05
    x358  r1083  -0.002129066699323229
    x358  r1169  487.81572273076137
    x359  OBJ  1.4762839101723175
    x359  r83  -0.037255840108935234
    x359  r334  3.605868119256358e-06
    x359  r413  0.0014174664864088076
    x359  r885  0.018334693154675324
    x359  r886  0.05136708074565558
    x359  r1117  3.0005612283194636e-06
    x360  OBJ  -0.004987272318714624
    x360  r99  3.968035530615994
    x360  r992  49.56937435005316
    x361  OBJ  14.259173686913398
    x361  r173  9.520715586598838
    x361  r494  -0.03141679109510584
    x361  r698  -0.001049198695862249
    x361  r875  9.336473221665578e-05
    x361  r876  0.18561569663533378
    x361  r1180  8.028448695271395e-06
    x361  r1181  0.07988117688711636
    x362  OBJ  0.1419123472847904
    x362  r140  505.12754594118076
    x362  r141  1.1936291791467286
    x362  r1068  650.7726046251352
    x362  r1179  0.03620359684590836
    x363  OBJ  -1.0355353371175853
    x363  r294  -0.7301730376906574
    x363  r417  0.0035641832632431606
    x363  r1004  2.542417393898718
    x364  OBJ  153.0684916394341
    x364  r337  -3.651780893085933e-05
    x364  r362  1.4517869148790713e-06
    x364  r673  6.038937334572539e-05
    x364  r748  0.046653841818644314
    x364  r778  3.407055548559032e-07
    x364  r840  0.6431610205095304
    x364  r841  0.0004976594232807729
    x364  r944  -0.00013612060792627588
    x364  r947  0.08898691257234116
    x364  r1032  5.39079653035538
    x364  r1037  -0.1202260231450248
    x364  r1168  -0.010100263596523584
    x365  OBJ  0.023118983199408825
    x365  r770  162495.44272924983
    x365  r771  41452.75077705505
    x365  r1020  -622809.0419341875
    x365  r1021  -0.9444673628761366
    x365  r1139  0.20600801283356204
    x366  OBJ  -0.3933100917049142
    x366  r70  7.543328502981493
    x366  r71  0.5007686008274796
    x366  r639  20510.83734932978
    x367  OBJ  -0.12695913579218848
    x367  r720  93.31179369665604
    x367  r721  0.0014213525714619158
    x367  r1033  -33.677002288324786
    x368  OBJ  37.28147375118757
    x368  r99  0.0006662108717023414
    x368  r309  -5.716454325039566e-05
    x368  r348  -4.547434823802964e-05
    x368  r497  0.14938948168164684
    x368  r589  -0.8752127803796854
    x368  r853  -1.833643618926037e-06
    x368  r978  0.07421110583671743
    x369  OBJ  -1341.8312042805094
    x369  r125  0.4731397582251237
    x369  r126  1.4300850765563687e-05
    x369  r405  -0.008121042729311407
    x369  r406  -1.4508814576685227e-05
    x370  OBJ  -0.3092405425911389
    x370  r618  514.0913333662918
    x371  OBJ  0.021500116001527635
    x371  r118  0.005526368373496949
    x371  r453  10.117712401183534
    x371  r528  -0.005111056520839826
    x372  OBJ  270.30866900571874
    x372  r224  -0.12067838130878811
    x372  r398  1.7068045024583189e-06
    x372  r615  -1.6780549938439633e-06
    x372  r616  -0.03721104635036233
    x372  r797  0.0056209950866764665
    x373  OBJ  0.16502232715897114
    x373  r28  -0.0012599557523199905
    x373  r288  627.4268814129858
    x373  r595  -69.16971086793983
    x373  r596  -592.1005702672364
    x373  r998  19.952686522042747
    x374  OBJ  -0.013103101984394433
    x374  r482  -318.3464773411014
    x374  r528  0.004857367826573382
    x374  r822  -90.80344514560159
    x374  r857  -7626.607307081427
    x374  r1080  2629.025902858199
    x374  r1081  1.639371960864285
    x374  r1158  10.415202508469712
    x375  OBJ  3.703064795316991
    x375  r185  15.682897449106537
    x375  r186  6.676466779738399e-05
    x375  r467  24.694260294886202
    x375  r733  0.5827066437161259
    x375  r895  198.070482529001
    x375  r896  4.429748187364186e-05
    x375  r1149  -638.954724578262
    x375  r1157  -0.0060256816636135805
    x376  OBJ  -0.005742453657326581
    x376  r197  -1546.327955058278
    x376  r584  0.1539060865764332
    x376  r625  -0.34320259491539995
    x376  r626  -65929.0156821324
    x376  r740  -0.004117782691966184
    x376  r741  -1.2905231730909894
    x377  OBJ  0.15853775094202338
    x377  r198  0.010505765834229156
    x377  r319  6.519804148753548
    x377  r395  -7.3647995175486605e-06
    x377  r396  -0.004643310935555306
    x377  r478  -16.043829872970335
    x377  r543  1.729713545080949e-07
    x377  r1172  28.71767785128736
    x378  OBJ  0.44757948289891314
    x378  r208  0.000414893319231274
    x378  r670  606.0711677394246
    x378  r671  0.002011853608842548
    x378  r757  3.278523987459078
    x379  OBJ  0.00019118531813074586
    x379  r58  -31911.161858563217
    x379  r59  5443.1295738101135
    x379  r708  0.1365001808526296
    x380  OBJ  -1.0151805655258208
    x380  r714  293.2029566376462
    x380  r762  -2.307968010217491
    x380  r1175  -5.2720356893359236e-05
    x380  r1176  -0.023792633193246312
    x381  OBJ  -313.4170478158236
    x381  r15  19.492131139434857
    x381  r16  3.7576547075310467
    x381  r174  -0.0021660805788197095
    x381  r400  0.004327177000986787
    x381  r401  0.12184323743206664
    x381  r508  10.425350320646984
    x381  r750  22.834297044938396
    x381  r751  0.0007650142180068674
    x381  r974  -0.0006640426525859426
    x382  OBJ  0.06864777211500382
    x382  r435  -0.9804290233993337
    x382  r436  -7.897179702018608
    x382  r639  -423.4409194617129
    x382  r1140  0.9810737147826237
    x382  r1141  269.54835203020946
    x383  OBJ  82.8280002421866
    x383  r380  -4.24441715926046
    x383  r381  -2.6387623065008357
    x383  r599  -442.52169354190295
    x384  OBJ  0.00217313542071604
    x384  r234  -201.28127284834508
    x384  r573  6490161.62163821
    x384  r734  3906867.5666554263
    x384  r930  1407516.1444404456
    x384  r931  370.3726663432032
    x385  OBJ  0.04647152251239922
    x385  r9  26759.68484927565
    x385  r307  -2053.71194559484
    x385  r599  645076.4842103908
    x386  OBJ  0.8124270657599587
    x386  r37  9.71913164493332e-05
    x386  r178  2.901058226514188
    x386  r568  0.0016938474285125686
    x386  r644  188.42268437740782
    x386  r1127  -1.7059879454377467e-05
    x387  OBJ  24.71332194527818
    x387  r8  1227.7707831850955
    x387  r414  0.5261164985025886
    x387  r652  0.010125504391529223
    x388  OBJ  -0.012595059513820717
    x388  r132  9.962134394347116e-06
    x388  r260  0.00038541291005768195
    x388  r261  1.5918778711188482
    x388  r477  0.00931872290751681
    x388  r485  -366.64389959379616
    x388  r486  -0.007095690051527104
    x388  r703  0.0020811981108922826
    x388  r764  39.88952263060808
    x388  r1138  -0.0011655218160524507
    x389  OBJ  3.1954263261162037
    x389  r977  5310.776865446543
    x389  r1149  -20853.299480743404
    x390  OBJ  0.037769016752346195
    x390  r119  324.83404894163544
    x390  r469  0.376424736972425
    x390  r659  -0.4342808540693842
    x391  OBJ  -3.6617089041320625
    x391  r234  0.002018715935669012
    x391  r443  3.5473629307890164e-06
    x392  OBJ  24.710585084562563
    x392  r50  1.9757692653392915e-05
    x392  r51  4.794706568431242
    x392  r1035  1.5353822419247003e-07
    x392  r1036  0.04930365931785902
    x393  OBJ  -124.16709078442369
    x393  r987  -0.00035017233538254107
    x394  OBJ  -0.4664656517126263
    x394  r123  -2.2320598931961193
    x394  r448  -0.009280716166644243
    x394  r487  261302.5140911963
    x394  r509  -1001.3693731067494
    x394  r638  -1.9387674404954358
    x395  OBJ  16.62223698495615
    x395  r462  -5.75960793908714
    x395  r1060  0.0001175894851639465
    x395  r1061  0.06280245304706014
    x396  OBJ  34.74182284893023
    x396  r97  13.235916651325905
    x396  r202  0.08805798638178679
    x396  r1162  0.04472096410418955
    x397  OBJ  -0.41458202937584393
    x397  r472  1.5039175823558235e-05
    x397  r1052  78.98595433133387
    x398  OBJ  17.286986709122512
    x398  r255  0.0303285242567954
    x398  r256  3.9199258948425175
    x398  r339  0.23018363288512964
    x398  r434  0.06366236796800386
    x399  OBJ  0.18174191911911888
    x399  r8  12029.493431053841
    x399  r804  13.09753159675533
    x399  r1068  1904.1481921492575
    x400  OBJ  0.01811652370748401
    x400  r224  10022.247685884817
    x400  r629  0.018921717628653974
    x401  OBJ  0.06435724784009034
    x401  r2  1501.1888314140772
    x401  r90  8.88878818442003
    x401  r91  0.02295497425015413
    x401  r339  1.3724217000850785
    x402  OBJ  0.00039685990735675137
    x402  r303  -0.3050396696933003
    x402  r350  1133700.9523985179
    x402  r351  128100.39375318939
    x402  r357  119754.55046095148
    x403  OBJ  115.76795551708827
    x403  r105  -0.0015827924297314373
    x403  r106  -1.5224579888814457e-06
    x403  r249  7.708365239626492e-07
    x403  r985  0.00043861057574078933
    x403  r986  0.9833316723117514
    x404  OBJ  -0.015429221826247902
    x404  r939  -0.011483761204267489
    x404  r970  7.968145280485864
    x404  r971  3.264989863916567
    x404  r1175  0.0036321069809997766
    x404  r1176  1.639165480088816
    x405  OBJ  -0.028475391566950663
    x405  r388  626.024030816406
    x405  r1048  0.001327662295959113
    x405  r1183  -28.071271811065184
    x406  OBJ  -0.0009737829725353164
    x406  r345  0.020316295325007762
    x406  r346  65.5312060690433
    x406  r484  -8.171033564633845e-06
    x406  r940  -0.08418076648442721
    x406  r941  -69.94923158233546
    x407  OBJ  228.27306476662525
    x407  r30  -3.004910943789352
    x407  r31  -208.43965830709055
    x407  r618  -54.377097666873894
    x407  r688  -0.08387105874291256
    x408  OBJ  0.3352426471409798
    x408  r297  0.0019153029304146022
    x408  r479  -0.2841442573643132
    x408  r913  11.20266117357644
    x408  r1022  -0.026176760178909717
    x409  OBJ  0.5930492392281042
    x409  r239  -7791.207060420486
    x409  r363  -1102.468419678918
    x409  r753  552.9242173408162
    x409  r879  -1.5833074980972737
    x410  OBJ  88.98283834685523
    x410  r99  0.022180258182730547
    x410  r310  0.016124470503073786
    x410  r311  4.307646996936464
    x410  r329  0.013820686238686762
    x410  r417  -1.2861895822510433e-05
    x410  r449  0.00011716187159471287
    x410  r568  -0.0003893971407473264
    x410  r599  384.9631846016022
    x410  r699  -0.08813228231596601
    x410  r758  -5.44532552259898e-05
    x411  OBJ  -11848.436116146078
    x411  r350  1.26236721452409
    x411  r351  0.1426387945600038
    x411  r435  -0.0032499594665370154
    x411  r436  -0.026177839822134324
    x411  r540  1.8459776827715368e-05
    x411  r541  3.1372981222549966e-05
    x411  r548  -0.003865144876010234
    x411  r582  -0.0007426103238598352
    x411  r639  1.863383791378848
    x411  r663  -0.0002213033906502761
    x411  r670  -2.7681805708816594
    x411  r671  -9.188977083711912e-06
    x411  r1098  4.515002019956629e-06
    x412  OBJ  58.96223940620555
    x412  r275  0.001623425223756711
    x412  r276  0.0004952188459732278
    x412  r1129  -0.02681218937611764
    x413  OBJ  0.08688219156594727
    x413  r97  -46.69418748944957
    x413  r338  0.5491186599017632
    x413  r455  -0.06628571342829537
    x413  r456  -171.73600815628504
    x413  r499  -0.010656338869697912
    x414  OBJ  30.83004761829792
    x414  r64  -0.0002202314959519885
    x414  r183  230.21460284123805
    x414  r713  0.0010909989159133598
    x415  OBJ  -0.0003756262865281726
    x415  r119  321.52424358520085
    x415  r270  -1.1081651635924723
    x415  r271  -0.003728858744078678
    x415  r542  353.4119193003624
    x415  r852  0.9504911853141195
    x415  r867  2206.8097081387186
    x415  r925  89.87829725174952
    x415  r926  0.35667587736031975
    x415  r977  282270.5827972272
    x415  r1065  17.34313633895084
    x415  r1066  593.6574837004274
    x416  OBJ  89.94154570950103
    x416  r902  0.0007141021795279771
    x416  r910  7.801044976259611e-05
    x416  r911  0.05637952914446535
    x416  r1072  0.09318607261086162
    x416  r1194  -0.06808191028212579
    x417  OBJ  4860.244965449569
    x417  r49  9.963034010563106e-07
    x417  r364  0.001953112702311304
    x417  r369  -6.271458738643742e-05
    x417  r753  0.04246308948233389
    x418  OBJ  -0.7072183159021735
    x418  r184  -6646.619861273623
    x419  OBJ  0.0002713588490606639
    x419  r492  43.631136606965235
    x419  r1034  0.06140616211478919
    x419  r1088  -8.924525661789529
    x420  OBJ  296.37516762606646
    x420  r228  0.17161705371736333
    x420  r687  -0.0004502659819336663
    x420  r1034  -1.1096962200183948e-05
    x420  r1105  4.162885920532316
    x420  r1106  62.38362158170383
    x421  OBJ  4685.867834947139
    x421  r1185  2.2700489601649322e-05
    x421  r1186  5.53931084994538e-07
    x422  OBJ  0.07402767272945467
    x422  r267  -0.4980686688527159
    x422  r1037  7017.853071019875
    x422  r1069  138643.72706981318
    x423  OBJ  -5345.660724018795
    x423  r78  -0.0010237046398871553
    x423  r143  -0.04162091466226716
    x423  r429  3.412458443214901
    x423  r990  -1.2866425263612606e-06
    x423  r991  -3.231170214500546e-05
    x423  r1107  -5.494379808361068e-06
    x424  OBJ  -606.2467480207436
    x424  r120  1.924500313226859e-05
    x424  r121  29.877358750239786
    x424  r659  0.00010831364164304573
    x425  OBJ  37038.760972666874
    x425  r59  -0.11701076767029758
    x425  r154  -0.4954428559100803
    x425  r340  1.66472901765646
    x425  r341  0.0006748349680083535
    x425  r540  -8.527407403519106e-06
    x425  r541  -1.4492601662766081e-05
    x425  r568  -8.591111845274144e-07
    x426  OBJ  0.0005254646386862093
    x426  r1022  -0.05929688286062425
    x427  OBJ  0.4656979667391384
    x427  r139  -1002.0911815876348
    x427  r140  -14336.51862008176
    x427  r141  -33.87755645047051
    x427  r289  51.16984787698677
    x427  r658  31.281543435150365
    x428  OBJ  -12.699191685837235
    x428  r3  11.15366304067713
    x428  r59  87.2629494886523
    x428  r498  -4.204761535676687e-06
    x428  r958  -0.046163162260849856
    x428  r1130  -0.6887367382872033
    x428  r1131  -0.07605854059389479
    x429  OBJ  30.968535455722495
    x429  r65  0.4147309727286493
    x429  r66  1.8841450703774315e-05
    x429  r348  5.8281537063497156e-05
    x429  r544  7.930289940093573e-05
    x429  r704  2.185311582489851e-06
    x429  r709  0.09748688101220386
    x429  r1178  1.3464628077736301e-05
    x430  OBJ  0.022165850918947728
    x430  r39  -168.5028830320866
    x430  r734  1567.6122038584485
    x430  r737  993.8659744268076
    x430  r812  -0.00014605541463255333
    x430  r825  -653.3696708275297
    x430  r826  -0.38912038665979676
    x431  OBJ  0.02106560486567298
    x431  r492  -0.013988912858111454
    x431  r815  -0.00012651852209066445
    x431  r816  -0.0023952899776171666
    x431  r1119  0.0006960549140845244
    x432  OBJ  -3123.442227960339
    x432  r1093  0.00048567751793974454
    x432  r1113  -0.0002734622066890136
    x432  r1177  0.8391851669300968
    x433  OBJ  0.12852030363810157
    x433  r224  68.00375266335111
    x433  r1183  1058.0533638773695
    x434  OBJ  0.2891029536701706
    x434  r300  0.24616275978473237
    x434  r301  0.4396776582401866
    x434  r389  -85515.53919979719
    x434  r450  -122.50889090679054
    x434  r451  -661.489740598212
    x434  r572  400049.93675686576
    x434  r888  0.32005257419123434
    x434  r1119  0.22977474071474369
    x435  OBJ  -0.1195493697414683
    x435  r215  -0.34734410357729545
    x435  r216  -0.007927855802357858
    x435  r305  -8.46859065022985
    x435  r306  -0.0036140033428301984
    x435  r489  -1.029701526418313
    x435  r654  5084.955817543698
    x435  r1015  0.0010089261235775328
    x435  r1016  0.06606194251482302
    x436  OBJ  -11.34568216019741
    x436  r438  6.284452241183441e-05
    x436  r509  0.061773243621160843
    x436  r677  -2.389335117599413e-06
    x436  r1110  3.713680500474188e-06
    x436  r1111  0.004018816502507379
    x437  OBJ  0.0010840123765412722
    x437  r10  17036.855439348252
    x437  r11  0.035384170833291484
    x437  r68  -14691.819916322305
    x437  r764  -12376.168021823565
    x437  r859  2.0990900775691177
    x437  r1074  -0.11668832099135484
    x437  r1177  132253.220824781
    x438  OBJ  -0.36680124426816013
    x438  r555  -6356.792188556952
    x438  r556  -0.6704957574928918
    x438  r775  895.4958263772569
    x438  r776  0.0012994935215079875
    x438  r809  1217.049142970601
    x438  r947  45.12807449630082
    x438  r1052  -7428.203570509582
    x439  OBJ  5.978011330215034e-05
    x439  r254  48503.18493699816
    x439  r324  6.74476354870921
    x440  OBJ  -4.260328162008348e-05
    x440  r339  91.87384273948018
    x440  r763  45.937978760015646
    x441  OBJ  17.260871254540945
    x441  r238  0.006251904013626103
    x442  OBJ  -1.7272763662595414
    x442  r687  -5.510772825153789e-05
    x443  OBJ  -694.338591090314
    x443  r474  0.0001944950482786746
    x443  r664  -2.0934933235501374
    x443  r1045  6.271897311282495
    x443  r1046  3.0321311116053415
    x444  OBJ  -0.05719636020794067
    x444  r378  -1.3284800487559724e-06
    x444  r545  -1.2877427525857498e-06
    x444  r546  -0.011746187150630366
    x444  r795  0.10139950474513895
    x444  r796  1.4102125655439173
    x445  OBJ  -4.6940659539672836e-05
    x445  r350  -64431.07028859008
    x445  r351  -7280.26686089128
    x445  r775  -590537.8493164286
    x445  r776  -0.856955539923049
    x445  r875  -0.68419618411502
    x445  r876  -1360.230446064417
    x445  r1070  2.916698217926111
    x445  r1071  0.027242334794604552
    x446  OBJ  0.06866468391643801
    x446  r438  10.336715926677089
    x446  r967  1.349864432760329
    x446  r1013  -63068.35631534748
    x447  OBJ  20.971630031075623
    x447  r138  1640.2760095813283
    x447  r384  -2.4759998255168347
    x447  r513  -12.867190158905515
    x447  r652  0.009894361646259219
    x447  r867  -50.75893307942493
    x448  OBJ  -13.42419700066471
    x448  r90  -0.33452630489568524
    x448  r91  -0.00086390209278912
    x448  r269  307.32841791113066
    x448  r699  -0.1747079622813899
    x448  r1049  -0.0008496418943411948
    x449  OBJ  0.0024403076774532585
    x449  r263  0.5938585683157761
    x449  r768  0.002784649985659586
    x449  r783  81.49984733998846
    x449  r1045  29236.107091378657
    x449  r1046  14134.113728955146
    x449  r1054  987.8264000211946
    x450  OBJ  -0.3885039293053196
    x450  r272  53.54114860054326
    x450  r489  -241.46026987551548
    x450  r505  0.012596010748337558
    x450  r506  72.6188645844917
    x450  r852  -0.016496978932041505
    x451  OBJ  120.16550877144499
    x451  r179  0.06602000481182478
    x451  r818  -0.0014834348803970797
    x451  r889  7.006177883944331e-07
    x451  r1140  -0.0021298294638833638
    x451  r1141  -0.5851670022707214
    x452  OBJ  -3.9121494099967458
    x452  r70  0.00845048682030139
    x452  r71  0.0005609908194329585
    x452  r492  -0.000677197812936783
    x453  OBJ  1.585162550905231
    x453  r289  -4.032463767619254
    x453  r294  0.03659586381798368
    x453  r482  186.78333438372835
    x453  r664  34.12020234313684
    x454  OBJ  0.00012516099129560745
    x454  r138  446558.3836078748
    x454  r1189  -0.17109212362154158
    x455  OBJ  0.15634003315249803
    x455  r1057  -0.40112128529711916
    x456  OBJ  5.800369673312425
    x456  r287  2882.8282502623883
    x456  r360  -0.0008890963550876476
    x456  r361  -1711.0150295111716
    x456  r818  -0.6592663654206307
    x456  r848  0.006004654585202905
    x457  OBJ  0.0031024026994111806
    x457  r378  -0.0002831564789512983
    x457  r868  -22.682247737830373
    x457  r902  0.13866838541777998
    x457  r934  -1136.7428474131584
    x458  OBJ  -1.3223620806979026
    x458  r953  0.02460038877519351
    x458  r1047  0.00019667506728545563
    x459  OBJ  -0.00016274968918034694
    x459  r95  -35822.1280889407
    x459  r96  -0.15359695372696672
    x459  r105  -102.79244477639071
    x459  r106  -0.09887410111825262
    x459  r378  -0.028425650908246367
    x459  r430  0.9460163347846555
    x459  r431  1819889.5765725847
    x459  r475  0.016709431699219787
    x459  r476  46829.5763199776
    x459  r748  -23325.439438485246
    x459  r1104  19481.947233048984
    x460  OBJ  -0.030035749379255107
    x460  r140  1220.3669759599193
    x460  r141  2.8837580596771386
    x460  r442  -0.13830976729546973
    x460  r648  -0.005467232469592052
    x460  r690  -414.55836393724604
    x460  r691  -4.658281200187263
    x460  r1053  0.00031455353151018593
    x461  OBJ  49.33255722297516
    x461  r279  1.2452357915781767
    x461  r644  7.439052170004679
    x461  r842  0.0041614360064578665
    x461  r934  1.2054705460756678
    x462  OBJ  4.29038720847986e-05
    x462  r92  263764.20393966325
    x462  r184  273322.99972295196
    x462  r243  42451.35494624956
    x462  r299  1698.2210764073445
    x462  r543  -0.018515108232685946
    x462  r633  14.59292127354733
    x462  r655  -0.3407032005052188
    x462  r656  -901.0353621709647
    x463  OBJ  -0.18067255075573121
    x463  r193  -0.0013192789688521455
    x463  r383  0.4129498077040784
    x464  OBJ  -0.0008902477521021894
    x464  r144  0.004266464336662121
    x464  r168  -421.4068813846862
    x464  r213  -21.606617853533344
    x464  r227  4658.707148016163
    x465  OBJ  35.63328430339766
    x465  r85  4.320667522925816e-08
    x465  r86  0.2788296941439262
    x465  r233  -0.011606877397503856
    x466  OBJ  -101.98960586728458
    x466  r60  32.88501032788581
    x466  r61  0.8115394340593176
    x466  r1132  0.06267947046256517
    x467  OBJ  35408.07000358945
    x467  r532  -8.032777573038696e-08
    x468  OBJ  0.675131616883934
    x468  r597  0.20623341107726162
    x468  r999  -236904.63189311876
    x469  OBJ  -0.016074421397477875
    x469  r224  1.0258823963336605
    x469  r518  -6.874318807489387
    x469  r623  98.15635093541397
    x469  r927  5.908617818289454
    x470  OBJ  11.613528669920791
    x470  r215  0.00012173542989086908
    x470  r216  2.7785153807802817e-06
    x470  r268  3.228195451164744e-05
    x470  r677  -1.2029250769792482e-05
    x470  r737  -17.211385209582115
    x470  r869  -17.320298132674143
    x471  OBJ  0.21635964435789776
    x471  r869  233.35963769074638
    x471  r909  -2.44273320236862e-05
    x472  OBJ  -3.9282107804803092
    x472  r444  0.11277527005303632
    x472  r629  3.991557804957633e-06
    x472  r894  -0.00017766613662190987
    x473  OBJ  -1.347613695045734
    x473  r565  0.5969468609482746
    x473  r566  0.0005065082842275711
    x473  r718  -6.891790320372823e-06
    x474  OBJ  -0.028070891689399337
    x474  r59  1463095.4686116634
    x474  r348  -3.511693041149001
    x474  r1173  -526.5544503767143
    x475  OBJ  0.0048105244870415296
    x475  r534  176031.28945232512
    x475  r625  1.3954179942792626
    x475  r626  268058.9721375652
    x475  r778  -0.00432185309477805
    x475  r874  1.0531927658152966
    x475  r932  -8305.376091425465
    x475  r1189  -16.872051513032645
    x476  OBJ  0.08895481092898183
    x476  r42  -9.864871254636574e-05
    x476  r320  52.738733476855806
    x476  r321  3.175773565018847e-05
    x476  r974  0.0008307822870386288
    x477  OBJ  0.2711581563906825
    x477  r99  30.423714922656664
    x477  r312  538.7968681574766
    x477  r515  29382.298230369124
    x477  r516  1.3906354816909439
    x477  r814  -8786.48588853029
    x477  r825  -189092.34303764708
    x477  r826  -112.6157042827276
    x478  OBJ  16.667068164268013
    x478  r53  30.06009730987239
    x478  r404  -0.0007502125210623691
    x478  r493  -0.18554193405281233
    x478  r784  1.162064178302602e-06
    x478  r932  0.3639753303946108
    x478  r1069  36.24022154785366
    x478  r1165  -2.5127103367906416e-05
    x478  r1166  -5.999147780470628e-05
    x478  r1197  0.0005050505466396301
    x479  OBJ  15.164291117940197
    x479  r53  -0.48714859601110444
    x479  r172  -0.925213803312264
    x479  r618  148.82052727892378
    x479  r919  0.08712455123641218
    x479  r964  273.9698576431433
    x479  r1159  -0.0005031140735593555
    x480  OBJ  -0.00480924499895249
    x480  r3  401189.16938857286
    x480  r313  1989.6975280602185
    x480  r685  1295.5193816009469
    x480  r686  601.5379443960836
    x480  r752  3.5306525033513076
    x480  r1185  -9.6134172487099
    x480  r1186  -0.23458395570006468
    x481  OBJ  0.006984494863388512
    x481  r273  -2.395481500213259
    x481  r349  -0.0047232726008858686
    x481  r390  1061934.8509432497
    x481  r391  15712.880306892455
    x482  OBJ  -0.0008508586694362235
    x482  r10  11524.467741466438
    x482  r11  0.023935387418090648
    x482  r163  -0.4784244095749284
    x482  r365  0.038261622173373734
    x482  r366  1098.2936775224366
    x482  r1002  0.12554391137679038
    x483  OBJ  -9.735950241228541e-05
    x483  r537  -599.4557433523888
    x483  r1107  0.5260738158816194
    x484  OBJ  41.528534115684884
    x484  r132  3.5794443830676536e-07
    x484  r200  12.739192428195087
    x484  r201  4.313992012764126e-07
    x484  r863  0.023546215128210812
    x484  r929  0.029583670710848404
    x485  OBJ  7889.68178567538
    x485  r949  112.94193072335626
    x485  r958  0.12412006003168191
    x486  OBJ  19.750862384383144
    x486  r987  0.00013999118213278832
    x487  OBJ  0.3188762090515401
    x487  r279  209.17972527946577
    x487  r748  -296.63591675182533
    x487  r1140  15.176518834972647
    x487  r1141  4169.722591485582
    x488  OBJ  -4.998968451086194
    x488  r160  1.2906264556445062
    x488  r161  85.02011065079333
    x488  r275  -0.0035442660337313674
    x488  r276  -0.0010811630307091939
    x488  r308  0.0007473592684181498
    x488  r345  -0.0002754104578355616
    x488  r346  -0.8883499268577819
    x488  r1089  -1.8982416397408066e-05
    x489  OBJ  0.00034315881783647745
    x489  r397  0.1324158592545289
    x489  r423  -65.7201274934314
    x489  r762  4706.85518194174
    x490  OBJ  3.828955137428102e-05
    x490  r144  0.48158435445001097
    x491  OBJ  -0.00288655938340057
    x491  r258  24.226234800503768
    x491  r392  -940.8074604844676
    x491  r407  0.6488818339960483
    x491  r752  0.34914739877407225
    x492  OBJ  0.41948384929309646
    x492  r102  0.19235335172504991
    x492  r1070  -0.0034225099966494793
    x492  r1071  -3.1966681569443054e-05
    x492  r1079  18.17732573339237
    x493  OBJ  -47.28861427235405
    x493  r103  -0.09443609301234607
    x493  r410  -0.13158907964562067
    x493  r411  -0.16890941412124996
    x493  r520  0.0008584179753086461
    x493  r521  0.001974715125626737
    x494  OBJ  0.14215869182955315
    x494  r125  300.6253997175881
    x494  r126  0.00908653078284232
    x494  r160  84.25098849717526
    x494  r161  5550.039375714453
    x494  r1089  0.0018350623657066554
    x495  OBJ  -7.011957400101489e-05
    x495  r69  147988.5905436331
    x495  r165  -0.45787997073595155
    x495  r166  -71.74223761507216
    x495  r255  2.509227634296595
    x495  r256  324.31467198511206
    x495  r728  -61.067416783263106
    x495  r750  -28043.91291720317
    x495  r751  -0.9395512403112277
    x495  r760  -14.581639635677881
    x495  r761  -0.5991853427613966
    x495  r1097  -857.531589529791
    x496  OBJ  0.30889708201589156
    x496  r422  -384829.9887587579
    x496  r677  -0.6067109617435532
    x496  r1088  11.74039364800974
    x497  OBJ  -0.42987636658258127
    x497  r718  0.0006331324263866475
    x497  r887  0.010682765254290974
    x497  r1137  -0.0019934874649602113
    x498  OBJ  -0.035448462193059756
    x498  r273  -0.6485162017291114
    x498  r419  6934.868332966837
    x498  r478  -787936.9453863449
    x498  r492  5.224596417080079
    x498  r824  -177418.145814077
    x498  r1097  183.65837247660002
    x499  OBJ  -18.678626229711917
    x499  r129  -0.07159087382105281
    x499  r157  4.403957507060053
    x499  r532  -5.273614932206516e-05
    x499  r605  -6.133610758012783e-05
    x499  r606  -1.7436968479499608
    x499  r742  11.845100896004142
    x499  r822  -10.985277384479847
    x500  OBJ  -7.99187605185568e-05
    x500  r27  -47.161931231264454
    x500  r253  35.26272914476023
    x500  r323  -0.31453062977631696
    x501  OBJ  8.739424301663969e-05
    x501  r268  1.3229589089212148
    x501  r470  0.08052332973264537
    x501  r471  771223.832583722
    x501  r653  -468.2147203459902
    x501  r868  395.53481590355807
    x501  r1163  9.555328986765664
    x502  OBJ  -0.314755787805772
    x502  r22  0.05146377397742018
    x502  r207  0.7875175374897411
    x502  r263  0.05557485269183764
    x502  r268  0.0404178779647181
    x502  r598  0.0027081854747438407
    x503  OBJ  0.1885063708466007
    x503  r417  -0.005283789347274681
    x503  r619  -5399.589263630277
    x503  r687  0.0354382638203254
    x503  r960  0.027747482978862925
    x503  r961  0.8970328834437769
    x503  r1057  1.2202499125437505
    x504  OBJ  -123.54478826553603
    x504  r45  -12.616931662253608
    x504  r46  -2.149937991840211e-06
    x504  r467  1.6063890768028202
    x504  r878  -0.0167216569448403
    x504  r1039  -4.299211889612075e-06
    x505  OBJ  0.000952015895572602
    x505  r144  0.0013448097210832328
    x505  r1109  0.001681055564369772
    x506  OBJ  0.5124655771611076
    x506  r387  0.038411071654549545
    x506  r735  26.361942069910867
    x506  r736  393658.95940039156
    x506  r864  805.5759209656742
    x506  r1144  694.6012908441255
    x507  OBJ  -575.9058301909853
    x507  r398  0.0002448197965486796
    x507  r562  -314.3311464405188
    x507  r610  0.04192369104634044
    x507  r611  0.011940812265801579
    x507  r842  -0.0027462730918884548
    x508  OBJ  0.00016981890234275577
    x508  r202  9.997431199250633
    x508  r310  0.059615489428585834
    x508  r311  15.926258413198214
    x508  r1067  16.533195078035448
    x509  OBJ  -104.51815868776384
    x509  r772  -6.062257455979122e-06
    x510  OBJ  1.0529933949245747
    x510  r129  4.721255041430504
    x510  r733  5.062869092904534
    x510  r970  4.103769314016053
    x510  r971  1.6815412799924823
    x511  OBJ  0.005209765134637777
    x511  r200  2784.344428743849
    x511  r201  9.428886245410998e-05
    x511  r247  2279.0433953978863
    x511  r405  1.9028890269021823
    x511  r406  0.003399645214485126
    x511  r965  1.1228789603346667
    x511  r966  0.10773931285536517
    x512  OBJ  -8.271380680849256e-06
    x512  r187  0.6080235931485584
    x512  r470  0.02180711186163774
    x512  r471  208860.7458426995
    x512  r497  2912.635622576467
    x512  r834  -59835.128584423015
    x513  OBJ  -161.355693595878
    x513  r563  0.002135970249054756
    x513  r795  0.04446011019480279
    x513  r796  0.6183284617606958
    x513  r1079  0.29825265691075376
    x514  OBJ  0.15123955873023606
    x514  r209  7.991356892243183
    x514  r730  0.9900564642944786
    x514  r731  0.03993372638122874
    x515  OBJ  1452.2290211422635
    x515  r37  -9.979320240470357e-07
    x515  r425  4.281708432863629e-05
    x515  r426  0.6444603059600882
    x515  r770  -6.501123189464527
    x515  r771  -1.6584428945732883
    x516  OBJ  3844.626234964976
    x516  r50  -8.082461491024741e-06
    x516  r51  -1.9614148210496625
    x516  r222  0.00023291065037739166
    x516  r347  -1.4068414078980242e-07
    x516  r420  -1.0071257115871875e-05
    x516  r421  -1.2389175291043825e-06
    x516  r482  0.034318876305496446
    x516  r939  -3.1408329690197554e-07
    x517  OBJ  2.4623011048552335
    x517  r400  0.004776047406419806
    x517  r401  0.13448237033095872
    x517  r642  0.032232741231420156
    x517  r974  -0.0010744184230270194
    x518  OBJ  10.360217660454532
    x518  r212  1.3243665441994e-05
    x518  r262  7.5404149782320005
    x518  r278  7.456713318648881e-06
    x518  r307  -1.1828925191072082
    x518  r527  -0.00032587589398629704
    x518  r705  35.80852477881744
    x518  r706  2.1731787754706832e-05
    x519  OBJ  -0.0048437845034987005
    x519  r140  55146.16622875044
    x519  r141  130.31178690931515
    x519  r564  258.89892959767184
    x519  r653  -8.760084748602361
    x519  r722  -18162.797537895178
    x520  OBJ  -0.011995713220241247
    x520  r168  -3565.6319479083863
    x520  r470  0.07643227373727718
    x520  r471  732041.0790987795
    x520  r572  2075933.0365756454
    x520  r655  0.8294920135658285
    x520  r656  2193.7030111631157
    x520  r1014  -176953.0105716676
    x521  OBJ  -1.7104861874878245
    x521  r374  -16690.547097414674
    x521  r495  6.035468761872244
    x521  r496  2896.9703008155107
    x521  r777  -0.0014227238312865115
    x522  OBJ  -0.010755924159365578
    x522  r147  19.909263646129265
    x522  r340  4733.240093537123
    x522  r341  1.9187240528665896
    x522  r378  0.006229724699543809
    x523  OBJ  -87.34211666856247
    x523  r209  0.0014140426561953393
    x523  r222  -0.0007741501869017913
    x523  r550  -5.210687920095463e-07
    x523  r551  -0.03713496409201877
    x523  r774  1.2456905830280958e-05
    x523  r897  0.012981280556019404
    x523  r1184  0.00046874259865768437
    x524  OBJ  -0.017977114693993077
    x524  r447  -36934.56949354705
    x524  r779  173175.84200173288
    x524  r1155  7.599115780664406
    x524  r1156  4.882823516039181
    x525  OBJ  2.2846849715530246
    x525  r259  9.380645358109824
    x525  r467  46.066656627394025
    x525  r774  -0.00020742126138401378
    x525  r1107  0.0022641464394702816
    x526  OBJ  -4.3516931620765025
    x526  r875  0.026602014080249668
    x526  r876  52.88668706241553
    x526  r912  33.197705375722016
    x527  OBJ  1.79096361537403
    x527  r229  0.5701209637465035
    x528  OBJ  -3.3663948823509173
    x528  r103  -0.00019548797509447928
    x528  r264  0.027170905171552687
    x528  r273  2.6529472701765022e-05
    x528  r1117  -2.404425504410986e-06
    x529  OBJ  0.01806285090498286
    x529  r477  3.309410856307224
    x529  r625  0.9127943848737399
    x529  r626  175347.26195685554
    x530  OBJ  -0.049865249670172196
    x531  OBJ  -0.15272535786824415
    x531  r24  -0.3761533294167922
    x531  r235  54.428615464484466
    x531  r236  725.808943577133
    x531  r302  487.01704560865574
    x532  OBJ  0.0006813728441531914
    x532  r165  -0.022805361541273578
    x532  r166  -3.5732235685068456
    x532  r349  0.0048597278702647
    x532  r630  163.4768543775282
    x532  r631  65827.6920659124
    x532  r683  0.9419371740491128
    x532  r1110  0.4000636268137889
    x532  r1111  432.9350102376647
    x533  OBJ  0.07123256604158108
    x533  r430  7.804260281150698e-05
    x533  r431  150.13367101604624
    x533  r734  -767.5691244395629
    x533  r748  150.03600965396393
    x533  r1048  0.008955474535263545
    x534  OBJ  -0.3428280712753559
    x534  r122  179.50737789085
    x534  r510  0.1173417428670801
    x534  r511  6.271505166213123
    x534  r562  206380.82891665708
    x534  r582  11.626761746150526
    x534  r730  1.1794136680814549
    x534  r731  0.047571405975487445
    x534  r899  -25.07422595055188
    x534  r930  52157.724163720166
    x534  r931  13.724741591926886
    x534  r1040  210.13480198956012
    x534  r1041  2.122989658961068
    x535  OBJ  -1.909181476675413
    x535  r20  9.372053147484233e-06
    x535  r21  0.20547053685171965
    x535  r360  -3.848180243548679e-06
    x535  r361  -7.405602548365712
    x536  OBJ  0.14069184621900416
    x536  r85  2.325590533099973e-05
    x536  r86  150.0795174837176
    x536  r160  253.08594925898797
    x536  r161  16672.05345459593
    x536  r478  -2591.5607174962292
    x537  OBJ  -0.030163938337657282
    x537  r1143  0.004529691402056701
    x538  OBJ  -177.23222811951075
    x538  r197  17.30521478667945
    x538  r448  0.00045495247111957933
    x538  r1148  0.00020267248610419006
    x539  OBJ  -82307.64280861945
    x539  r129  0.0006983903235170001
    x539  r359  0.9788975339936463
    x539  r643  6.273238084142594e-06
    x540  OBJ  -0.31818212759261916
    x540  r53  5203.876902441879
    x540  r218  0.0012651477211548415
    x540  r742  8269.346472251753
    x540  r807  2.009557634299024
    x540  r1063  251.21812532009466
    x541  OBJ  -109.67422783917898
    x541  r585  6.536398265637819e-05
    x541  r586  3.7941898664705098e-06
    x541  r710  -61.06454224295867
    x541  r711  -0.9191933499152504
    x541  r1139  -9.661562932360087e-06
    x542  OBJ  0.12565853792532766
    x542  r184  66752.6288273182
    x542  r187  0.47828411317860375
    x542  r433  12770.364409706677
    x542  r620  -0.38300032391446004
    x542  r621  -6.542787562192525e-05
    x542  r697  8.077053593216899
    x542  r762  -49.94243501514495
    x542  r895  42066.02417401811
    x542  r896  0.009407857847127273
    x542  r965  357.8061768675558
    x542  r966  34.33120499884282
    x542  r1103  5282.934637152573
    x543  OBJ  -32.4497120109205
    x543  r62  50.24776274619288
    x543  r223  0.04227859363693356
    x543  r438  0.011744310977843592
    x543  r857  -1838.033211937339
    x543  r1029  -0.0001584565325417672
    x544  OBJ  -95.83860517102609
    x544  r1104  0.12053666953783425
    x544  r1140  0.00534959245522931
    x544  r1141  1.4697913769531898
    x545  OBJ  -161.21088616508553
    x545  r442  0.007042126221303726
    x545  r529  22.755954080167207
    x545  r904  32.18365499963112
    x545  r1133  17.323699721218127
    x546  OBJ  12.742077460862316
    x546  r277  -0.0014143402344516467
    x546  r715  -0.6179092746893753
    x546  r716  -0.4284050330144152
    x546  r934  -114.60413215656894
    x546  r1052  4996.678200914123
    x546  r1083  0.022678069790243442
    x547  OBJ  1025.213190162039
    x547  r295  0.001737898894705393
    x547  r296  3.524657248559333e-05
    x547  r393  -0.04730420839559291
    x547  r698  -1.1854043042386897e-05
    x548  OBJ  -0.06796740545818124
    x548  r502  -0.013782907166790552
    x548  r688  0.058309700636056096
    x548  r1087  0.004005903750931115
    x548  r1168  0.006485176675620588
    x549  OBJ  -1.971505115117905
    x549  r287  2789.6071167530417
    x550  OBJ  1090.6591719328894
    x550  r80  -4.45014277789842e-05
    x550  r81  -0.14899959997314657
    x550  r313  0.050920251752059074
    x550  r394  2.489911094167926
    x550  r515  0.19857634356777573
    x550  r516  9.398424419515905e-06
    x550  r622  -0.053220924242013
    x551  OBJ  -0.012886857821003898
    x551  r148  -5.722701873122713
    x551  r788  -307.8618641788779
    x551  r807  150.5839481648705
    x552  OBJ  -6.730906279539097e-05
    x552  r9  -109999.95488212007
    x552  r353  -0.001164448697032348
    x552  r513  3885.6916382789964
    x552  r827  -931.9910558304274
    x552  r875  0.7581963517823289
    x552  r876  1507.3480176205069
    x552  r917  -1.5775896987650635
    x553  OBJ  -0.9698253393780389
    x553  r224  3.1718649645886594
    x553  r607  0.0002819829724782632
    x553  r708  -2.581369932109183e-05
    x554  OBJ  0.002710055431424555
    x554  r522  0.0016658379266737604
    x554  r1083  0.006970524214256473
    x554  r1184  10.608711694256623
    x555  OBJ  -3.6413771403355524
    x555  r742  -7.424015212405527
    x555  r772  1.1965268806946469e-05
    x555  r937  9.830242447301205e-05
    x556  OBJ  -241.87568086737747
    x556  r110  0.0006505007984790579
    x556  r111  0.0005303901192041269
    x556  r329  0.0016219656817470106
    x556  r477  -0.00016135989136894442
    x556  r590  -0.00025284047409490824
    x556  r591  -0.002025977227004592
    x556  r659  -6.699303024912769e-05
    x556  r690  0.4882969979985395
    x556  r691  0.005486862463179723
    x556  r902  0.0010363492708870725
    x556  r1044  1.4152788177511482
    x556  r1172  116.88666304666498
    x557  OBJ  -0.00017376371394810938
    x557  r238  25.073110530070185
    x557  r497  5944.986781203936
    x557  r799  1.2168244978485327
    x557  r857  1314795.3724172255
    x558  OBJ  -4.149526859136043
    x558  r27  -0.05721559685119046
    x558  r455  -0.1277789484369189
    x558  r456  -331.055447637332
    x558  r457  942.3886272174086
    x558  r1083  0.0079638261834756
    x559  OBJ  75.25019791689293
    x559  r385  0.024089703573847664
    x559  r386  0.11757873280614163
    x559  r682  0.0016424622220857679
    x559  r827  0.025241784107680864
    x559  r927  -1.0926865695998587
    x560  OBJ  10270.171760891855
    x560  r85  -6.318207095889316e-08
    x560  r86  -0.40773879099399757
    x560  r257  -8.091855533689126e-05
    x560  r690  -0.3501401969595902
    x560  r691  -0.003934431527170021
    x560  r779  3.5670860720986934
    x560  r1184  0.0004435440090803861
    x561  OBJ  -3.1641843311786685e-05
    x561  r597  0.7250012955752004
    x561  r1134  -3.8069656859818326
    x561  r1190  2293.297327316374
    x561  r1191  17.97575225993732
    x562  OBJ  -5.172843192860552
    x562  r420  1.8225621737257983e-05
    x562  r421  2.2420281787394346e-06
    x562  r664  -30.042885241360146
    x562  r693  -4.654576177036163e-06
    x562  r1132  -0.0030976964710713643
    x562  r1170  9.918891116608433
    x562  r1171  3.5243722177027184e-06
    x562  r1187  0.0003072745505921043
    x563  OBJ  2.2839246724293902
    x563  r32  -59.44100968690468
    x563  r595  -0.6191057515292715
    x563  r596  -5.299615452146038
    x563  r623  -256.73405734522555
    x563  r895  -38.49303592487649
    x563  r896  -8.608776731252712e-06
    x563  r1014  7.520937366693194
    x564  OBJ  33.302641410058726
    x564  r765  0.002416092867979525
    x564  r766  0.00018165104848581268
    x564  r1004  -0.008531410950828051
    x565  OBJ  0.026331168193275842
    x565  r633  3.5014786950152104
    x565  r650  495.27120014560285
    x565  r651  5.497987702306338
    x565  r712  337.2364431552226
    x565  r975  -6.11380426542296
    x565  r976  -236.42636467771516
    x565  r1093  26.57097975785613
    x565  r1109  0.26175880308559607
    x565  r1154  2.2358029714361325
    x566  OBJ  20616.444812722726
    x566  r15  0.35338125870764303
    x566  r16  0.06812413727614902
    x566  r22  1.5483085009305107e-05
    x566  r27  -0.00019992797882888055
    x566  r270  -0.00020435688832069044
    x566  r271  -6.876393474209125e-07
    x567  OBJ  -2.7811281455357535
    x567  r109  -2.8726975636684678e-05
    x567  r482  -19.816362011882784
    x567  r568  -0.0012065733869130086
    x567  r667  -4.9110477598788875e-05
    x568  OBJ  0.00015279264797970734
    x568  r80  8.27817933536498
    x568  r81  27716.98230125812
    x568  r425  -0.08605097121366023
    x568  r426  -1295.1941054853344
    x568  r435  -4896.096438928876
    x568  r436  -39437.17749457741
    x568  r965  5743.705672766769
    x568  r966  551.1037809103079
    x568  r1020  1163305.7345115996
    x568  r1021  1.7641110281262715
    x569  OBJ  -0.0015654918518979426
    x569  r458  636464.7725274287
    x569  r510  0.4595150301964245
    x569  r511  24.55946891034248
    x569  r979  -63693.190462443374
    x569  r1008  1808.6233882494694
    x570  OBJ  0.012634425690832684
    x570  r254  103256.46469686013
    x570  r282  0.06959183042910799
    x570  r748  35446.07533562532
    x570  r1118  4218.976687735044
    x571  OBJ  0.9806462485735903
    x571  r409  -2373.713385437389
    x571  r485  113935.17057400885
    x571  r486  2.2049968845976062
    x571  r608  5691.169459376768
    x571  r632  68.37215349503698
    x571  r950  -11016.950275532054
    x571  r951  -7.921662172873885
    x571  r952  0.0033834945213641067
    x571  r1092  30804.324386620883
    x571  r1162  4.712130505456311
    x572  OBJ  0.004254496593760068
    x572  r162  -10.671366258729465
    x572  r195  -1327.0594785893798
    x572  r196  -0.00198888661898926
    x572  r670  82172.21131716545
    x572  r671  0.27277070529791164
    x573  OBJ  14.921182561188765
    x573  r20  -3.2162322098748384e-05
    x573  r21  -0.7051186633317026
    x573  r217  7.440579951946044e-06
    x573  r835  0.1457618155197909
    x573  r836  6.188619149710392
    x573  r895  -13.470488084698506
    x573  r896  -3.0126079067519415e-06
    x573  r907  0.010435409263998054
    x573  r1062  -0.03591691472880382
    x573  r1114  -8.847796183360822e-05
    x574  OBJ  -28.633112732863413
    x574  r39  -0.5313394512163441
    x574  r83  -0.02011526348943115
    x574  r128  0.0012753556996109932
    x574  r147  -0.004897505692861564
    x574  r363  66.06482602836809
    x574  r465  0.08417959632210226
    x574  r466  0.0008460224075563925
    x574  r474  -0.000532995755451946
    x574  r762  0.10478166025073538
    x574  r844  -0.28500834337593733
    x575  OBJ  0.002407907032280019
    x575  r382  678.1133091795912
    x575  r500  578.2556225417158
    x575  r501  0.06011230437530144
    x575  r847  -1.933310457625965
    x576  OBJ  -0.00032039602236911586
    x576  r339  29.00241728411891
    x576  r950  21077.35143294054
    x576  r951  15.155524294370178
    x577  OBJ  3.8139753646506484e-05
    x577  r100  486.1903994167868
    x577  r101  0.0034192167221615537
    x577  r193  0.010815390707547872
    x577  r289  201.72534677027565
    x577  r879  -57.31019802747149
    x578  OBJ  -0.9352639355140786
    x578  r213  6.017004538135318
    x578  r718  -0.000973686269837601
    x579  OBJ  22.731723982039796
    x579  r140  -627.9719522090445
    x579  r141  -1.4839136211544743
    x579  r388  1538.1125697108369
    x579  r440  2.4819808300085833
    x579  r441  0.3769934537304693
    x579  r580  1.2929728015933242
    x579  r581  82.01263030578052
    x579  r988  -0.000350042696020779
    x580  OBJ  -13.452950900586535
    x580  r195  0.7472216416359851
    x580  r196  1.1198737874573005e-06
    x580  r239  41.43626862265636
    x580  r482  -0.17206117015051905
    x580  r590  -0.0004737272089851824
    x580  r591  -0.003795913374439258
    x581  OBJ  -0.6197553999737032
    x581  r149  0.0002611628568561009
    x581  r623  -2182.575930465911
    x581  r728  0.0357567039293716
    x582  OBJ  -1.9676518779842485e-05
    x582  r477  2.68626756167184
    x582  r797  -1029.7230224259686
    x582  r1114  1.903894032073849
    x583  OBJ  -53.68276614490751
    x583  r378  4.830936894976918e-05
    x583  r1039  -0.00010048084528769577
    x583  r1165  3.16772114328199e-06
    x583  r1166  7.562999597535147e-06
    x584  OBJ  -1988.5942181229327
    x584  r115  0.05437357771706905
    x584  r116  0.00038590812115647794
    x584  r490  3.7697824792665267
    x584  r491  0.00980722754117856
    x584  r755  -1.4782419007578715
    x584  r756  -2.021419737474707e-07
    x584  r825  2.3759870176028555
    x584  r826  0.001415041175414971
    x585  OBJ  0.5297146126338764
    x585  r32  44.23325387759088
    x585  r85  8.385064854659592e-06
    x585  r86  54.11212634149869
    x585  r218  -5.097872884179704e-06
    x585  r264  -0.300309011650195
    x586  OBJ  0.07878559989498764
    x586  r993  -11672.594086492734
    x586  r1124  -195.04308888216397
    x587  OBJ  0.002133103220080109
    x587  r112  0.005356992972130725
    x587  r802  -608.0444556849355
    x587  r984  51.71982548364292
    x588  OBJ  15.088586129784392
    x588  r97  0.9027355494736689
    x588  r124  -4.23761577141913e-07
    x589  OBJ  7.26114907766495
    x589  r15  360.9658486162335
    x589  r16  69.58627945654004
    x589  r157  -153.9714864833893
    x589  r199  -74.69348934170512
    x589  r367  -124.8713560052454
    x589  r385  -12.305740606037038
    x589  r386  -60.06272503827621
    x589  r925  -0.9135575725084243
    x589  r926  -0.003625390400938775
    x590  OBJ  -0.028725709510647467
    x590  r422  -49403.33255744744
    x591  OBJ  -0.6255317220472038
    x591  r304  710.3729263691602
    x591  r904  -1377.9549333558891
    x592  OBJ  0.17569466585970359
    x592  r165  0.2473420663171299
    x592  r166  38.7544174315333
    x592  r305  2358.8630348044157
    x592  r306  1.0066537922494065
    x592  r1183  275961.77121733705
    x593  OBJ  829.5025898685286
    x593  r177  4.542062240871247e-05
    x593  r370  -8.097314363013445e-07
    x593  r371  -0.0001315786209144682
    x593  r1013  -0.11993190932936107
    x593  r1072  0.002474076316732849
    x594  OBJ  652.0530244859723
    x594  r359  45.29263800494628
    x594  r690  -28.727134149009746
    x594  r691  -0.32279910522284516
    x594  r879  -0.0459456998366937
    x595  OBJ  24.528431008761117
    x595  r45  90.01180159218886
    x595  r46  1.533810257021428e-05
    x595  r569  347.63382828374614
    x596  OBJ  1.9392495718833913
    x596  r184  3093.6015461419793
    x596  r315  -369.8265488169696
    x596  r316  -40.97695760815525
    x596  r458  4568.115368894237
    x596  r518  -156.6352880180093
    x596  r1140  -2.3978647489334084
    x596  r1141  -658.8092383817448
    x597  OBJ  -0.009100755976856143
    x597  r33  0.6467480064269242
    x597  r429  36.97705634909003
    x598  OBJ  -404.74630999564124
    x598  r334  3.6883990501774146e-07
    x598  r604  -0.00034614940752376644
    x598  r768  1.8970454572434524e-07
    x599  OBJ  -0.02835161459379995
    x599  r170  -0.002862596609987709
    x599  r171  -0.01319609181740685
    x599  r292  -0.009827395714750704
    x599  r513  26.300445415489374
    x599  r584  0.007174939623877884
    x599  r858  -76.25151384524347
    x600  OBJ  -0.7197183504379598
    x600  r95  -1.8465686447729455
    x600  r96  -7.917656873445816e-06
    x600  r267  -0.00016713341832535493
    x600  r482  2.006687411935972
    x600  r1162  -0.010206798054542122
    x601  OBJ  -90.48764701710753
    x601  r287  8.922997646971993
    x601  r544  7.939409309996246e-05
    x601  r909  2.1843710851582802e-06
    x601  r1017  -0.22517387711262388
    x601  r1183  -17.3731758364056
    x602  OBJ  -166.878860300819
    x602  r33  0.010206435090704222
    x602  r145  -2.491813766325895e-05
    x602  r146  -0.04513641839327035
    x602  r318  -0.003877038110947179
    x602  r927  1.7467102190266244
    x603  OBJ  -0.006884247266728375
    x603  r109  0.033388984197279155
    x603  r148  -1.2073040561776631
    x603  r313  862.3388827738413
    x603  r373  -0.0010730993462692699
    x603  r739  228715.74598649915
    x604  OBJ  -2.9861399484334723
    x604  r284  5.3769551756239755
    x604  r307  1.472670364235814
    x604  r363  33.28878031305982
    x604  r434  -0.0002342852036221061
    x605  OBJ  16.52250223939654
    x605  r519  5.677344143046568
    x605  r529  1.0294369776937777
    x605  r747  17.666956553738313
    x605  r1184  -0.18161074646709607
    x606  OBJ  6275.535485309067
    x606  r0  0.0007510942331867906
    x606  r1  5.697711365467556e-06
    x606  r138  -4.0184376685673024
    x606  r342  -0.0003827348749565114
    x606  r765  0.00012067243838523415
    x606  r766  9.072612748676504e-06
    x607  OBJ  0.00010650678827348061
    x607  r5  11.257931500655628
    x607  r6  0.41548909394788963
    x607  r454  -1678.3680366338347
    x607  r512  0.007783086167934632
    x607  r744  27.949314639970037
    x608  OBJ  -981.071248937427
    x608  r258  -0.0025252398498376233
    x608  r280  -0.014325036447453364
    x608  r281  -2.870002782098524e-05
    x608  r320  8.14287444189421
    x608  r321  4.9034028106085925e-06
    x608  r548  0.07559108086682353
    x608  r552  5.512456266430181
    x608  r597  3.770191656052824e-05
    x608  r669  4.633902346934936e-06
    x608  r849  0.05121618244039942
    x609  OBJ  -0.009538705441443016
    x609  r112  0.004422017656886463
    x609  r588  0.020050501459470363
    x609  r1065  0.4304635952331519
    x609  r1066  14.73481668922932
    x610  OBJ  28.61721557562974
    x610  r17  -5.7187769464234566e-06
    x610  r684  -9.386417398325067
    x610  r970  -0.0036157254990501694
    x610  r971  -0.0014815627338039244
    x610  r1113  0.01098243685141977
    x611  OBJ  -0.101290026960108
    x611  r300  0.6321149596599562
    x611  r301  1.129036730219652
    x611  r817  0.44057175733077736
    x612  OBJ  -0.23152070446620698
    x612  r459  3472.2884373022616
    x612  r497  9112.296779628536
    x612  r693  1.2412568580671666
    x612  r887  -11.02416816986011
    x612  r994  -815503.8245591122
    x613  OBJ  23.54426197693771
    x613  r359  -94.14379570691584
    x613  r402  -7.228441656143971
    x613  r465  0.4044243263643532
    x613  r466  0.004064548384812183
    x613  r480  -0.00019334618461976634
    x613  r481  -287.11407743559135
    x613  r947  -3.855593653956747
    x614  OBJ  8.694623301672589e-05
    x614  r188  0.22348716349489242
    x614  r518  7413.5173544277695
    x614  r555  -7198.063393444975
    x614  r556  -0.75923057169584
    x614  r687  0.2497932513650317
    x614  r970  31.4288897261148
    x614  r971  12.878154548866275
    x614  r1035  -0.005724086754165145
    x614  r1036  -1838.0987843095593
    x615  OBJ  8.85368030508018
    x615  r412  1.3786508867202357e-06
    x615  r459  0.018250048178810596
    x615  r633  -0.00019094081448837365
    x616  OBJ  0.6719437379379577
    x616  r653  -18.83438769304062
    x616  r860  0.002764300722354234
    x616  r861  3178.383246385294
    x617  OBJ  -11.497837781516672
    x617  r202  -0.7424133994626757
    x617  r829  0.02625373153037825
    x617  r1028  0.0001167094337784964
    x618  OBJ  0.000735976877379315
    x618  r550  0.07991124138205584
    x618  r551  5695.027460437356
    x619  OBJ  0.05265856313260491
    x619  r717  0.050061509589338915
    x619  r965  -1.6160711121974005
    x619  r966  -0.1550606787486896
    x620  OBJ  -603.8672387017211
    x620  r17  3.0819230326993156e-07
    x620  r18  -1.2381585947214512e-06
    x620  r40  0.0006967965648546098
    x620  r41  0.3321442749494104
    x620  r108  -0.03991049581695643
    x621  OBJ  -0.8851863642298781
    x621  r4  0.020388415565851328
    x621  r245  -0.0712145173296491
    x621  r246  -2.7016830368086917
    x621  r252  -0.023283316790769188
    x621  r743  40.48122302433504
    x621  r755  -1729.3264502953555
    x621  r756  -0.00023647649396028595
    x621  r1064  -0.16083569875154646
    x621  r1155  0.0420875516087308
    x621  r1156  0.02704342092675098
    x622  OBJ  -0.001394287178712899
    x622  r145  -0.0051645454730018525
    x622  r146  -9.354995349965021
    x622  r489  75.32077750908806
    x622  r688  -48.024185405654045
    x623  OBJ  1.0628642530941106
    x623  r889  5.265950253955035e-06
    x623  r1117  -0.00016657137836401087
    x624  OBJ  167.1588080061298
    x624  r290  0.00015475578669267692
    x624  r291  1.5196248009790207e-05
    x625  OBJ  -2.217451924458324
    x625  r208  0.010565502847535288
    x625  r877  -1047.6281938894124
    x626  OBJ  0.033205691659508985
    x626  r22  -0.01403733869479458
    x626  r838  -6.013063104363669
    x626  r1030  -0.0004303200686409952
    x626  r1031  -93.11664346010512
    x627  OBJ  2.1108408692120492e-05
    x627  r547  485011.09680165857
    x627  r679  4693.222738989524
    x627  r878  309.8241945655752
    x627  r989  -4361.069559712094
    x627  r1090  2548.911616554046
    x627  r1091  32120.596209196632
    x628  OBJ  -6.128853262074927
    x628  r65  3.947709078212065
    x628  r66  0.00017934652447716972
    x628  r225  -0.1954897672858076
    x628  r226  -31.73028460950722
    x628  r545  8.772397909829455e-06
    x628  r546  0.08001771114747075
    x628  r725  86.88734313651425
    x628  r726  299.8450936092658
    x629  OBJ  0.0330215798625269
    x629  r412  0.004703604181995222
    x629  r448  0.015286767059640098
    x629  r624  -689.398784487781
    x630  OBJ  11.3021645582153
    x630  r109  0.00011374565662372649
    x631  OBJ  -0.23005057845278867
    x631  r268  -0.023147508499683268
    x631  r319  132206.9770061717
    x631  r374  -1282414.9315674973
    x631  r445  6.230112012770553
    x631  r446  509.15296140030404
    x631  r939  0.06707662532764892
    x632  OBJ  0.0002317341671748552
    x632  r53  47274.052449592826
    x632  r144  0.6036247511216388
    x632  r334  0.06411774958387298
    x632  r1064  9.425290939503247
    x633  OBJ  -0.00020326103735421926
    x633  r407  1.3429380177739367
    x633  r555  569722.050514817
    x633  r556  60.09260748022853
    x634  OBJ  -0.0010727841898127716
    x634  r73  0.17052544445997564
    x634  r322  -219.00009518317776
    x634  r469  0.008443347386854512
    x634  r733  6.352020466861845
    x634  r867  51.21681834312
    x634  r929  37.31743132179534
    x634  r1015  -0.003262359060848028
    x634  r1016  -0.21361105803887195
    x635  OBJ  -0.008141872494345163
    x635  r154  965.2781075088645
    x635  r185  -1822.403142629493
    x635  r186  -0.0077582692104830675
    x635  r194  -0.0004708194687252696
    x635  r290  -0.0013873385570015834
    x635  r291  -0.00013622974129947764
    x635  r628  -4015.2034941824677
    x635  r998  -12.45355328915138
    x635  r1082  320.5767421252834
    x636  OBJ  -1.4879334901272145
    x636  r24  -0.00012538891090656224
    x636  r160  -0.34638020176016593
    x636  r161  -22.817818437836983
    x637  OBJ  0.046565969298048696
    x637  r349  0.023228489495785237
    x637  r399  42400.33336256712
    x637  r792  -4.245253833836781
    x638  OBJ  0.0008170055031948366
    x638  r218  0.08700134956489677
    x638  r544  -3.978445200465956
    x638  r558  1824.7005758225266
    x638  r702  -4789.202886892759
    x638  r839  -39000.12432319699
    x639  OBJ  -0.08947456016135208
    x639  r167  2.4224669524274973
    x639  r189  -933.5679341549869
    x640  OBJ  0.00010880379194662549
    x640  r254  4105.8798352347285
    x640  r602  0.03356900972469475
    x640  r775  -45126.657617287674
    x640  r776  -0.06548528479268381
    x641  OBJ  -66.03047719384551
    x641  r279  0.7331966432108793
    x641  r295  0.005590725585572054
    x641  r296  0.00011338629375924137
    x641  r423  -0.0026519239638280374
    x641  r663  0.0004899445654424821
    x641  r683  2.7343578447713206e-05
    x641  r1087  -0.02282412479864392
    x642  OBJ  16502.33195782691
    x642  r124  1.17692742483316e-06
    x642  r195  0.24028988731928325
    x642  r196  3.601265423881085e-07
    x642  r407  1.1889646948460653e-05
    x642  r514  0.10507736566107155
    x642  r583  -2.8353595905567114e-05
    x643  OBJ  76.32004830089228
    x643  r449  -0.0002329723806714852
    x643  r598  -4.2033073604093404e-05
    x643  r894  0.006798728541312109
    x644  OBJ  -0.032501453535548425
    x644  r927  1065.71218770468
    x644  r1053  -0.0014114706657454977
    x645  OBJ  1198.2521496387685
    x645  r10  -0.1603061417831207
    x645  r11  -3.329428911733951e-07
    x645  r179  -0.14914842240184198
    x645  r819  -0.04388151615493739
    x645  r859  0.00010496590973957318
    x646  OBJ  0.00018425358348662756
    x646  r538  637.1138254934025
    x646  r580  -1124.3369218875266
    x646  r581  -71316.13207894964
    x646  r893  0.22676495070353686
    x646  r925  0.4743191754735179
    x646  r926  0.0018823030288296677
    x647  OBJ  0.133673094313741
    x647  r387  -0.00014653886214325266
    x647  r628  -9363.862788667186
    x647  r834  5149.956213718107
    x647  r990  -0.0017532772749040823
    x647  r991  -0.04403039066687984
    x647  r1075  -26.94357531544201
    x647  r1076  -663.7878584521314
    x648  OBJ  5.967145471399462
    x648  r555  -396.5228251468024
    x648  r556  -0.04182406221940392
    x648  r1164  -3460.5293644090266
    x649  OBJ  -0.03528511400921829
    x649  r8  -613.843360668962
    x649  r202  4.307833553871956
    x649  r764  -36.94463600508848
    x649  r775  3499.9325010709726
    x649  r776  0.005078906541928342
    x649  r888  -0.0029676245648382416
    x649  r1044  93.68198127151618
    x649  r1157  -0.1001043627065911
    x650  OBJ  32.84700754527114
    x650  r210  -0.03022727093221369
    x650  r211  -1.8969170769521354e-05
    x650  r337  0.00023066425159316866
    x650  r1049  -8.51044802702411e-05
    x651  OBJ  0.0012749352867197365
    x651  r88  -50.972490754534036
    x651  r338  173.4299264465104
    x651  r419  2574.5761508130063
    x651  r502  -185.8159751039981
    x651  r942  -6016.077721782401
    x651  r1069  21655.188617852353
    x652  OBJ  -22.30816719728486
    x652  r1022  0.00021871149449197166
    x653  OBJ  0.9744550016896248
    x653  r307  123.08922528929801
    x653  r564  -9.606404834892759
    x653  r732  2.572681060474512
    x653  r847  0.11468418139576433
    x654  OBJ  0.1773370896192286
    x654  r1054  -568.6535867603483
    x654  r1157  6.49180235810291
    x654  r1162  33.66432498989012
    x655  OBJ  0.0023646134367750625
    x655  r904  5469.864079580998
    x655  r947  107.25746527857906
    x656  OBJ  1.5234032112420395
    x656  r182  -0.2715385112527356
    x656  r563  39.782558506209156
    x656  r754  -0.2386269300747923
    x656  r772  0.03389650967762548
    x656  r1118  155.3746191262898
    x657  OBJ  6.8370327297767055
    x657  r103  0.06228119659726003
    x657  r565  2.3782387845141275
    x657  r566  0.0020179309157508755
    x658  OBJ  0.00516343680635399
    x658  r495  -1.9423347778207074
    x658  r496  -932.3030882264369
    x658  r795  -317.13628695443094
    x658  r796  -4410.5691961140155
    x658  r828  -0.33712447267393536
    x658  r942  4631.901920164369
    x658  r1128  -0.2872653210148502
    x659  OBJ  -11.968639875928579
    x659  r87  0.000648868516402338
    x659  r213  -2.125029607142995
    x659  r827  0.8513578374860622
    x659  r1120  -655.4897789464572
    x659  r1121  -4.692980260396917
    x660  OBJ  -0.08619066082468693
    x660  r953  90.00225683821061
    x660  r1178  0.1315601577008067
    x660  r1188  0.4172213363367749
    x661  OBJ  -0.02893916834173872
    x661  r133  -5427.286306520875
    x661  r208  0.015433638988759706
    x662  OBJ  -0.08453308784379268
    x662  r604  -0.013227818488465423
    x662  r895  -72.5764812798692
    x662  r896  -1.623137038340373e-05
    x662  r1075  0.43341128246918315
    x662  r1076  10.6776158565091
    x663  OBJ  35253.21173065413
    x663  r577  0.012149016637924033
    x663  r937  1.4601359643434968e-05
    x663  r1100  -0.0017364857678277153
    x663  r1101  -2.8237133991739198e-06
    x663  r1168  -0.0017902876428096464
    x664  OBJ  127.0432737660104
    x664  r558  0.4660572245814093
    x664  r1002  0.008049179602892286
    x665  OBJ  -0.2243909890647764
    x665  r183  -351.64422262745745
    x665  r388  422.60669035720986
    x665  r414  -0.1504484029446519
    x665  r448  -0.0002656658022028225
    x665  r1034  3.749077276789631e-05
    x665  r1148  -9.194539022464629e-05
    x666  OBJ  -8.291763063443389
    x666  r554  0.14191285491835529
    x667  OBJ  159.02189546415948
    x667  r224  5.262020699734361
    x667  r375  -0.022103670554532454
    x667  r376  -0.0001780451598687953
    x667  r875  -2.9495079299792225e-05
    x667  r876  -0.058638305509633115
    x667  r990  2.614009339142299e-05
    x667  r991  0.000656461211565093
    x668  OBJ  130.27906353897708
    x668  r155  0.003767920575505158
    x668  r156  6.357163074728512e-06
    x668  r412  -1.6005516484925464e-06
    x669  OBJ  -0.0009390910106455233
    x669  r405  7.874588179167863
    x669  r406  0.014068506171865856
    x669  r690  3808.356655338086
    x669  r691  42.793482786551394
    x669  r732  1.5256553338071037
    x669  r885  -4.892153991105113
    x669  r886  -13.7060185208299
    x669  r1024  1.2576850886323174
    x670  OBJ  85.0570777976346
    x670  r82  980.2644924373095
    x670  r369  -0.007741836763242775
    x670  r408  0.047040796330919635
    x670  r593  0.05409809340852101
    x670  r879  -0.14554150233314672
    x671  OBJ  -0.0014123895066237735
    x671  r524  801.0132761413468
    x671  r667  0.000546625125125117
    x671  r772  0.0008343391933477601
    x671  r878  -1.267043768289473
    x672  OBJ  16.10667182559599
    x672  r250  2.460123767500153e-07
    x672  r251  3.969579987286381e-06
    x672  r445  -8.02840993711235e-05
    x672  r446  -0.00656118009826692
    x672  r907  0.0017442799919686013
    x673  OBJ  0.022298306060417484
    x673  r524  1207.4640854796287
    x673  r969  19959.17091274135
    x673  r1009  55.407801659894005
    x673  r1019  143.85619551042353
    x674  OBJ  0.06880488041625255
    x674  r27  -20.681283812308283
    x674  r122  403.22500824728155
    x674  r160  -4426.889426001073
    x674  r161  -291621.63037486095
    x675  OBJ  164.84640753539452
    x675  r197  1.8316032883566589
    x675  r923  -0.0022597899983174186
    x675  r997  -0.0001472652605844721
    x675  r1078  0.00549517143742118
    x675  r1167  10.243006332569086
    x676  OBJ  0.10431445657696782
    x676  r343  132.4701648127361
    x676  r359  79.56223592346325
    x676  r534  -1006.9956585690257
    x676  r713  0.0009440015164816908
    x676  r869  -1271.94290780309
    x676  r1060  0.0003363300698555167
    x676  r1061  0.17962790968058223
    x676  r1170  81.96464007134661
    x676  r1171  2.9123608365632673e-05
    x677  OBJ  1014.2177073521791
    x677  r28  9.996073597127031e-08
    x677  r48  -8.088188376020463
    x677  r157  -0.13684789959761762
    x677  r698  -0.0005313564610591385
    x677  r1014  1.0109905367446421
    x678  OBJ  -6.239424509272034
    x678  r124  -1.3022488974764332e-06
    x678  r275  -0.0001512866252478326
    x678  r276  -4.6149330976296e-05
    x678  r329  -0.0006001496399427901
    x678  r363  27.626245980463437
    x679  OBJ  0.31663805985721655
    x679  r570  0.008557073562550309
    x679  r571  0.00016718558111716722
    x679  r932  1.9822071336324827
    x680  OBJ  -29.422680771993967
    x680  r107  0.00012640202876735125
    x681  OBJ  9.82156828337369
    x681  r203  0.03493227994851448
    x681  r803  0.005918147777440695
    x682  OBJ  -50.078862178190576
    x682  r109  0.00010020018047302775
    x682  r350  -178.46064265479887
    x682  r351  -20.16482260613902
    x682  r395  -0.001129614528864199
    x682  r396  -0.7121920267264946
    x682  r937  -0.0001310123016034454
    x683  OBJ  -40.58345756307335
    x683  r103  0.0004404443493396356
    x683  r487  -15.368670016367979
    x683  r528  4.103314287132864e-06
    x683  r608  -0.03330022063445719
    x683  r738  9.419765479302378e-07
    x683  r739  -1.9725184035166017
    x683  r878  0.005118398255315347
    x683  r1167  0.9416996288035016
    x684  OBJ  -74.3891802008924
    x684  r239  365.97206353625876
    x684  r1022  -0.00017934092616220758
    x684  r1135  -0.05830963985161082
    x684  r1136  -0.3430742791651214
    x685  OBJ  0.7553363231811265
    x685  r13  2.008730525421616
    x685  r385  19.293611449214076
    x685  r386  94.16961697542831
    x685  r690  -1633.3871395570293
    x685  r691  -18.35393340653462
    x685  r892  -3802.448132558018
    x685  r1173  2.9728099372110974
    x686  OBJ  -63.87165032826372
    x686  r727  -8.965579255773676e-05
    x686  r847  0.006821817597277275
    x686  r944  0.0008342551815459293
    x687  OBJ  -0.03722219012987308
    x687  r108  1985.2862323237555
    x687  r188  -0.02464440484369483
    x687  r270  2.571173308860922
    x687  r271  0.008651726647142262
    x687  r487  -879109.5326017024
    x687  r904  13766.66036977166
    x687  r1127  0.008549271286100824
    x688  OBJ  2033.1828875140632
    x688  r97  -0.2725074301155087
    x688  r510  -6.676237199009514e-05
    x688  r511  -0.0035682149473338807
    x688  r708  -1.2011590049990707e-05
    x688  r737  38.72014752985498
    x688  r1023  9.942801012126405e-05
    x689  OBJ  6.400345524644767e-05
    x689  r530  -0.03832899061443599
    x689  r531  -6.919997399447124
    x689  r849  -5268.730858595566
    x689  r1055  -36.64879952270859
    x689  r1056  -10.050554821231314
    x689  r1077  19.007124374626702
    x689  r1142  8522.987915162226
    x689  r1178  -0.25740311195063076
    x690  OBJ  0.013874061862668829
    x690  r317  -1147.0551287674468
    x690  r610  13.522345691173568
    x690  r611  3.851468877420543
    x691  OBJ  0.06261489080721444
    x691  r63  -0.005743565871168442
    x691  r160  -3.0625300983191965
    x691  r161  -201.7443704598441
    x691  r190  12.337244855529656
    x691  r191  0.5239947159896428
    x691  r597  0.0004441131252883139
    x691  r1120  -94.12730786436966
    x691  r1121  -0.673904631254171
    x692  OBJ  -0.0012427285467961802
    x692  r34  0.0023530327271501996
    x692  r652  0.00041893710808561563
    x692  r1042  0.02202374694728979
    x693  OBJ  0.09722176328917108
    x693  r28  -0.008655477699925805
    x693  r398  -0.0009084016295282014
    x693  r475  -9.91766993032459e-05
    x693  r476  -277.9509736050259
    x693  r865  21461.85047317474
    x693  r866  0.05772207138536877
    x693  r1043  0.00731014027730098
    x694  OBJ  -0.0002380938105802635
    x694  r72  99.28522879256256
    x694  r138  504772.88615084806
    x694  r245  -5.312678824577237
    x694  r246  -201.54841124058348
    x694  r769  64064.33837320376
    x694  r818  -37.793725833600604
    x694  r1044  5512.501316987874
    x694  r1167  -42069.244363093705
    x695  OBJ  0.010450103978664887
    x695  r90  -35.77129973376108
    x695  r91  -0.09237808880655735
    x695  r208  -0.038511764155309526
    x695  r245  -0.625655697903505
    x695  r246  -23.735655035782152
    x695  r1048  0.08385285084930316
    x696  OBJ  0.7728624877022957
    x696  r680  13454.135289700693
    x696  r681  1.84453542663761
    x696  r753  109.6643746724752
    x697  OBJ  -29.652962405048825
    x697  r0  0.0006416458362173016
    x697  r1  4.867448379303185e-06
    x697  r68  -0.06986255231299487
    x697  r102  0.00017060278521911743
    x697  r579  -0.013429301500446683
    x697  r729  0.10403278043897855
    x697  r860  9.404445568170815e-07
    x697  r861  1.081319843159457
    x697  r974  3.636186814400715e-05
    x697  r1159  9.668114391074146e-06
    x697  r1185  -4.035930170019899e-06
    x697  r1186  -9.848365463795467e-08
    x698  OBJ  269.3526214741127
    x698  r290  -6.293997684010573e-06
    x698  r291  -6.180392463721409e-07
    x698  r478  9.095133077712987
    x698  r537  -0.007045804148923212
    x698  r564  0.036512242935813906
    x698  r839  0.1338147504870333
    x698  r944  -3.877473832519951e-06
    x698  r1003  0.019362184964839303
    x698  r1175  2.1911782230366142e-07
    x698  r1176  9.888760773602862e-05
    x699  OBJ  30.584143280770306
    x699  r258  -8.166810430799863e-05
    x699  r310  0.00016235856180454706
    x699  r311  0.04337403644051184
    x699  r347  -2.2052576040360633e-07
    x699  r350  2.3497516000652343
    x699  r351  0.2655057354884664
    x699  r825  1.2796684973981085
    x699  r826  0.0007621184801449957
    x699  r907  0.0021009703462997746
    x700  OBJ  -0.14384104331043565
    x700  r334  -3.8144050450760994e-07
    x700  r350  11.512761806686129
    x700  r351  1.3008627341302226
    x700  r595  0.3528507730818311
    x700  r596  3.020442637961399
    x700  r598  -1.5427720798282545e-05
    x700  r950  0.38221707090335627
    x700  r951  0.0002748305508037294
    x700  r1099  -0.007325662878775295
    x700  r1152  0.00026394609137463056
    x701  OBJ  -2.210423463658302
    x701  r55  -1.306133453318653
    x701  r56  -2.442230772005314
    x701  r433  255.8495060075726
    x701  r850  0.0017412018590927281
    x701  r851  0.534699013062781
    x702  OBJ  -0.15713877780665006
    x702  r55  1062.4376845526924
    x702  r56  1986.5642365716474
    x702  r193  -0.29228956867396194
    x702  r1107  0.9161818101889714
    x703  OBJ  -0.9521413093301103
    x703  r157  0.19083694511613802
    x703  r224  0.7404039551371251
    x703  r404  0.0006819130598206306
    x703  r1034  6.56605042897996e-07
    x703  r1184  0.0016273944016861094
    x704  OBJ  557.6732121743191
    x704  r2  2.0573955958333263
    x704  r1062  0.09142070341811408
    x705  OBJ  2.5053407996652233
    x705  r229  0.013091505437985103
    x705  r315  205.47456581594818
    x705  r316  22.766679677075345
    x705  r343  247.46524163571002
    x705  r833  -4.006136834386544
    x706  OBJ  -13.973588334115563
    x706  r193  0.00011033787132872808
    x706  r232  -0.29818412136935574
    x706  r360  -1.5088458963569392e-05
    x706  r361  -29.036875374755944
    x707  OBJ  -0.011612544463198246
    x707  r168  1895.184205892936
    x707  r377  -0.09355588414960976
    x707  r737  225458.40493875422
    x707  r1114  0.9169369164103667
    x708  OBJ  -3.864645410905595
    x708  r613  430.55885517324384
    x708  r870  1.6944373730594384
    x708  r871  0.023335155252975772
    x708  r1103  233.36058462014628
    x708  r1195  20825.14237514835
    x708  r1196  45.8436163651489
    x709  OBJ  -1.3760036538366975
    x709  r430  0.0007999217402139154
    x709  r431  1538.841389925449
    x709  r953  0.12886185448350393
    x709  r1083  -0.007728965550594893
    x710  OBJ  0.2334230998504063
    x710  r95  14.754533298168761
    x710  r96  6.326400716995573e-05
    x711  OBJ  -0.5296642065058943
    x711  r369  22.52304422653538
    x711  r472  0.34819255742950156
    x711  r622  3813.236174366527
    x711  r1012  6.7073851127280335
    x712  OBJ  -0.36212063748422746
    x712  r118  -0.000450730239072508
    x712  r187  0.0018987644441430728
    x712  r410  3.340791176734055
    x712  r411  4.288281990293336
    x712  r457  918.5171207369173
    x712  r655  -0.0017719921506128894
    x712  r656  -4.686271179208177
    x712  r1199  164.15777967964868
    x713  OBJ  0.08484736977963458
    x713  r375  9.33659399249298
    x713  r376  0.07520630412592615
    x713  r395  0.03161694785311895
    x713  r396  19.933647802015557
    x713  r607  -0.11906638472341326
    x713  r857  59293.84364691613
    x713  r1070  0.20946250453025525
    x713  r1071  0.001956406610824124
    x713  r1118  -41.030072915700345
    x713  r1174  -57283.563537684524
    x714  OBJ  3.892219045448747
    x714  r2  -5029.166215111076
    x714  r340  9756.82041788514
    x714  r341  3.9551439701648925
    x714  r414  13.671494020839049
    x714  r924  -739.3425525536607
    x714  r1029  0.006952923174895025
    x714  r1169  35744.888011214556
    x715  OBJ  0.21435658617382378
    x715  r44  0.390411963360247
    x715  r1128  -0.008064773094763994
    x716  OBJ  0.0017318605785345146
    x716  r254  1017.726062706472
    x716  r455  -1.0115274346301697
    x716  r456  -2620.7107803383606
    x716  r945  -33.270742677994946
    x716  r946  -0.9000349258259155
    x717  OBJ  -699.2639345341469
    x717  r400  8.335360318274682e-05
    x717  r401  0.0023470433138026176
    x717  r493  0.006077915443469678
    x717  r509  -0.21518479846510116
    x718  OBJ  10858.29555072943
    x718  r335  -0.00023499093029028488
    x718  r336  -1.6343167620551905e-06
    x718  r635  3.2102680582206503e-06
    x718  r636  1.2885931183778525
    x718  r812  3.699336283307433e-07
    x719  OBJ  0.0017148631516010321
    x719  r255  -36.357395554312816
    x719  r256  -4699.149910619942
    x719  r730  19.753935826375052
    x719  r731  0.7967709093441785
    x719  r980  -8.21854944296003
    x719  r981  -0.01070064914543765
    x719  r1114  0.9476766008387272
    x720  OBJ  1166.9543066889664
    x720  r247  48.192048805764564
    x720  r292  -2.3759442027364263e-05
    x720  r567  0.0002845157918005664
    x720  r730  -0.001160061392378842
    x720  r731  -4.679083594402757e-05
    x720  r797  0.2136472843317593
    x720  r910  7.701923615861376e-05
    x720  r911  0.05566315600887945
    x720  r993  -1.2701654004548866
    x721  OBJ  0.0007788301887046078
    x721  r788  -7.322650176654674
    x721  r933  0.02187019587403798
    x721  r1079  455.29361181560137
    x722  OBJ  -0.008302927651033397
    x722  r20  0.06909872447154898
    x722  r21  1514.9030622761
    x722  r39  5643.846501084946
    x722  r85  0.003091108279986851
    x722  r86  19948.13930257808
    x722  r757  -374.2340454428178
    x723  OBJ  -3.289781436237169
    x723  r124  -0.00036880088350157075
    x723  r244  0.001228671694950508
    x723  r402  -53.43748908325618
    x723  r628  401.4702003725085
    x724  OBJ  2.594961485265676
    x724  r123  -0.003997268415748379
    x724  r192  0.0004175239008322092
    x724  r648  -1.621899367229587e-05
    x724  r785  -1.2058282118781372
    x724  r786  -8.44602294741645e-05
    x724  r935  14.667867265761403
    x724  r936  4.6425162043483817e-07
    x725  OBJ  -0.004910034892940999
    x725  r127  -3.0664503099647082
    x725  r663  -25.94477434638117
    x725  r910  0.761285896483737
    x725  r911  550.1947011791373
    x725  r968  -16475.334371143734
    x725  r1162  -105.78977690592859
    x726  OBJ  0.8346614483331133
    x726  r199  0.008946346735681909
    x726  r298  2.1117421084683752e-06
    x726  r1014  -0.409199847785202
    x727  OBJ  0.0003151830179152229
    x727  r208  2.0413596259165288
    x727  r282  -0.05222601546854384
    x727  r797  -1567.8519160622598
    x728  OBJ  2.0281975603610385
    x728  r113  0.25300613445859055
    x728  r127  0.03894195369364733
    x728  r144  0.014349407661562197
    x728  r1115  215.58972572478262
    x728  r1116  20.141048878378978
    x729  OBJ  -0.6259321090118789
    x729  r55  0.07682684954492246
    x729  r56  0.1436521632595049
    x729  r479  3.349092621687444e-05
    x729  r860  -9.14050592353053e-06
    x729  r861  -10.509721556666465
    x730  OBJ  -1.1865142048319019e-05
    x730  r570  56.625170789305464
    x730  r571  1.106325896939865
    x730  r577  1210.4603117795723
    x730  r657  788.8310922831479
    x731  OBJ  4.547424387387812
    x731  r273  0.0014503541345785825
    x731  r684  -458.053525246709
    x731  r814  3.49859760064507
    x732  OBJ  -8.600239850172642
    x732  r200  3.983288697595834
    x732  r201  1.3488983483701635e-07
    x732  r688  -0.008978990632566004
    x732  r714  0.07399277821189834
    x732  r778  -9.786425805808514e-08
    x732  r880  3.1202679768143073
    x732  r881  0.30613833139063745
    x732  r1192  -6.59300136897468e-08
    x733  OBJ  -0.009100844997929522
    x733  r1155  -13.250320869226288
    x733  r1156  -8.514014025150972
    x734  OBJ  -5.052839646977496
    x734  r704  0.011599804695083557
    x735  OBJ  65.73070533579576
    x735  r252  0.000148456987115853
    x735  r604  0.0002461492699352657
    x735  r878  -0.0005974792099316029
    x736  OBJ  0.619128396769705
    x736  r178  -0.07559793738409756
    x736  r318  -0.02078818401820594
    x736  r334  3.569084803926169e-05
    x736  r432  -0.011507360297755832
    x736  r755  205.13150482777738
    x736  r756  2.8050677796656238e-05
    x736  r1047  1.0034386406715173e-06
    x736  r1148  1.3661132649485968e-05
    x737  OBJ  469.221708130227
    x737  r520  -2.1763201331332514e-05
    x737  r521  -5.006433239656951e-05
    x737  r568  0.000617835864531237
    x737  r715  0.12020366846952825
    x737  r716  0.08333886327410958
    x737  r805  0.006671864558695839
    x737  r806  0.0007326610555772195
    x737  r848  -0.0009762843615237888
    x737  r1078  0.12440303648861994
    x738  OBJ  0.00013690643500784114
    x738  r92  -368652.2745378194
    x738  r758  -0.30811143759740395
    x738  r843  -0.13324137313111584
    x738  r899  654.9767254709003
    x738  r1070  2.307294780538721
    x738  r1071  0.021550428664496066
    x739  OBJ  27.786588571989213
    x739  r53  0.17539478810722114
    x739  r189  -0.022119160293097954
    x739  r447  -2.5942866210084183
    x739  r448  3.280788395368317e-06
    x739  r719  -3.2617318627116705e-06
    x739  r1029  -1.320599639919197e-06
    x739  r1122  2.13293439970333e-05
    x740  OBJ  0.03804778509330919
    x740  r290  0.42669451943218795
    x740  r291  0.04189927808377459
    x740  r487  590879.9314842544
    x740  r600  -0.08871706507572397
    x740  r601  -33.40434774904764
    x740  r1068  8065.407548033425
    x741  OBJ  -0.00016577350928596532
    x741  r264  67.73528897117413
    x741  r309  0.15259677060625387
    x741  r327  -0.32259520792201823
    x741  r349  0.0036201369925243873
    x741  r1029  -0.025612047410309802
    x742  OBJ  -0.16639657709527875
    x742  r250  1.1244496112676798e-05
    x742  r251  0.00018143772815689668
    x742  r300  0.0007379400805056982
    x742  r301  0.0013180536908039262
    x743  OBJ  0.003607700579799236
    x743  r669  0.017087649175552243
    x743  r672  15.013578632060774
    x743  r839  -816.6450675190216
    x743  r847  -6.676510078664486
    x743  r1125  11964.019699203202
    x743  r1126  26.68647286449549
    x744  OBJ  -0.6721844015523216
    x744  r54  93.52197153807681
    x744  r564  2315.81797521541
    x744  r923  81.03750077860715
    x744  r978  169.65274613392614
    x744  r1127  -0.009789150264986255
    x745  OBJ  594.3165664715847
    x745  r60  -0.026883759262938515
    x745  r61  -0.0006634399855770002
    x745  r109  1.7319549329640168e-06
    x745  r593  -0.00014041152185584842
    x745  r668  3.308313227574816e-06
    x746  OBJ  5.07888480015377
    x746  r77  -0.006177260343512567
    x746  r534  12.4861224485372
    x746  r580  7.685681808698226e-05
    x746  r581  0.004874989767886799
    x746  r724  -0.2029855557283925
    x746  r887  2.334718285150483e-05
    x746  r920  -0.006733511312000267
    x746  r921  -3.6501209042640586
    x746  r982  9.03447527244094e-07
    x747  OBJ  0.0009890261858761338
    x747  r143  1088.0929341127633
    x747  r428  185768.181366467
    x747  r617  -6224.89177170939
    x748  OBJ  3.6209505345285384
    x748  r37  0.00030086634312139144
    x748  r97  8.303450626244869
    x748  r213  8.640193950083168
    x748  r485  9562.801686219145
    x748  r486  0.18506970077726048
    x748  r983  -43.87645272592954
    x748  r994  9122.517373415276
    x748  r1122  0.0025989029616298102
    x749  OBJ  -87.38485063742628
    x749  r84  5.9900813152040016
    x749  r237  58.18302226428852
    x749  r335  0.0041031790133197925
    x749  r336  2.8536818677675984e-05
    x749  r840  2.0681764130528473
    x749  r841  0.0016002950197800247
    x749  r1022  5.096350552519938e-05
    x750  OBJ  -0.00010444718580756952
    x750  r29  753500.440326033
    x750  r220  7557.702282380373
    x750  r221  1352.8044727317006
    x750  r755  -171422.5319135993
    x750  r756  -0.023441149197596392
    x750  r955  1.3027542389463551
    x750  r956  2.682466852742482
    x751  OBJ  -0.08789540150088863
    x751  r578  0.00015448629647198757
    x751  r982  3.071770168020643e-05
    x752  OBJ  11.311139071511821
    x752  r108  0.6189354162027483
    x752  r189  -0.07243565559930079
    x752  r1145  -36.569571870660305
    x752  r1146  -3.9218437487131765e-06
    x753  OBJ  -0.3833023985878745
    x753  r222  0.015995107199682237
    x753  r430  -0.00025653582848439205
    x753  r431  -493.508215897507
    x753  r848  0.0011915904617501069
    x754  OBJ  4560.7133175109675
    x754  r42  3.277580515753919e-06
    x754  r225  -0.0318271430115762
    x754  r226  -5.165918498434357
    x754  r362  6.772306134941129e-07
    x754  r752  1.395950450567173e-06
    x755  OBJ  -0.004099192601701939
    x755  r22  -0.0005159544044704998
    x755  r42  0.000388567631009625
    x755  r329  0.017946892049541068
    x755  r1038  -818.0281448055108
    x756  OBJ  -0.01862812787214752
    x756  r23  64.60435606498994
    x756  r142  0.6716577660517513
    x757  OBJ  -0.006677913173995876
    x757  r37  -0.001085004234063287
    x757  r292  0.01867189151115186
    x757  r534  8235.816847033671
    x757  r663  -0.6068855868807013
    x757  r690  -1626.6743776475996
    x757  r691  -18.278503900524793
    x757  r844  -102.21406990281568
    x758  OBJ  11.86333446317391
    x758  r119  -0.010769763409470673
    x758  r388  -26.731109662928045
    x758  r734  -295.05762659073116
    x758  r1134  -0.0008385747991036651
    x758  r1152  0.001809602446928574
    x759  OBJ  0.005209512414418757
    x759  r489  50.524033284627585
    x760  OBJ  0.36603595343304063
    x760  r695  8.005128063235041e-07
    x760  r696  9.18933803931362e-05
    x761  OBJ  0.06782570672128552
    x761  r208  0.00017357084675581166
    x761  r378  -9.001766358643856e-06
    x762  OBJ  20683.358758178278
    x762  r324  8.168169242135881e-05
    x762  r880  -4.830211507580024
    x762  r881  -0.4739057357195718
    x762  r974  2.7077029748588167e-05
    x763  OBJ  -8.261671516213689e-05
    x763  r95  3880.9019656772393
    x763  r96  0.016640405007793277
    x763  r103  4.66650528961996
    x763  r269  -18638.825797952693
    x763  r552  -1085.7464898656242
    x763  r630  -7.074304311481008
    x763  r631  -2848.6303310026383
    x763  r773  53.3948513212674
    x763  r1007  28.07868446851442
    x764  OBJ  0.001721408273938008
    x764  r163  -23.708426484759027
    x764  r492  56.324739481522506
    x764  r844  8280.735333609855
    x765  OBJ  -0.006882069082537066
    x765  r664  5440.956737281051
    x765  r963  -0.008036483760679926
    x765  r1133  -285.6056241943677
    x766  OBJ  587.8611388824816
    x766  r842  0.007627274985836617
    x766  r870  0.0023991532499163387
    x766  r871  3.304023769340886e-05
    x767  OBJ  -39.05961013698762
    x767  r254  0.3777986544719783
    x767  r820  0.029591916348401723
    x767  r821  2.2565942546465205e-07
    x767  r1068  0.7143789861519031
    x768  OBJ  -0.0009372258296883269
    x768  r70  -1.5296475491030896
    x768  r71  -0.10154660320319318
    x768  r274  -0.0005476877596667821
    x768  r303  -0.00404243959727857
    x768  r743  -7166.520755000038
    x769  OBJ  11.0938985940822
    x769  r47  0.025971793869798653
    x769  r557  -0.00020882631840842987
    x769  r614  -15.883070814765379
    x769  r863  -0.22260853574372164
    x770  OBJ  -0.01981276882878732
    x770  r633  4.258595939752222
    x770  r1000  6.183880884988502
    x770  r1001  344.174372752846
    x770  r1009  213.33282822799012
    x770  r1132  2.4303538672420126
    x771  OBJ  -4.481500011502084
    x771  r254  95.6425474260043
    x771  r568  -0.005131807052018782
    x771  r683  -0.0003491500646510516
    x771  r709  27.762020726230517
    x771  r853  8.45573111004882e-05
    x772  OBJ  -0.012933727469803525
    x772  r82  4355.9735391322865
    x772  r580  9.417618605606974
    x772  r581  597.3548669193547
    x772  r819  43.381921355792365
    x773  OBJ  -1.9775390048916142
    x773  r77  0.04590704621576645
    x773  r1108  -20.654257308898135
    x774  OBJ  0.028029194336540605
    x774  r68  117965.9425152447
    x774  r232  -9052.151918605095
    x774  r469  0.21941822828095897
    x774  r654  -72029.70415439397
    x774  r672  -7.080820082605433
    x774  r909  -0.04656409210459461
    x774  r1137  0.6906236246503111
    x775  OBJ  0.0007891725923611037
    x775  r844  -12974.087349920766
    x775  r925  177.27585698184018
    x775  r926  0.7035070471316485
    x776  OBJ  1360.1829059090699
    x776  r170  -8.156208220892397e-05
    x776  r171  -0.00037598756384067255
    x776  r469  -0.00011874613361287022
    x776  r772  0.00013497400036299867
    x777  OBJ  -0.0009361262523911423
    x777  r169  -35.54556194987434
    x777  r882  -5137.782106768573
    x778  OBJ  -31108.004321054417
    x778  r90  0.0017133928277000426
    x778  r91  4.424775056423453e-06
    x778  r120  -3.879358182600222e-07
    x778  r121  -0.6022601053666977
    x778  r327  -1.0241053332837249e-05
    x778  r498  1.7531553506042978e-07
    x778  r642  0.003007849808099063
    x778  r799  3.0262037359861564e-06
    x778  r949  -7.246514952352612
    x779  OBJ  -3.0107914612170936
    x779  r217  0.005840265205257107
    x779  r378  0.004039478976683821
    x779  r658  -29.746154677718387
    x780  OBJ  -13.436095273762849
    x780  r72  0.0003855454869981568
    x780  r295  -0.0010632289634024592
    x780  r296  -2.1563496496555278e-05
    x780  r717  0.0004840925728738436
    x780  r768  1.6510864300680898e-07
    x780  r878  -0.0013488295049090993
    x781  OBJ  3.3392189589745794e-05
    x781  r167  3.2000260025103304
    x781  r803  3879.0323072713313
    x781  r844  -5534.1684164342905
    x781  r1065  -5.4374163144485745
    x781  r1066  -186.12336453917692
    x781  r1190  1695.3608565530726
    x781  r1191  13.28889472184385
    x782  OBJ  -2.311549138463379
    x782  r154  2.050416604316183
    x782  r773  -0.03172948483915067
    x782  r950  -0.43973749515440747
    x782  r951  -0.00031619021546239596
    x783  OBJ  10.072156886183244
    x783  r457  4266.242396919177
    x783  r483  64.16958093064541
    x784  OBJ  -0.16326297455278874
    x784  r88  -2.7515880873519007
    x784  r392  1.7156766280300926
    x784  r510  0.0029628386579263703
    x784  r511  0.15835334890917294
    x784  r547  3884.1070668903603
    x784  r795  2.3435275481450817
    x784  r796  32.59258192544367
    x785  OBJ  9.191729965071803
    x785  r203  -5.296015895482601
    x785  r217  0.000238245472371246
    x785  r574  0.0001888783015652328
    x785  r683  0.0013820110928456722
    x785  r847  -0.02768965894030875
    x786  OBJ  -134.64677747495298
    x786  r390  -0.8854827847543155
    x786  r391  -0.013102013742462549
    x786  r624  0.3838374531825441
    x786  r942  -0.07925024576203839
    x787  OBJ  -175.67551416039475
    x787  r23  3.0549639513513007
    x787  r128  -0.021808236552560735
    x787  r160  18.617119357152074
    x787  r161  1226.403954869135
    x787  r163  -0.015510225754693152
    x787  r313  -1.7345206240254605
    x787  r364  0.405305587999946
    x787  r598  0.00021150294070265143
    x787  r914  -0.0001497878926154219
    x788  OBJ  -1381.8504509176778
    x788  r392  0.36541954553805445
    x788  r792  -0.001967349908955141
    x789  OBJ  1.933376546625761
    x789  r115  -9.479839723192606
    x789  r116  -0.06728170049142623
    x789  r570  -0.7647797129236928
    x789  r571  -0.01494204061670601
    x789  r753  2301.6641566795142
    x789  r888  0.030388778403753133
    x789  r939  0.00019767134092487908
    x790  OBJ  0.0008487435542778493
    x790  r224  12838.090455609068
    x790  r385  45.26707248059743
    x790  r386  220.94271403348154
    x790  r592  -24798.51498452776
    x790  r835  7434.283127916147
    x790  r836  315637.82438446465
    x790  r879  -16.14477478586606
    x791  OBJ  0.012612770841507682
    x791  r284  -2936.810939824765
    x791  r410  -55.26175107105682
    x791  r411  -70.93468562789823
    x791  r598  -0.0065287337530196745
    x791  r770  3571.887571153814
    x791  r771  911.192018664486
    x792  OBJ  0.1543298993512143
    x792  r402  3.4532314853121098
    x792  r888  0.003159550039506442
    x792  r975  0.06068292190829362
    x792  r976  2.346663479437197
    x793  OBJ  2.2162417567808452
    x793  r474  0.013246344777898877
    x793  r514  -20.495314776638832
    x793  r593  0.007028856670450275
    x794  OBJ  3457.1312215924736
    x794  r855  -0.02611262660220376
    x794  r856  -5.447222894556246e-07
    x795  OBJ  -450.47116153318785
    x795  r123  -0.0013279375557520507
    x795  r190  -0.026522266335579785
    x795  r191  -0.001126469286996829
    x795  r284  0.882854108568463
    x795  r300  -5.954010774766219e-06
    x795  r301  -1.0634611242946793e-05
    x795  r569  -5.832137242611946
    x795  r674  -6.450396770646626e-06
    x795  r707  -3.876794723141076e-06
    x796  OBJ  0.8390245310375194
    x796  r325  -911.8399028017059
    x796  r326  -5.967496212962498
    x796  r360  0.01679171907304036
    x796  r361  32314.701934043067
    x796  r614  -13739.643729224728
    x796  r947  -139.29214208666923
    x797  OBJ  -0.1439664389625124
    x797  r234  -3.4699672379137114
    x797  r368  91.05059772298809
    x797  r537  121.7937374189867
    x797  r695  0.049453899414918755
    x797  r696  5.676968506887949
    x797  r862  0.03491159263597822
    x797  r939  0.0024993512908380333
    x798  OBJ  0.00015166544906143904
    x798  r493  574.5917229479908
    x798  r818  22.424971772996578
    x798  r824  -580912.4206634589
    x799  OBJ  -1.3749113130020696
    x799  r403  -17.909894755896005
    x799  r545  0.010005282349342273
    x799  r546  91.26350642182874
    x799  r1165  0.02318567229023299
    x799  r1166  0.055356271044090466
    x800  OBJ  -1.3815658307661298
    x800  r1005  227.97437849169933
    x800  r1006  72.47729444330653
    x801  OBJ  0.024214286444342342
    x801  r64  0.00012178626952058101
    x801  r332  0.0026182400611078883
    x801  r488  16.156658818787037
    x802  OBJ  -0.7553219265592139
    x802  r0  -2.043029784304318
    x802  r1  -0.015498178981578258
    x802  r193  0.05308700653001327
    x802  r200  -13511.500188682328
    x802  r201  -0.00045755258210425647
    x803  OBJ  56.32924407315743
    x803  r744  0.00691715150946847
    x803  r753  4.498288058661486
    x803  r950  7.07192801139314
    x803  r951  0.005085021100763276
    x804  OBJ  -0.3837670605444758
    x804  r919  2.516150993158679
    x805  OBJ  6.041224528462936e-06
    x805  r144  -0.5715340181480631
    x805  r357  128701.91398491885
    x805  r458  1042328.555565734
    x805  r578  2.395290165062589
    x805  r930  148430.05515592944
    x805  r931  39.05776534835076
    x805  r1102  69.34771737022481
    x806  OBJ  -184.34764156683872
    x806  r709  0.12769041391935004
    x806  r825  -8.99891055638433
    x806  r826  -0.005359384911121061
    x806  r1107  6.093467997380019e-05
    x807  OBJ  -9.56213328946119
    x807  r407  -0.00027172639716394254
    x807  r445  0.007364049300560726
    x807  r446  0.6018234506205848
    x807  r878  0.1701233779234486
    x808  OBJ  15.065127508629976
    x808  r205  469.9139494482812
    x808  r206  44.183579318143096
    x808  r587  5.568045747321678
    x808  r608  0.5316045601119079
    x808  r623  424.37914244746827
    x808  r843  1.933625140884161e-05
    x808  r1120  -240.0294390101363
    x808  r1121  -1.7184912036297795
    x808  r1139  0.00014035272378679997
    x809  OBJ  3.2754478448611795
    x809  r188  0.023041987352633478
    x809  r194  0.008870087333277854
    x810  OBJ  -0.0029703127375356663
    x810  r224  11081.31125744091
    x810  r603  0.005951948171287132
    x811  OBJ  -0.00338901627918841
    x811  r100  36.26937161173266
    x811  r101  0.000255070528060382
    x811  r457  -2187.8285647848593
    x811  r563  -1.5304637002475134
    x811  r1058  0.0017310920899226022
    x812  OBJ  -0.008579198014596154
    x812  r293  1.8876624631128984
    x812  r709  2.8541047252631673
    x812  r837  -11.008284215032537
    x812  r1140  0.15013602169547607
    x812  r1141  41.24961516318141
    x813  OBJ  -3.9976773790313205
    x813  r39  -0.38278046699262996
    x813  r575  8.074365808807677e-05
    x813  r576  7.551957588116163e-05
    x813  r1184  0.0004419360683412544
    x814  OBJ  4.53871593175914e-05
    x814  r330  53814.39813072357
    x814  r331  0.5082267583616122
    x814  r422  588136.7278465672
    x814  r820  21208.505793414824
    x814  r821  0.16172995273299434
    x814  r939  -0.1999163253322929
    x814  r970  39.11826401616378
    x814  r971  16.028916518324205
    x814  r1037  -5647.376686189744
    x814  r1064  35.37220488238362
    x814  r1079  -2637.1906657334157
    x814  r1085  136997.13544335816
    x814  r1086  110113.85242512583
    x815  OBJ  14.945715227183998
    x815  r59  -99.23524902038767
    x815  r352  0.003024503403047898
    x815  r427  0.043022730703978676
    x815  r800  -0.47670825119105725
    x815  r801  -82.01931665640086
    x815  r943  -0.011176712872989426
    x815  r1182  4.712435978498899e-05
    x816  OBJ  9.24887987797812e-06
    x816  r79  33.641765699318064
    x816  r234  63.10278765298935
    x817  OBJ  0.047280163804904775
    x817  r333  -8.898311451782725
    x817  r865  -1015.3139302063922
    x817  r866  -0.002730706899257574
    x817  r1183  1452.2153583759296
    x818  OBJ  -117.39685681166695
    x818  r204  0.0001764812828841508
    x818  r223  0.0302887859237433
    x818  r1102  -0.005501696304655387
    x819  OBJ  1225.0101991280824
    x819  r7  0.2239079762561908
    x819  r129  0.019962281851011544
    x820  OBJ  -8327.538318937492
    x820  r162  -0.00044900582465237356
    x820  r1083  8.29869750627566e-05
    x821  OBJ  -29.435334881186627
    x821  r15  -0.6795056979665461
    x821  r16  -0.13099375902810792
    x821  r293  -0.40139409465310366
    x821  r298  1.0143230475307433e-05
    x821  r388  39.46576290301886
    x821  r1140  -0.013982530629590206
    x821  r1141  -3.8416763742939395
    x822  OBJ  3.058712151784829e-05
    x822  r220  43558.69290277195
    x822  r221  7796.866346878252
    x822  r448  -0.40808831462810996
    x822  r638  15.523697112920788
    x823  OBJ  -0.019585585772864206
    x823  r829  124.58702121111445
    x824  OBJ  0.12426979559059789
    x824  r50  0.011215670567589124
    x824  r51  2721.7676822473395
    x824  r457  -61154.96360760456
    x824  r632  -1.060876548991721
    x824  r639  9188.122015690898
    x825  OBJ  2.1083158865548115
    x825  r390  -12.622278909057734
    x825  r391  -0.18676508970589972
    x825  r539  5.319150569151992e-07
    x825  r577  0.027946378583953484
    x826  OBJ  -0.08728569144074072
    x826  r140  -37600.538197459005
    x826  r141  -88.8510236765713
    x826  r333  -126.6256587729325
    x826  r755  45614.08960416739
    x826  r756  0.006237492049544235
    x826  r903  -0.0002587526627957826
    x826  r1019  28.08015028077282
    x826  r1098  -0.11018976346081284
    x826  r1182  -0.07478085948430961
    x827  OBJ  -1075.367642944458
    x827  r673  -2.73825012913845e-05
    x827  r702  0.048103465598607294
    x827  r1068  4.862671921526664
    x827  r1149  -8.156823453246393
    x827  r1199  1.2389990812146
    x828  OBJ  0.01925477992355235
    x828  r128  10.026824896131803
    x828  r199  137.70216085885113
    x828  r697  8.450115604295378
    x829  OBJ  0.0047849375246928165
    x829  r39  378.1724283598939
    x829  r474  1.213901017521757
    x829  r1010  0.026759141095855067
    x829  r1011  0.06257548274183432
    x829  r1029  -0.011626955941129547
    x830  OBJ  0.002502939326998591
    x830  r384  -22.461992382046635
    x830  r757  -57.5151396638854
    x831  OBJ  -884.504701420009
    x831  r28  -9.292398457996719e-06
    x831  r289  0.16418661453580152
    x831  r567  -0.0003345771857867207
    x831  r634  -35.80785640033539
    x831  r899  0.022176835974845946
    x832  OBJ  -15.499898343695213
    x832  r257  0.00012194493615463142
    x832  r434  -5.7679042847708794e-05
    x832  r680  5.911850332043132
    x832  r681  0.0008105030267371025
    x833  OBJ  8.138183409840368
    x833  r227  1.9085305656854
    x833  r349  2.3050314048402003e-06
    x833  r809  -10.112934883593
    x834  OBJ  0.1448662256103345
    x834  r330  55.15564805417743
    x834  r331  0.0005208936119254829
    x834  r394  284.2092506378616
    x834  r1058  0.00038974175301957474
    x835  OBJ  -0.525979584655197
    x835  r135  0.3976553336251422
    x835  r136  0.36432653609286175
    x835  r249  0.00019967467011068393
    x835  r529  -116.42539777643651
    x835  r777  0.00033109837042136214
    x836  OBJ  15.588197386394302
    x836  r63  4.059988006167171e-05
    x836  r393  0.04154023465875022
    x836  r784  -2.2612576955614598e-07
    x837  OBJ  -9.72926430871531
    x837  r963  -5.325200734390791e-06
    x838  OBJ  -0.03180166551127058
    x838  r535  4.09173639803905
    x838  r536  131.16061738408294
    x838  r750  42.11613489137582
    x838  r751  0.0014110108989118014
    x838  r1034  2.5081475347673728e-05
    x839  OBJ  -309.6048993684965
    x839  r83  0.012045940187307794
    x839  r168  0.07368167590298089
    x839  r268  2.5154029635513807e-06
    x839  r440  0.005396422629638853
    x839  r441  0.0008196743425007744
    x839  r733  0.009006749560148151
    x839  r999  5.744121264701415
    x839  r1063  0.2068137006473091
    x840  OBJ  -1.0420098151777573
    x840  r599  290.93694868114284
    x840  r820  2.0134762682034717
    x840  r821  1.535418972262833e-05
    x841  OBJ  102.41688518901837
    x841  r193  0.0001502572418758548
    x841  r453  0.1272876094179659
    x841  r954  -159.10638239336566
    x842  OBJ  -1006.4023997646057
    x842  r88  -0.006687844113712668
    x842  r358  0.369928769547214
    x842  r645  -1.1518434824402126e-07
    x842  r646  -3.371908440625571e-05
    x842  r930  -5.653729075284722
    x842  r931  -0.00148771772222034
    x842  r982  -7.411459066021578e-07
    x843  OBJ  -450.377075866236
    x843  r222  0.0038305656387221014
    x843  r353  9.87473879646115e-06
    x843  r472  0.00010130519718040358
    x843  r808  0.0005784843974947125
    x843  r812  -8.389562760165937e-06
    x843  r903  3.211778986662543e-06
    x844  OBJ  0.01836902618364372
    x844  r490  3198.483476845359
    x844  r491  8.32097220904522
    x844  r940  5.296301595272475
    x844  r941  4400.912967288573
    x844  r1009  114.84330182128285
    x844  r1137  -0.027638481018457384
    x845  OBJ  -1.785416049859596
    x845  r247  -5218.901045477638
    x845  r279  -207.0693386850345
    x845  r565  10.265266076158394
    x845  r566  0.008710058009469675
    x845  r1044  232.31600788368266
    x845  r1090  7.5401740513492665
    x845  r1091  95.01894238996131
    x845  r1188  -0.001993771498676351
    x846  OBJ  -8075.96230833323
    x846  r129  0.001678804977149195
    x846  r132  -3.401196017670043e-07
    x846  r149  2.2667639769613267e-06
    x846  r443  2.0429468489665736e-07
    x846  r513  0.003625129530550965
    x847  OBJ  -0.1898994862008559
    x847  r8  89005.6789061364
    x847  r85  -0.002663065105760716
    x847  r86  -17185.808095268527
    x847  r610  16.954363444885765
    x847  r611  4.828984899201089
    x847  r850  0.2870711116250372
    x847  r851  88.15556867411335
    x847  r863  210.3467904415159
    x847  r899  27.988926707048048
    x848  OBJ  -1.3300047310300376
    x848  r370  0.0008387048832862557
    x848  r371  0.13628670809807403
    x848  r665  0.08567756332539572
    x848  r666  0.0031575439865068034
    x849  OBJ  -0.14821201996261973
    x849  r275  0.0007837525722351453
    x849  r276  0.00023908033377273874
    x849  r345  0.0011687875896218476
    x849  r346  3.7699816409033438
    x849  r635  3.568640915237719e-06
    x849  r636  1.4324430365125906
    x849  r1154  0.004926165670383241
    x850  OBJ  8.283297935666875
    x850  r87  0.0018493690465869273
    x850  r388  -167.776375147703
    x851  OBJ  11311.287607906783
    x851  r35  0.005639550443442881
    x851  r36  0.0016380030800210023
    x851  r394  1.0675629665701036
    x851  r525  -0.007956307192169877
    x851  r526  -0.06925139926639277
    x852  OBJ  -7.025733421747144e-05
    x852  r23  -1659.367955280266
    x852  r504  -1.0331429180875862
    x852  r715  311.5565819035673
    x852  r716  216.00648060081807
    x852  r774  1.232055490972058
    x852  r989  97031.88470854568
    x852  r1103  -57581.41565447035
    x852  r1104  270.0426328671556
    x853  OBJ  6.651549530710417
    x853  r48  57.23820273721113
    x853  r544  -0.00021711082664933504
    x853  r565  0.2921244949822308
    x853  r566  0.00024786705755166073
    x853  r729  3.5338303098006736
    x853  r868  0.1499693729998784
    x853  r893  0.00027679022618328267
    x854  OBJ  13.5302887405445
    x854  r473  0.023419505630936803
    x854  r479  0.01673657216567874
    x854  r485  4060.611645951122
    x854  r486  0.07858535677591294
    x854  r840  -29.36471224398248
    x854  r841  -0.0227215640139485
    x854  r842  0.31171159285641836
    x854  r1082  -19.218633757145827
    x855  OBJ  -1.6561201494698796
    x855  r92  5247.387640927994
    x855  r263  -0.03756830258305057
    x855  r425  0.2797868576898682
    x855  r426  4211.205100433025
    x855  r1064  2.7194096995355523
    x856  OBJ  6.860374842493747
    x856  r48  0.30997803499833637
    x856  r229  7.305749830161918e-05
    x856  r644  1.2864496507586765
    x856  r655  1.9724996147042644e-05
    x856  r656  0.05216540091439269
    x857  OBJ  1.6444534490831078
    x857  r9  -7.133404933181174
    x857  r434  0.0014079010960765495
    x858  OBJ  -0.39907069512846105
    x858  r422  4.941313425705773
    x858  r955  0.00010071954829716067
    x858  r956  0.00020738894154830078
    x858  r1100  -0.000725972977407921
    x858  r1101  -1.1805104664401234e-06
    x858  r1163  -0.00026225157677012956
    x859  OBJ  -188.2399203136613
    x859  r87  0.0022669387330121193
    x859  r285  0.20466105613760258
    x859  r286  0.00018859015953515913
    x859  r350  173.35863661868615
    x859  r351  19.58833108888796
    x859  r420  0.0047115916763511385
    x859  r421  0.0005795973085241197
    x859  r449  -0.0005413717851694128
    x859  r902  -0.013439962389117944
    x859  r1155  -0.06103161363508907
    x859  r1156  -0.039215957077202886
    x860  OBJ  -487.2997480767525
    x860  r717  0.0016080506440710278
    x861  OBJ  -0.02434757379202097
    x861  r87  0.00025422883586912446
    x861  r250  1.9399455691086612e-05
    x861  r251  0.0003130236457730638
    x861  r385  0.5292498399290196
    x861  r386  2.5831998763742448
    x861  r394  -239.710807676304
    x861  r585  0.000594456423903076
    x861  r586  3.4506470114290505e-05
    x861  r752  0.00038069194498152473
    x861  r999  482.2581769532306
    x862  OBJ  0.27780630193922057
    x862  r115  -36.749419781234906
    x862  r116  -0.2608233395450314
    x862  r197  -176.08380092957935
    x862  r503  0.00032993153477683793
    x862  r595  -229.88944363894566
    x862  r596  -1967.8797116402
    x862  r915  1.7489393789191683
    x862  r916  157.82531812676103
    x863  OBJ  7.297922176743777e-05
    x863  r122  2855.770975835654
    x863  r139  -135499.71253234046
    x863  r254  -124243.95900821623
    x863  r787  -1176.7880200413656
    x863  r837  -55259.68936485386
    x863  r1109  0.6501080198315681
    x864  OBJ  -0.270734291978294
    x864  r145  0.00011683120820304804
    x864  r146  0.21162664075354493
    x864  r225  0.25966614861139814
    x864  r226  42.14686062273721
    x865  OBJ  7.941277119240252e-05
    x865  r299  18603.33886098808
    x865  r587  -22208.683517297486
    x865  r1048  3.4824504799850486
    x866  OBJ  0.007816063419656684
    x866  r159  -53.13613376685167
    x866  r704  0.005136217751335763
    x866  r1195  1403.4385942191996
    x866  r1196  3.089471990757573
    x867  OBJ  719.9174344702928
    x867  r255  -0.00020480880619507747
    x867  r256  -0.026471293354554087
    x867  r553  0.01177688554268328
    x867  r693  -5.063043992477993e-06
    x867  r1072  -0.001333417863048786
    x868  OBJ  0.8171148637139245
    x868  r602  3.8699434229175407e-05
    x869  OBJ  -349.5034852766614
    x869  r608  3.7022923681289868
    x869  r622  4.5560348274990945
    x869  r639  -29.86893771448927
    x869  r840  -6.605888549783138
    x869  r841  -0.0051114452716513594
    x869  r873  0.31247778400648313
    x870  OBJ  0.024176351350245488
    x870  r164  1237.2051475422654
    x870  r615  0.5543099527041037
    x870  r616  12291.88162378994
    x870  r722  5698.382831092892
    x871  OBJ  0.24773394253737513
    x871  r134  9.196389330463619
    x871  r968  -319.19104498289687
    x872  OBJ  0.00035605966058573486
    x872  r292  -0.42718095666586536
    x872  r397  -0.012998380015963111
    x872  r570  -1.7684059870100854
    x872  r571  -0.034550594946766364
    x872  r687  -0.0520393614838657
    x872  r1095  0.34558598343471225
    x872  r1096  1513.4327024124284
    x872  r1099  -88.43579346439124
    x872  r1118  496.4064006221208
    x872  r1134  0.7809521148248358
    x873  OBJ  -0.15840371280696477
    x873  r78  -1.0409288125761498
    x873  r129  -2.4164083192442867
    x873  r245  -0.44902375177034
    x873  r246  -17.034725186083467
    x873  r727  0.31937093314798
    x873  r773  27.755013744177127
    x873  r833  560.9155515613638
    x873  r869  -3348.2401520138205
    x873  r957  1.2069145810144168
    x873  r1030  5.188694445026798e-05
    x873  r1031  11.227777783798203
    x873  r1105  -851.6080803669743
    x873  r1106  -12761.914987749935
    x874  OBJ  7.885080318408018
    x874  r147  -0.022757946908727504
    x874  r959  1.1475229969003067e-05
    x874  r1074  -4.0915096993043525e-07
    x874  r1093  0.011528469574910046
    x874  r1173  -0.03798244656256411
    x875  OBJ  -0.018717823750953634
    x875  r272  -8.564821415303369
    x875  r510  -0.023294699004447587
    x875  r511  -1.2450200719897324
    x875  r1155  0.7808023345887476
    x875  r1156  0.5017057392925908
    x876  OBJ  -0.055281559428516105
    x876  r144  -0.1741118658280398
    x876  r354  -1.537200784292293
    x876  r470  0.015968702166000836
    x876  r471  152942.53845682734
    x876  r687  1.0269142873881854
    x877  OBJ  -0.40511489701017833
    x877  r423  0.4470108920164326
    x877  r502  -4.574500627607333
    x877  r793  0.006942215118391263
    x878  OBJ  -1.5483921256510156
    x878  r853  9.336311104581352e-07
    x879  OBJ  0.004705414195711113
    x879  r83  0.817341720532686
    x879  r189  38.751430444088726
    x879  r233  75.64727518112296
    x879  r670  2871.0971367451166
    x879  r671  0.009530608686505957
    x880  OBJ  -0.192781181610779
    x880  r642  -121.38539575441713
    x880  r678  4371.700048821723
    x880  r975  -11.110898127973755
    x880  r976  -429.668480698185
    x881  OBJ  -54737.24963041584
    x881  r410  -0.010577128868554081
    x881  r411  -0.013576936969874819
    x881  r457  4.11782952696897
    x881  r603  1.6276219524388093e-07
    x881  r738  1.897729694862276e-06
    x881  r898  -0.4421106880847835
    x882  OBJ  0.04572991603111074
    x882  r634  580.6745333382252
    x882  r648  -0.0014162090929253784
    x882  r1122  0.008304658519954914
    x883  OBJ  -0.012586898084748527
    x883  r669  0.0387801761211538
    x883  r1188  0.4858763870324372
    x884  OBJ  2.338180487732046
    x884  r129  -0.01574342101178848
    x884  r982  3.2319789662841845e-06
    x885  OBJ  -0.03804063495911833
    x885  r329  -0.12025456082127306
    x886  OBJ  0.02634651578507643
    x886  r172  1467.9046470360483
    x886  r644  88717.9011088319
    x886  r848  -0.003076020288943663
    x887  OBJ  0.6948972446412478
    x887  r800  41.41687640402824
    x887  r801  7125.917984875724
    x887  r1197  0.0009629110471810998
    x888  OBJ  -0.4705601198161723
    x888  r215  -0.28755232735468284
    x888  r216  -0.006563155566546205
    x889  OBJ  -1.4297128949635856
    x889  r907  2.0434328383575333
    x889  r1097  4.418489142916853
    x889  r1158  23.72790912862572
    x890  OBJ  -16.13279311444134
    x890  r27  0.01191694284713425
    x890  r810  0.000710232612509262
    x890  r811  0.005089220522450769
    x891  OBJ  0.004955400342118269
    x891  r255  -1.6800688340304697
    x891  r256  -217.1468882988544
    x891  r282  0.26580673958400497
    x891  r323  -0.26216027214547055
    x891  r393  2390.240774450143
    x891  r547  -559386.0031402179
    x891  r552  -2408303.7629664186
    x891  r563  691.1780801890652
    x891  r599  5702673.8705859715
    x891  r904  -108963.33981155837
    x891  r1068  -328859.6070028865
    x892  OBJ  6272.7753311100805
    x892  r0  0.0010834499029650755
    x892  r1  8.218921056720712e-06
    x892  r100  -0.10061600986498043
    x892  r101  -7.075992118729497e-07
    x892  r245  -0.00029868885593652936
    x892  r246  -0.011331433041045074
    x893  OBJ  5.41046420081239
    x893  r262  34.20784303469799
    x893  r560  -125.25013932492817
    x893  r561  -41.937663370271586
    x893  r750  -43.62516515957725
    x893  r751  -0.001461567726139934
    x893  r823  -0.0001316514540376802
    x893  r1047  0.0005924805235666282
    x894  OBJ  -3.633674922474769e-05
    x894  r459  35.03866722439158
    x894  r575  0.21646155963592106
    x894  r576  0.20245658377835454
    x894  r664  10192.174198999985
    x894  r794  -1.5776280608413629
    x895  OBJ  -2.6911165372146892
    x895  r680  -1312.088198427553
    x895  r681  -0.17988470553922759
    x895  r750  55.546103070658155
    x895  r751  0.0018609532196371167
    x896  OBJ  1.0641888589608388
    x897  OBJ  16773.820651736685
    x897  r13  0.0010862903393722729
    x897  r179  -0.01892672835776272
    x897  r563  0.0022373466511617793
    x897  r735  -0.00040197254687186074
    x897  r736  -6.002596246113247
    x898  OBJ  72.61414440419944
    x898  r174  0.0001242572885198437
    x898  r277  9.085036454780061e-07
    x898  r493  0.009913558972205121
    x899  OBJ  0.03860061619427259
    x899  r108  -0.06259744412690954
    x899  r435  -0.08580677958796323
    x899  r436  -0.6911581989975885
    x899  r559  0.000389455628047898
    x900  OBJ  -0.008991663909787225
    x900  r225  -1798.8492973360364
    x900  r226  -291974.3332797393
    x900  r415  6.003095723434536
    x900  r416  3.317626252892524
    x900  r509  58527.377241950155
    x900  r533  1.9293816680212148
    x900  r582  -380.5689684148066
    x900  r879  1315.7228109722591
    x901  OBJ  0.1654264416730896
    x901  r517  122.10921704897574
    x902  OBJ  5.5067910108341716
    x902  r10  226.5951604629881
    x902  r11  0.0004706198216192761
    x902  r27  0.05592478549586513
    x902  r143  8.056389197822682
    x902  r827  17.627406140100643
    x902  r988  0.0009061617182389191
    x902  r1024  -0.08077045837358042
    x903  OBJ  -0.09403021356687753
    x903  r142  -0.002392959550198071
    x903  r362  1.538879691639642e-05
    x903  r447  63.889102119186276
    x903  r814  1.0182291805894708
    x903  r893  -0.0022347144837262826
    x903  r1120  295.7948337664656
    x903  r1121  2.1177436484586285
    x904  OBJ  -6331.065945710877
    x904  r135  0.00062688893180108
    x904  r136  0.0005743473146856879
    x904  r668  1.607446609518139e-06
    x904  r687  1.517978364171176e-05
    x904  r783  0.00074179728650319
    x905  OBJ  0.0004285363082756211
    x905  r39  17505.035628413465
    x905  r530  0.031833584135251475
    x905  r531  5.7473029135302465
    x905  r930  58085.833616436255
    x905  r931  15.284659546011644
    x906  OBJ  1.4297107948605382e-05
    x906  r262  -33254.04921317679
    x906  r272  1813.6986310044267
    x906  r338  -1592.6952976374714
    x906  r1173  -430.8159237503117
    x907  OBJ  -185.22533540353558
    x907  r298  -8.987333732260267e-06
    x907  r308  -0.001012911121885299
    x907  r852  0.00015354659411252346
    x908  OBJ  19.602173062478474
    x908  r10  -0.08342061345497942
    x908  r11  -1.7325786721718446e-07
    x908  r282  -3.9166812061991236e-07
    x908  r490  -1.4425480725357718
    x908  r491  -0.0037528417791361473
    x908  r593  0.0001019898087959049
    x908  r683  1.2505087506434722e-06
    x908  r745  0.2597142584732039
    x908  r746  0.000386345906201908
    x909  OBJ  -1.347352182551717
    x909  r24  -0.11562310607945528
    x909  r299  -139.1697190286313
    x909  r715  0.8707595418082269
    x909  r716  0.6037096148839933
    x909  r757  -113.34197454981684
    x910  OBJ  -7.048283509774796
    x910  r359  2.645991635169627
    x910  r722  2.3189206332553507
    x910  r739  -0.018978326473993105
    x911  OBJ  -0.026978151792092286
    x911  r112  0.003190878170225442
    x911  r340  -294436.73674204166
    x911  r341  -119.35647414249901
    x911  r415  0.9291034259715456
    x911  r416  0.5134713920390477
    x911  r719  -0.5017188440917176
    x911  r1069  -44651.05820777246
    x912  OBJ  -0.0025674818173464227
    x912  r168  2996.668627132678
    x912  r948  0.046566631283949465
    x912  r1045  103934.83678430365
    x912  r1046  50247.004463290374
    x913  OBJ  0.0015389808951051028
    x913  r732  39.246041867158894
    x913  r899  -13.182888006032599
    x914  OBJ  -1.0417930472016976
    x914  r570  0.00926197039639078
    x914  r571  0.0001809576476924775
    x914  r647  0.2645066948618527
    x914  r672  0.012483286658461197
    x914  r1080  -131.41746530403822
    x914  r1081  -0.08194750289568199
    x914  r1184  -0.022124311970335816
    x915  OBJ  1.4507746159272772
    x915  r503  -1.3014544821506825e-07
    x915  r685  -0.025528160253602217
    x915  r686  -0.011853282367871025
    x915  r983  6.553352753992321
    x916  OBJ  -0.11393098574358833
    x916  r173  -45.727934619375745
    x916  r332  -0.0018742954699336215
    x916  r428  -473.15112208917475
    x916  r645  3.5469713800116015e-05
    x916  r646  0.010383408615183175
    x916  r1125  3.767010222420283
    x916  r1126  0.008402545182000254
    x917  OBJ  0.4215951442870627
    x917  r420  0.001958922283770363
    x917  r421  0.0002409771816560549
    x917  r599  1615.3006900148694
    x917  r613  14.390084062621662
    x917  r687  -0.0005202709688942856
    x917  r889  -8.084708758075322e-06
    x917  r937  0.001840346703708287
    x918  OBJ  -0.4046612799085098
    x918  r12  1.4833273932604092
    x918  r120  1.789086055818164e-05
    x918  r121  27.77508819164831
    x918  r353  -8.498909027824179e-06
    x918  r390  -184.34776934361733
    x918  r391  -2.727695048303557
    x918  r815  1.3883705777203156e-05
    x918  r816  0.00026285085180246604
    x918  r1074  3.430998651927928e-05
    x918  r1193  -5.04508168105463
    x919  OBJ  -48.18071192385155
    x919  r5  -0.0012888186162539007
    x919  r6  -4.7565583348887915e-05
    x919  r158  1.847253419560768e-05
    x919  r275  0.00746408218554386
    x919  r276  0.0022768860013279548
    x919  r395  -1.8335385315877644e-05
    x919  r396  -0.011559974571198142
    x919  r587  -7.554080740445072
    x920  OBJ  7.15176987858235
    x920  r427  -0.3239727129091945
    x920  r489  -2.2009003194772627
    x920  r565  -0.874861294540192
    x920  r566  -0.0007423180820790279
    x920  r763  -0.5722591866358485
    x920  r948  0.00010600396298164707
    x920  r1040  -3.9605461527806654
    x920  r1041  -0.040013355458412496
    x920  r1080  -506.70088345814935
    x920  r1081  -0.31596159626398906
    x921  OBJ  -0.0037737692496039002
    x921  r342  18.72417995536012
    x921  r389  42620.312951860935
    x921  r522  -0.09735794891133755
    x921  r589  62346.20846659286
    x921  r784  0.018226039592722794
    x921  r935  762154.2507361899
    x921  r936  0.024122889818583924
    x922  OBJ  -441.06843403358147
    x922  r117  -0.5758802469625244
    x922  r518  -0.22028979681616656
    x922  r1137  5.02222695605962e-06
    x923  OBJ  -7.730046710561868
    x923  r143  -5.042351772165616
    x923  r318  0.03465555933999054
    x923  r562  1111.487454632475
    x923  r563  2.580046159751968
    x924  OBJ  284.77043990920964
    x924  r17  -1.1338463236710877e-05
    x924  r50  9.391621852248915e-05
    x924  r51  22.791158751762143
    x924  r500  0.44382334456634565
    x924  r501  4.6137457099281036e-05
    x924  r512  -1.0744218922519928e-06
    x924  r669  2.198217230252054e-06
    x924  r689  -0.019127430207956583
    x925  OBJ  6.638080353169525e-05
    x925  r682  40.83978566137902
    x925  r753  19754.436208472252
    x925  r1168  437.4085008410863
    x926  OBJ  -1.2276297372884095
    x926  r127  0.0015264354618380754
    x926  r272  -0.26636246423187543
    x926  r985  0.02049316523547626
    x926  r986  45.9441234583252
    x927  OBJ  0.0029204770007358787
    x927  r528  0.012333786583252506
    x927  r775  36084.048272966655
    x927  r776  0.05236315522563618
    x927  r798  15.444058967681816
    x928  OBJ  0.5241079987252164
    x928  r555  306.06028567030523
    x928  r556  0.03228233942402751
    x928  r793  -0.04099986286094115
    x928  r1033  62.8498150099533
    x929  OBJ  -172.39373124223494
    x929  r105  -0.00019077070692610835
    x929  r106  -1.8349872121481877e-07
    x929  r564  0.03779471185597224
    x929  r728  0.00019572919989168275
    x929  r797  0.001781886241812089
    x929  r1018  -0.6697885717398577
    x930  OBJ  8.939432829200726e-05
    x930  r345  0.7493905026972265
    x930  r346  2417.195786575677
    x930  r360  -1.3606948180214538
    x930  r361  -2618579.26971612
    x930  r1082  6731.351578810752
    x931  OBJ  -0.0017264719207788866
    x931  r150  7396.997744679772
    x931  r151  9.77794178754432
    x931  r522  0.012179869952572349
    x931  r617  -217.77191819423217
    x931  r932  4396.829631695231
    x932  OBJ  0.00016553511817844754
    x932  r439  186.6686177494241
    x932  r617  5615.158798805677
    x933  OBJ  -0.01065457532082679
    x933  r240  -176.33736327395974
    x933  r241  -765.3835738693717
    x933  r354  0.69023200767612
    x933  r1080  81010.06413486069
    x933  r1081  50.51514614067732
    x934  OBJ  -0.2531563300431116
    x934  r128  0.06725172994640394
    x934  r187  0.016983411000979654
    x934  r699  0.017320736822731393
    x935  OBJ  -162.1207742948908
    x935  r512  -5.365160229274708e-05
    x935  r622  15.692500614969473
    x935  r1063  16.108615820461612
    x936  OBJ  0.0005608383286464861
    x936  r333  -4212.529366131897
    x936  r458  -1775030.7148847112
    x937  OBJ  0.13943163628214558
    x937  r267  0.030499261293202167
    x937  r317  30.766825564233255
    x937  r340  -1398.9371564853027
    x937  r341  -0.5670902632347294
    x937  r628  -3295.3859762100938
    x937  r708  0.0013185811572971734
    x938  OBJ  -0.06977222467220474
    x938  r615  0.16507736165366593
    x938  r616  3660.6078933198996
    x939  OBJ  976.7941312045222
    x939  r1109  2.2220188315708385e-05
    x940  OBJ  0.0925739000333134
    x940  r485  -634895.7028278072
    x940  r486  -12.287189633602749
    x940  r547  51035.542032689285
    x940  r660  7.598354623339224
    x940  r661  7.299074633575042
    x940  r873  -180.1718524451688
    x941  OBJ  0.04046988134657024
    x941  r709  -10399.194069437277
    x941  r832  18390.949885879225
    x942  OBJ  -133.4915276085306
    x942  r192  -7.200977108429289e-05
    x942  r228  0.3114446556363566
    x942  r409  8.819621136144189
    x942  r565  -0.4508062551545884
    x942  r566  -0.0003825082179358081
    x942  r758  -0.0006702214729163904
    x942  r812  -2.065581451816725e-05
    x942  r1059  33.62065308104845
    x943  OBJ  -0.004996564397999271
    x943  r143  755.4664265171344
    x943  r250  -0.015597475985353569
    x943  r251  -0.2516760715114534
    x943  r353  0.012414742831803537
    x943  r382  1634.8304276122421
    x943  r528  0.07044351043944132
    x943  r564  1117.964119962427
    x943  r640  3189.770916375358
    x943  r641  0.4515755502475591
    x944  OBJ  -0.7974272829285084
    x944  r430  -0.041211031194269145
    x944  r431  -79279.30613098615
    x944  r725  14293.68945735326
    x944  r726  49327.00780858294
    x944  r1000  -0.30153165120165176
    x944  r1001  -16.78225348606561
    x944  r1123  -0.0034026080914206372
    x945  OBJ  0.05931417875299633
    x945  r365  -0.006970246024493461
    x945  r366  -200.07978503338114
    x945  r397  -0.008349482567849993
    x945  r1062  54.517404173223255
    x946  OBJ  0.09815600392749652
    x946  r168  -26.8466825165805
    x946  r482  457.61897182495704
    x946  r925  1.0115553410583895
    x946  r926  0.004014287806100601
    x947  OBJ  0.007858986165262604
    x947  r590  4.5242846839916115
    x947  r591  36.25249387410978
    x948  OBJ  2167.1559662406835
    x948  r153  1.1305154868846953e-05
    x948  r610  0.0006714763985904319
    x948  r611  0.00019125161493109506
    x949  OBJ  5.94849304784702
    x949  r289  -4.21152052925061
    x949  r520  0.0003477557971447258
    x949  r521  0.0007999816550895993
    x949  r615  0.010511712974834614
    x949  r616  233.09834311940784
    x949  r804  2.132749529849511
    x949  r1167  604.1346453849804
    x950  OBJ  0.1961161159727287
    x950  r460  0.4755368965474566
    x950  r461  0.0042558522984043985
    x950  r620  1.391405517339524
    x950  r621  0.00023769355126833583
    x950  r668  0.008177064169620708
    x950  r797  -11.70919927417219
    x950  r903  -0.0002379967910942459
    x950  r1154  1.25917550345416
    x951  OBJ  14.63682380172789
    x951  r347  7.784039942837961e-07
    x951  r704  -1.699583889330294e-05
    x951  r1194  0.06577058188779522
    x952  OBJ  1817.342053550194
    x952  r295  0.015515599717062838
    x952  r296  0.0003146740651892824
    x953  OBJ  -0.0014874093909754285
    x953  r187  -0.0557918621773895
    x953  r590  -0.3223677193193232
    x953  r591  -2.583089833225042
    x953  r939  0.01166685311298691
    x953  r1137  0.09500091871215727
    x954  OBJ  0.015726462128726016
    x954  r204  0.09790257672794564
    x954  r224  4619.049243822791
    x954  r367  1601.3054145259864
    x954  r712  -406.6486690425896
    x955  OBJ  84.39605114403297
    x955  r332  3.594266039443337e-05
    x955  r484  -1.9874294563765522e-06
    x955  r878  -0.01665531255485648
    x955  r1114  5.626483885090102e-05
    x955  r1160  0.002202761714381867
    x955  r1161  1.8243937817854093e-05
    x956  OBJ  -92.5601820773777
    x956  r60  15.300925912655686
    x956  r61  0.3775977149446271
    x956  r187  0.002612158338369286
    x957  OBJ  -0.002450366325431923
    x957  r287  -368204.76915083436
    x957  r387  -0.006048309067694053
    x957  r787  -308.3126580122625
    x957  r823  0.07495206267114028
    x957  r1005  8984.231455370676
    x957  r1006  2856.2542547360244
    x957  r1050  -132.77135376564402
    x957  r1051  -0.022993887933433
    x957  r1113  -9.924521311908293
    x958  OBJ  0.02404800177778199
    x958  r75  6.845329331783697
    x958  r76  1329108.261363108
    x958  r529  169085.9354565484
    x958  r955  -21.869098341063378
    x958  r956  -45.030078413255644
    x959  OBJ  -25968.53331031436
    x959  r57  0.00014871942849853167
    x959  r180  1.501637761174799e-06
    x959  r181  7.343020097244392e-08
    x960  OBJ  18.480473684206395
    x960  r383  0.2779625508400989
    x960  r497  14.859722295823273
    x960  r724  27.196949456977084
    x960  r819  4.915717138564473
    x961  OBJ  -7.7916344682204315
    x961  r333  0.02213482056337261
    x961  r479  0.0001885121491487421
    x961  r608  -0.6050738659949724
    x961  r935  -25.25210358151919
    x961  r936  -7.992525289940378e-07
    x961  r967  -0.0015001724656340245
    x962  OBJ  -6.561971821606669
    x962  r659  0.004188935069481066
    x962  r772  -0.00217421114414303
    x962  r1012  0.1396542479474329
    x963  OBJ  -0.001455507543855873
    x963  r49  0.08186723308150771
    x963  r352  -11.90661630649487
    x964  OBJ  0.0015634837353487457
    x964  r135  0.16713093685885175
    x964  r136  0.15312314497242394
    x964  r357  135.80090147559068
    x964  r784  0.0003685357312027967
    x965  OBJ  -0.03515918061983809
    x965  r389  12179.6195330035
    x965  r835  619.6997372401767
    x965  r836  26310.630556915752
    x965  r1007  -37.52149770546947
    x966  OBJ  -14.880962544615878
    x966  r428  -9.388774605995192
    x966  r693  1.0458888651185689e-05
    x966  r852  -1.1096976811187732e-06
    x966  r900  5.0751268012407016e-05
    x966  r901  0.12950901159322983
    x967  OBJ  9.0395452115403e-05
    x967  r395  -4.087386969127243
    x967  r396  -2576.989172125063
    x967  r758  1.4335602985651108
    x967  r1040  3917.2681717439527
    x967  r1041  39.576118478475124
    x967  r1118  5730.281804268086
    x968  OBJ  0.36652165314168944
    x968  r159  -1849.2835387125049
    x968  r568  -0.20153231026097687
    x968  r829  7.088816017785936
    x968  r833  10129.191409277377
    x968  r997  0.862516669598016
    x968  r1053  0.012829860242895343
    x969  OBJ  0.00017519626399145453
    x969  r0  37.72079087214004
    x969  r1  0.28614539677999645
    x969  r413  -18.462557419434802
    x970  OBJ  44.762801113646475
    x970  r385  9.235164096681324
    x970  r386  45.07563905176154
    x970  r429  -592.2235309842307
    x970  r604  0.29198736283140336
    x970  r620  0.7566612517687384
    x970  r621  0.00012926030391481396
    x970  r1037  21.889496377955037
    x971  OBJ  -0.0006105760232908811
    x971  r49  -0.2861162674963828
    x971  r209  196.80509554692395
    x971  r318  122.40955105280491
    x971  r464  0.3606816755348982
    x971  r1012  -30.057461489275443
    x972  OBJ  0.00022305234146169465
    x972  r700  -240.0732033948152
    x972  r701  -0.2539048794659547
    x972  r872  38.1502733925888
    x973  OBJ  -0.291372826938287
    x973  r125  947.3078143676647
    x973  r126  0.02863278227377029
    x973  r157  777.1894319735412
    x974  OBJ  0.0009405267951747741
    x974  r179  2820.8792918521126
    x974  r398  -0.4940031751289022
    x974  r1107  1.1637409912071055
    x974  r1162  194.73648935752604
    x975  OBJ  0.0007848701098695532
    x975  r124  0.019117244282116454
    x975  r447  5781.8656355348185
    x975  r717  11.136712370477076
    x975  r915  412.3667115447329
    x975  r916  37212.21084658967
    x975  r1174  16758.714992246205
    x976  OBJ  0.00026190851512983797
    x976  r163  6.7799092533535745
    x976  r687  0.9464973941923984
    x976  r728  -11.282123841031355
    x976  r1004  244.0573581792451
    x976  r1083  -4.081301287426421
    x977  OBJ  60.48852671724453
    x977  r79  -0.00026768153174626326
    x977  r434  0.0002029771598153875
    x978  OBJ  3.991731229867205e-05
    x978  r967  -0.388095215102548
    x978  r977  -8398.916556573859
    x979  OBJ  4.012504543622041e-05
    x979  r2  112981.61179368444
    x979  r239  -903150.000227698
    x979  r995  -0.017997824589174077
    x979  r996  -6271.621839447005
    x980  OBJ  2632.3445753151923
    x980  r130  -0.014180566600659649
    x980  r131  -0.008380334645677973
    x980  r917  1.385511658041646e-05
    x981  OBJ  4958.336714285795
    x981  r39  0.9707748716134795
    x981  r392  0.01625460419438566
    x981  r838  0.021052092933865257
    x981  r858  0.3759165668851384
    x982  OBJ  14405.12990907895
    x982  r35  -0.009522429547859005
    x982  r36  -0.0027657823234494895
    x982  r835  0.19709550395735756
    x982  r836  8.368096155963578
    x982  r1039  9.900846026360958e-07
    x983  OBJ  -0.09539703213379386
    x983  r208  -0.0120659227561584
    x983  r264  -2.7586488186009954
    x983  r663  0.385435425708242
    x983  r789  2214.455525324108
    x984  OBJ  -2.221871595173025
    x984  r358  2.0538356068966674
    x984  r908  -3.0654155731546626
    x984  r965  -0.03144213357236845
    x984  r966  -0.003016846558447042
    x985  OBJ  -2.7851603292302083
    x985  r164  2.7435934866435017
    x985  r220  0.6289324110465195
    x985  r221  0.11257688473561957
    x985  r299  -1.6326879012292996
    x985  r1154  -0.009188634413917691
    x986  OBJ  -0.00398827196186909
    x986  r95  -47292.613440701854
    x986  r96  -0.20277972710731862
    x986  r738  0.2805167503714209
    x986  r790  0.014423919802174067
    x986  r791  117.8860917263516
    x986  r863  5550.845488814774
    x986  r974  -0.872469033651354
    x986  r1072  -263.83292026445923
    x987  OBJ  261.5037440308746
    x987  r444  -0.15622770880694836
    x987  r498  -2.2690967654914867e-06
    x987  r643  0.0001091488390984559
    x988  OBJ  -0.036613963656211446
    x988  r362  0.018166562655391738
    x988  r719  -0.04359345880693296
    x989  OBJ  0.4633779184511787
    x989  r854  -63.706111288400535
    x989  r1018  847.0966304536033
    x989  r1185  0.011815800640682014
    x989  r1186  0.00028832590767102236
    x990  OBJ  0.009636588791493018
    x990  r562  50207.83784334931
    x990  r563  -10.998203414409257
    x990  r875  0.021643271826106432
    x990  r876  43.02835644778904
    x991  OBJ  0.09004436815593117
    x991  r167  -7.113869380804005
    x991  r630  139.03942522326295
    x991  r631  55987.40264160933
    x991  r647  6373.220366421668
    x991  r689  -3064.2242053639225
    x992  OBJ  0.00824873914786081
    x992  r35  -66.33734006404264
    x992  r36  -19.267629296878194
    x992  r429  -11172.618318551424
    x992  r509  802.2179052094009
    x992  r554  -1163.0812704837513
    x992  r765  -1.8966767548010854
    x992  r766  -0.14259937012951177
    x992  r842  4.214810158747265
    x992  r852  0.07615595001708682
    x993  OBJ  -0.00194661243569634
    x993  r402  229.64818838159067
    x993  r405  20.760834321758587
    x993  r406  0.037090692128056116
    x994  OBJ  208.44939588711745
    x994  r633  0.00021851685011369087
    x994  r710  8.813236590381415
    x994  r711  0.13266403329245433
    x995  OBJ  -386.61009416104264
    x995  r704  7.392408648379687e-05
    x995  r770  57.14899666131773
    x995  r771  14.578765035332532
    x996  OBJ  0.03593729854887577
    x996  r155  -0.23232359247972384
    x996  r156  -0.0003919718937553155
    x996  r218  -4.3213694027320065e-05
    x996  r233  -0.3660792574326735
    x996  r790  7.070290726216843e-05
    x996  r791  0.5778518963736494
    x996  r927  2.4241549802309694
    x996  r962  5.710933857754022
    x996  r1083  -0.009999865056994853
    x996  r1085  -77.79201525565942
    x996  r1086  -62.52669780279053
    x996  r1102  0.0019240804431332244
    x996  r1138  -0.06031228804700858
    x997  OBJ  0.016102244871195756
    x997  r282  -0.20379714021733591
    x997  r949  2637490.248266455
    x998  OBJ  -0.0008741572218071859
    x998  r233  1012.5855886395597
    x998  r254  -23253.944534225728
    x998  r377  0.47785145091474807
    x998  r1025  0.1988369034274757
    x998  r1026  5.3089581463513635
    x998  r1092  105392.4542094325
    x999  OBJ  -0.27536134779456317
    x999  r410  617.4132788884165
    x999  r411  792.5195273694054
    x999  r429  -39757.10220477747
    x999  r570  -14.689891814170782
    x999  r571  -0.287006776504619
    x999  r1088  1.4932435407742042
    x1000  OBJ  6.336522768178722e-05
    x1000  r567  6.670687377153996
    x1000  r630  128.09064150917106
    x1000  r631  51578.62461873963
    x1001  OBJ  0.04108755267546588
    x1001  r70  -2.266321614502102
    x1001  r71  -0.15045116886802215
    x1001  r248  0.7747236641166252
    x1001  r284  2674.1291373723207
    x1001  r632  4.754712476170601
    x1001  r835  562.421230672949
    x1001  r836  23878.753416135034
    x1001  r842  0.5691972611283987
    x1001  r872  27.24760303608104
    x1002  OBJ  -136.8533825508604
    x1002  r225  0.643898484217965
    x1002  r226  104.51227398970663
    x1002  r439  -0.04257737442317024
    x1002  r475  3.3369806171534437e-06
    x1002  r476  9.352166566895857
    x1002  r767  -147.64479224260623
    x1002  r845  48.90842424870601
    x1002  r846  0.006676256289599101
    x1003  OBJ  63.81169704549094
    x1003  r317  0.05372200505316195
    x1003  r442  -0.00013611086674135306
    x1004  OBJ  0.03601229584193728
    x1004  r104  92.6768062871149
    x1004  r274  -1.9115330117617113e-05
    x1004  r849  -1.2378860652873562
    x1004  r1168  1.3866321053215123
    x1004  r1180  0.00010042266476690666
    x1004  r1181  0.9991818033610416
    x1005  OBJ  0.012368050010228825
    x1005  r284  6976.793107577855
    x1005  r329  1.011225421120684
    x1005  r475  -0.0008376042417261712
    x1005  r476  -2347.4557645000104
    x1005  r485  54261.394384136445
    x1005  r486  1.050125303434942
    x1005  r900  -12.88874520175776
    x1005  r901  -32889.989100342566
    x1005  r969  26255.356891424977
    x1006  OBJ  -0.11144764690332284
    x1006  r18  -0.02950443046924129
    x1006  r213  2505.0282398137024
    x1006  r602  -0.10059034351384603
    x1006  r882  4636.200557187821
    x1006  r1163  11.974383961716699
    x1007  OBJ  -6.474728571813932
    x1007  r214  1.1700286323904399
    x1007  r652  -0.2580406552472996
    x1007  r1113  -15.20620804325472
    x1007  r1154  12.980938101756417
    x1008  OBJ  67.6820006713266
    x1008  r1147  -27.051352280536275
    x1008  r1152  -0.004048892346885862
    x1009  OBJ  -5388.061276187057
    x1009  r682  0.0028859757783822712
    x1009  r782  2.1798368380908464
    x1010  OBJ  -0.18402599513976303
    x1010  r28  -0.0036904391317708375
    x1010  r153  0.041705451828204634
    x1010  r279  -1484.857463613477
    x1010  r1123  -0.0008985062034591295
    x1011  OBJ  -0.0012237762083632114
    x1011  r13  255.4226774123124
    x1011  r44  272.6021234754193
    x1011  r422  655418.119745396
    x1011  r854  116536.06866600909
    x1011  r1182  1.5625536412246013
    x1012  OBJ  -0.3566459986797825
    x1012  r259  4668.379959617828
    x1012  r268  0.2906792996610634
    x1013  OBJ  -1.8944692740475782e-05
    x1013  r138  -454402.57699581457
    x1013  r264  2570.1556106843605
    x1013  r690  102665.65559426992
    x1013  r691  1153.6264491628551
    x1013  r1150  270671.9981581668
    x1013  r1151  6.204867545250216
    x1013  r1197  -4.550440278526456
    x1014  OBJ  -19.49218498131832
    x1014  r4  -0.0011261379063343048
    x1014  r272  0.04110373728536412
    x1014  r562  366.1096896035077
    x1015  OBJ  -0.053414489407358795
    x1015  r1199  881.4187465417459
    x1016  OBJ  0.005802110444012753
    x1016  r600  0.009347595193496426
    x1016  r601  3.519619592852416
    x1016  r813  -0.2819679785082535
    x1017  OBJ  -0.01513405539346687
    x1017  r725  -18375.250588007613
    x1017  r726  -63412.32835256767
    x1018  OBJ  -23894.28357589367
    x1018  r158  -9.272270975193956e-07
    x1018  r595  0.07112603154375581
    x1018  r596  0.6088468971383686
    x1018  r837  -0.006785854163173453
    x1018  r849  0.0026910933258430564
    x1018  r1102  0.00014178480557136818
    x1019  OBJ  -0.02804755962339138
    x1019  r59  620081.941448272
    x1019  r255  20.23060478687621
    x1019  r256  2614.781483289158
    x1019  r304  9069.218921561778
    x1019  r319  -84025.1045325169
    x1019  r465  -801.3760457094816
    x1019  r466  -8.053995518759049
    x1019  r632  -98.02954984743478
    x1019  r758  1.8066562113779936
    x1019  r993  -24.53072927273349
    x1020  OBJ  -4.6183835517755264e-05
    x1020  r187  1.2354315749786233
    x1020  r348  -0.28316093815494564
    x1020  r599  -841011.1227058815
    x1020  r899  -86.37293352392007
    x1020  r920  1241.1265673120897
    x1020  r921  672793.4087093091
    x1020  r1174  -300417.1029592411
    x1021  OBJ  35.7402417677937
    x1021  r580  0.04389181477072342
    x1021  r581  2.784035993515859
    x1021  r898  -8.099945011677569
    x1021  r939  4.307171842453847e-06
    x1022  OBJ  -0.2445206133792617
    x1022  r480  0.005548884997946678
    x1022  r481  8239.950532847392
    x1022  r793  0.5185758197225547
    x1022  r845  -3442.182430751726
    x1022  r846  -0.46987594583691267
    x1022  r1024  -0.7439854384391621
    x1023  OBJ  41.084832342992925
    x1023  r853  0.00045335093478051877
    x1024  OBJ  -0.46398758095442827
    x1024  r13  -0.45956948391606345
    x1024  r632  1.667266595156133
    x1024  r767  3380.310123672502
    x1024  r835  -49.96868393588473
    x1024  r836  -2121.523543494441
    x1025  OBJ  -0.7288253891635424
    x1025  r222  1.1779865856139358
    x1025  r835  -45.00191962404189
    x1025  r836  -1910.6493200291445
    x1026  OBJ  388.3142527153185
    x1026  r37  -6.672943726595774e-06
    x1026  r615  6.961193488332143e-05
    x1026  r616  1.5436519929230306
    x1026  r738  1.7658182725117833e-06
    x1026  r910  -4.680564427392025e-05
    x1026  r911  -0.03382726198361496
    x1026  r1140  0.01637115064824622
    x1026  r1141  4.497945638844464
    x1027  OBJ  248.81814340251196
    x1027  r60  -0.7378267132515373
    x1027  r61  -0.018208158286581098
    x1027  r107  1.6571816130069013e-06
    x1027  r270  -0.0006276100500283689
    x1027  r271  -2.111841537531471e-06
    x1027  r699  -0.008250278403216361
    x1027  r842  0.005700116615182415
    x1028  OBJ  862.636947953386
    x1028  r378  7.641037052188754e-07
    x1028  r1122  -2.3869171241954154e-05
    x1029  OBJ  53.23487339815644
    x1030  OBJ  -6.600206017498501e-05
    x1030  r209  -7.206812905406349
    x1030  r409  1997.2462782669616
    x1030  r1122  0.15387464281617508
    x1031  OBJ  -0.000733791563823549
    x1031  r142  23.42163232720255
    x1031  r364  -165.47925701095056
    x1031  r868  -672.5694821906127
    x1031  r1029  0.012749817675707984
    x1032  OBJ  0.07907235589840397
    x1032  r4  0.09152760485437765
    x1033  OBJ  -80.87017861305524
    x1033  r242  0.13304659088425996
    x1033  r270  -0.000259967476511164
    x1033  r271  -8.747631037436333e-07
    x1033  r725  -2.986674956229913
    x1033  r726  -10.306907767039997
    x1033  r770  2.782296028776551
    x1033  r771  0.7097664426666569
    x1034  OBJ  2.8002483341737565
    x1034  r55  65.33975377170738
    x1034  r56  122.1733942202176
    x1034  r79  -0.08126483748358435
    x1034  r603  0.0007934449320382107
    x1035  OBJ  -0.1548466185438394
    x1035  r818  -14.214534191560267
    x1036  OBJ  -3.9805895007821217
    x1036  r124  -7.625701020464763e-05
    x1036  r884  -1.0785027779000853
    x1036  r905  3.183307952481586e-05
    x1036  r906  0.03999200736394939
    x1036  r1130  -0.01097364268710792
    x1036  r1131  -0.0012118407533420262
    x1037  OBJ  772.7058690301744
    x1037  r674  6.07366769773415e-05
    x1037  r957  0.0016070582102051653
    x1038  OBJ  -0.08926373837161715
    x1038  r397  0.02865841021184631
    x1038  r490  21828.07721211908
    x1038  r491  56.786544365105584
    x1039  OBJ  -0.1248576587890341
    x1039  r185  -737.4058084120884
    x1039  r186  -0.00313925752497344
    x1039  r195  -64.6932913676119
    x1039  r196  -9.695693645637205e-05
    x1039  r387  0.0006768392181332348
    x1040  OBJ  -3.485795453129934e-06
    x1040  r744  50.998163756630895
    x1040  r985  53.095481607131504
    x1040  r986  119036.04611621102
    x1041  OBJ  -6.786035234809768
    x1041  r283  0.0026908029722305035
    x1041  r538  -2.715586676516792
    x1041  r542  4.484966658354538
    x1041  r675  4844.213023225556
    x1041  r676  0.001152606878830253
    x1042  OBJ  1.265112034328112e-05
    x1042  r29  993246.014674373
    x1042  r932  -379.4440382501092
    x1043  OBJ  3.685629661663471e-05
    x1043  r208  0.6894625412888888
    x1043  r360  0.5029193530758952
    x1043  r361  967839.4999831748
    x1043  r653  -387.32967712656153
    x1044  OBJ  258.2523637427324
    x1044  r45  -1.4609127753289761
    x1044  r46  -2.489410232632957e-07
    x1044  r55  0.006370973603522399
    x1044  r56  0.011912555905081782
    x1044  r307  0.09703659969863773
    x1044  r529  -0.1966229170673274
    x1044  r874  3.1821759974247256e-05
    x1045  OBJ  29.76798051023088
    x1045  r714  -746.1712794293255
    x1045  r857  -701.5890964518763
    x1045  r1055  0.036876009395028726
    x1045  r1056  0.010112864782469295
    x1046  OBJ  -0.06612750661196275
    x1046  r125  1738.790126399825
    x1046  r126  0.05255567235262439
    x1046  r319  16366.955577988041
    x1046  r352  2.5903299799832085
    x1046  r824  25980.913261196252
    x1047  OBJ  -0.007879337845781
    x1047  r15  -37259.24160721449
    x1047  r16  -7182.762604156704
    x1047  r723  286.8289311176006
    x1047  r827  -1865.4052161641614
    x1047  r875  -1.2447062071679176
    x1047  r876  -2474.564048592444
    x1048  OBJ  -8.003255520670914
    x1048  r43  -1.5965294469874318e-06
    x1048  r357  -2.9542503474139497
    x1048  r1050  -0.007304857236024184
    x1048  r1051  -1.2650851549751273e-06
    x1048  r1104  -0.13882938649548315
    x1049  OBJ  3509.3259426237328
    x1049  r228  0.02732528696531665
    x1049  r447  -3.0558892074376005
    x1049  r594  0.0047825360021699435
    x1050  OBJ  3.2150340004086777
    x1050  r238  0.0166864594229899
    x1050  r773  3.2673639383223794
    x1050  r808  0.0021418955709711055
    x1050  r860  7.199382832067418e-05
    x1050  r861  82.7782505452918
    x1050  r1015  0.003608110674221465
    x1050  r1016  0.23625000322357165
    x1050  r1017  -174.49055992035477
    x1051  OBJ  0.011463548795493862
    x1051  r112  0.0021874482985089864
    x1051  r115  63.51439548618902
    x1051  r116  0.4507836270207098
    x1051  r838  94.58191470594765
    x1051  r1093  -2.652623138313819
    x1052  OBJ  -25.972290697796893
    x1052  r967  0.08480430322525052
    x1052  r1148  0.0002983227037669584
    x1053  OBJ  -0.0005301445657472329
    x1053  r583  0.14592438657024467
    x1053  r700  2677.154682986068
    x1053  r701  2.8313973716484098
    x1054  OBJ  -0.01643619121019392
    x1054  r212  -0.12553555737597982
    x1054  r470  -0.028060070585668603
    x1054  r471  -268749.3560865055
    x1054  r787  257.32269127402566
    x1054  r889  0.0015422975437224457
    x1055  OBJ  2.6479731477288273
    x1055  r140  213.59438864989556
    x1055  r141  0.5047289478531231
    x1055  r309  0.00011769509656471001
    x1055  r368  5.933849829711668
    x1055  r789  -29.906671686396997
    x1056  OBJ  2.920879053689788
    x1056  r90  0.7483334530507372
    x1056  r91  0.0019325440981277494
    x1056  r220  3.3735603462853097
    x1056  r221  0.6038564837523168
    x1056  r272  -0.3318888247328379
    x1056  r382  3.4366016886775532
    x1056  r460  0.05800234881055728
    x1056  r461  0.0005190962705322472
    x1056  r997  -0.00037814905577476896
    x1056  r1025  -1.4393330885107865e-05
    x1056  r1026  -0.00038430282456162367
    x1057  OBJ  0.00022509590725963
    x1057  r363  2462.5909648629618
    x1057  r700  -3928.8853517006573
    x1057  r701  -4.155245764845135
    x1057  r907  64.55136603147028
    x1058  OBJ  -0.4512732457256414
    x1058  r584  -0.00012768216548402563
    x1058  r668  0.000134889366595378
    x1059  OBJ  -3883.782213909721
    x1059  r199  1.5145636069238866
    x1059  r397  1.2314235755247328e-05
    x1059  r769  126.47012729266774
    x1059  r913  0.003858443742977276
    x1059  r1063  1.5021793671317925
    x1060  OBJ  0.46962281666628564
    x1061  OBJ  -48.83588776613284
    x1061  r609  33.20339583138046
    x1061  r742  57.54748053132829
    x1061  r800  0.30596707088528524
    x1061  r801  52.6427012972215
    x1061  r823  1.9806614205738036e-06
    x1061  r874  -0.0005795608259419775
    x1062  OBJ  -0.0002712192992060114
    x1062  r194  -0.0437569561366053
    x1062  r338  -385.71220699436134
    x1063  OBJ  -0.00024331943809715386
    x1063  r443  -0.0024478246837371345
    x1063  r918  9207.742417797359
    x1064  OBJ  -374.776994222535
    x1064  r712  0.2022835501936075
    x1064  r1048  -0.00017467252565197156
    x1065  OBJ  -2925.010903112421
    x1065  r199  0.3822022918363452
    x1065  r258  0.0011388476245649444
    x1065  r804  0.024399466239113793
    x1066  OBJ  -0.8079730258184789
    x1066  r113  -0.000502581865957152
    x1066  r174  -0.0005301367069315557
    x1066  r247  50.887096404087096
    x1066  r342  -0.008005736954114299
    x1066  r834  28.27590885372966
    x1067  OBJ  0.0008418570488790958
    x1067  r100  72.47132396453088
    x1067  r101  0.0005096669187091225
    x1067  r793  0.06352393261002708
    x1068  OBJ  -7.040161123343032
    x1068  r70  0.15351293855104706
    x1068  r71  0.010191051831998695
    x1068  r130  -5.623856937148138
    x1068  r131  -3.3235486606386075
    x1068  r567  0.003431227983131107
    x1068  r1085  -226.6839710093302
    x1068  r1086  -182.2012208509506
    x1069  OBJ  0.010046113737658026
    x1069  r193  0.1421005085262878
    x1069  r752  -0.010960903953650555
    x1070  OBJ  746.8615679416239
    x1070  r22  9.002393945434865e-05
    x1070  r257  -0.0011151446428146238
    x1070  r623  50.7434884655443
    x1070  r708  -9.48450951969438e-06
    x1070  r767  23.431756140628643
    x1071  OBJ  -0.06448288062749176
    x1071  r709  21837.435416059387
    x1071  r908  -178371.51708384062
    x1071  r1004  -846.3642594466061
    x1072  OBJ  25.23264188315364
    x1072  r18  9.223332180675421e-07
    x1072  r260  -1.821677659660396e-06
    x1072  r261  -0.0075241072342442945
    x1072  r929  0.10102869834638696
    x1072  r1028  -6.330098614209338e-07
    x1073  OBJ  -4.791819799722709
    x1073  r979  19172.60910645159
    x1074  OBJ  -0.00011024482507265604
    x1074  r998  1166.928290420509
    x1075  OBJ  29.842855081257138
    x1075  r157  60.77428184466266
    x1075  r793  0.3472870735280355
    x1075  r857  6998.364808173484
    x1075  r939  0.0012460816253048715
    x1075  r1084  688.333311011586
    x1076  OBJ  -2.650038913629473
    x1076  r682  0.0017835063440617685
    x1076  r743  4.162199678439006
    x1076  r1093  0.002340942157644724
    x1076  r1130  0.1210423803255736
    x1076  r1131  0.013366946012592784
    x1077  OBJ  0.005932877535993087
    x1077  r215  20.582652166004934
    x1077  r216  0.4697828370242182
    x1077  r482  38153.08448047728
    x1077  r813  -15.84160104368283
    x1077  r1092  70092.85592063704
    x1078  OBJ  0.01891788214062881
    x1078  r399  15979.81034376703
    x1078  r548  11.664368887172488
    x1078  r609  58133.29715637642
    x1078  r814  -1423.1019932456056
    x1079  OBJ  13.34512055691196
    x1079  r134  1.238467309748499
    x1079  r255  -0.026378846274086938
    x1079  r256  -3.4094343453715448
    x1079  r1008  115.36985116475164
    x1080  OBJ  0.0007197714157224421
    x1080  r910  -0.15309353589261673
    x1080  r911  -110.64338985123335
    x1081  OBJ  97.79954625588637
    x1081  r49  2.444916989282935e-07
    x1081  r128  0.0002697110571601277
    x1081  r172  0.041257647614665174
    x1081  r384  0.008207479092591572
    x1081  r388  2.1395829130562394
    x1082  OBJ  -0.0021172716185208574
    x1082  r157  5873.404565741623
    x1082  r919  -135.07942540297765
    x1083  OBJ  0.0007138350377527794
    x1083  r57  71.9810104329297
    x1083  r532  0.02647715580041514
    x1083  r1162  446.3430986589192
    x1084  OBJ  0.034381183036641685
    x1084  r42  0.453010597501038
    x1084  r359  264255.54231576924
    x1084  r813  130.51600018251446
    x1085  OBJ  -0.01279539648609923
    x1085  r270  3.699545190035439
    x1085  r271  0.012448578861887957
    x1085  r604  -20.754120090548167
    x1085  r784  0.004504837206372565
    x1085  r1007  217.8825478418178
    x1085  r1073  0.1288301269938294
    x1086  OBJ  6.619089610279488
    x1086  r192  0.17398473649181936
    x1086  r634  1938.064093359923
    x1086  r913  0.4538756318716437
    x1087  OBJ  -6.328864324880285e-06
    x1087  r490  49319.80136401884
    x1087  r491  128.30727420558532
    x1087  r1083  4.548049347190318
    x1087  r1105  24602.38283693254
    x1087  r1106  368683.1131589473
    x1087  r1142  -537.9872713308096
    x1088  OBJ  0.0013716671914398614
    x1088  r168  5425.675042268211
    x1088  r378  0.07145265306315766
    x1088  r459  3660.503971077177
    x1088  r487  -1069696.2481129358
    x1088  r1193  -37256.13611960039
    x1089  OBJ  -0.017645692852521207
    x1089  r1067  -3957.1146117133553
    x1090  OBJ  0.016862334101423335
    x1090  r212  0.0002845725477790888
    x1090  r675  -183.72204222729556
    x1090  r676  -4.371386820700166e-05
    x1090  r728  -0.0246569840963492
    x1090  r860  0.00010180007975448663
    x1090  r861  117.04937359231502
    x1091  OBJ  9.844240779277165
    x1091  r14  0.0005835963514585281
    x1091  r273  0.00026401240788832895
    x1091  r625  0.0008186455409535498
    x1091  r626  157.26132467308025
    x1092  OBJ  0.17861189286218282
    x1092  r235  -0.009812008833612365
    x1092  r236  -0.1308437428569293
    x1092  r304  3.340873878593694
    x1092  r387  2.3755362474489468e-06
    x1093  OBJ  -266.5277424827095
    x1093  r18  1.8529220267379245e-05
    x1093  r615  0.00014575449925970958
    x1093  r616  3.232121383163223
    x1094  OBJ  -0.015994795233413676
    x1094  r320  610.9458155702074
    x1094  r321  0.000367893850086143
    x1094  r684  -12338.342009285865
    x1094  r698  0.06943101479563149
    x1094  r789  1638.5671139256247
    x1094  r859  -0.002498130418702864
    x1095  OBJ  -0.004505364694741501
    x1095  r113  0.07359306022902615
    x1095  r397  0.0005424606122285378
    x1095  r404  -0.08547220115164467
    x1096  OBJ  -408.4026406889015
    x1096  r158  -1.0348183211675563e-05
    x1096  r1034  3.022277709164796e-06
    x1097  OBJ  -28251.192222505484
    x1097  r444  -0.023435779959054732
    x1097  r624  0.14024776525773347
    x1097  r849  0.0038995955199497717
    x1097  r1119  9.627626410476857e-07
    x1097  r1188  3.1521357338545514e-06
    x1097  r1198  0.6507135355416772
    x1098  OBJ  -0.00022858323648967951
    x1098  r109  0.05481274551286604
    x1098  r259  7491.348333696893
    x1099  OBJ  4.703421115355255
    x1099  r582  0.012370939927384068
    x1099  r929  1.41293401110828
    x1099  r1003  -0.8102044111568976
    x1100  OBJ  14.355752559321989
    x1100  r669  1.6079682353998896e-05
    x1100  r703  0.0015774522219568485
    x1100  r765  -0.019052123346486524
    x1100  r766  -0.0014324110747715002
    x1100  r964  -90.29965773978051
    x1100  r1012  -0.021933215832548907
    x1101  OBJ  -3.040591262304467
    x1101  r168  12.451819015885981
    x1101  r269  -5384.067326168962
    x1101  r602  -0.006303843864282566
    x1101  r767  7452.950043451119
    x1102  OBJ  196.48187736636982
    x1102  r208  0.000587519402809758
    x1102  r432  0.021289329351444963
    x1103  OBJ  -0.21979627711959315
    x1103  r169  0.6371748947674417
    x1103  r352  0.10980050873727087
    x1103  r1165  0.00023369153674514972
    x1103  r1166  0.0005579433663531927
    x1104  OBJ  -10536.79462837911
    x1104  r170  -1.3951244168831132e-06
    x1104  r171  -6.431290331883262e-06
    x1104  r757  0.008045153864144563
    x1104  r814  -0.051422354973362804
    x1105  OBJ  15835.638997277763
    x1105  r124  3.1555988537703763e-06
    x1105  r474  6.602375919632102e-05
    x1105  r657  -0.029471207909377663
    x1106  OBJ  0.8431206022115818
    x1107  OBJ  -1.3208639002379188
    x1107  r5  -0.00041322958109785986
    x1107  r6  -1.5250793117085223e-05
    x1107  r85  -3.278863591902487e-07
    x1107  r86  -2.115979828623168
    x1107  r594  0.006362771860903398
    x1107  r662  0.00026835795204952227
    x1107  r997  -5.718974489105644e-05
    x1107  r1070  -4.629929624432912e-07
    x1107  r1071  -4.324413548479576e-09
    x1108  OBJ  0.015599956734300584
    x1108  r418  0.24835179288370143
    x1108  r832  95.619009513412
    x1109  OBJ  103.71238678318971
    x1109  r277  8.666388706735937e-06
    x1109  r625  -9.892232596310559e-06
    x1109  r626  -1.9002920363531197
    x1109  r878  -0.0017514255845678319
    x1109  r1035  -2.244981311067761e-08
    x1109  r1036  -0.007209005725967862
    x1109  r1069  -0.1040935905017756
    x1110  OBJ  -0.010765251492890685
    x1110  r129  -20.045262681416514
    x1110  r892  -185160.503382851
    x1110  r1077  20.001977554084494
    x1111  OBJ  0.37975557911096114
    x1111  r580  1.8802363455792965
    x1111  r581  119.26245678729791
    x1111  r688  3.2304586176928907
    x1111  r777  2.7751125734721218e-05
    x1112  OBJ  -0.0013780371994287137
    x1112  r564  142.09409510658915
    x1112  r730  0.6472202194814162
    x1112  r731  0.026105493475057914
    x1112  r914  0.0006188603710040912
    x1112  r933  -0.050086630438615026
    x1113  OBJ  0.0003499912070563619
    x1113  r159  10726.236578124715
    x1113  r247  -1262661.29824805
    x1113  r542  655.3268102557505
    x1114  OBJ  -0.00030753975358034516
    x1114  r89  23.396606817122823
    x1114  r432  52.88402468380049
    x1114  r609  40918.074528503836
    x1114  r625  0.7730916488559622
    x1114  r626  148510.44891928724
    x1114  r1079  -2828.526089574951
    x1114  r1148  0.04372315307692613
    x1115  OBJ  -0.007608565795192827
    x1115  r559  -0.0094789795821876
    x1115  r905  0.05685753288396512
    x1115  r906  71.43031424336195
    x1115  r942  -1588.9229880308096
    x1115  r1034  -2.7605046760934494e-05
    x1116  OBJ  17.85447223831602
    x1116  r837  18.555134593142867
    x1117  OBJ  -374.18975174308076
    x1117  r70  0.0005401966182484658
    x1117  r71  3.586128822757121e-05
    x1117  r373  8.111507979123941e-07
    x1117  r648  8.095935797980997e-05
    x1117  r987  -0.00010501673639043784
    x1117  r1000  -0.0011657098519423268
    x1117  r1001  -0.0648795512794014
    x1118  OBJ  0.7005197403621742
    x1118  r418  -0.8969503697425445
    x1118  r648  -0.08400916963429504
    x1118  r1187  0.09552814895056842
    x1119  OBJ  -29.863483405799613
    x1119  r65  5.194591114395823
    x1119  r66  0.0002359930389979038
    x1119  r517  78.85055609875542
    x1119  r530  0.00017222707630659733
    x1119  r531  0.031094242270683713
    x1119  r555  616.8946883444403
    x1119  r556  0.06506823867853126
    x1119  r1019  -1.783992852120901
    x1120  OBJ  162.28232072631778
    x1120  r270  0.001275273455913998
    x1120  r271  4.291160499722325e-06
    x1120  r609  32.17968233322701
    x1120  r1019  0.8318496882981213
    x1120  r1054  -0.5061815154872878
    x1121  OBJ  68.03345069202383
    x1121  r134  -0.4568192277660535
    x1121  r625  0.0030954423616563124
    x1121  r626  594.6326485529108
    x1121  r844  -14.336205833525897
    x1122  OBJ  70176.41753564669
    x1122  r154  -0.39258723269398343
    x1122  r293  0.01649296319260792
    x1122  r1180  -4.3830430810246896e-08
    x1122  r1181  -0.00043610243763921654
    x1123  OBJ  7.178157828861556e-05
    x1123  r414  -86.95947560421679
    x1123  r434  -4.716397444547962
    x1123  r713  0.5726384408249582
    x1123  r1024  1.876273730763721
    x1123  r1082  -7570.191901444693
    x1124  OBJ  9.843786175397366
    x1124  r57  0.0027442265329872665
    x1124  r64  3.6797116732401665e-05
    x1124  r158  -1.527815193296444e-05
    x1124  r280  -0.017005893538589785
    x1124  r281  -3.407108740432209e-05
    x1125  OBJ  -0.026261182657847715
    x1125  r387  6.662032790374076e-05
    x1125  r484  -1.0540671565853809e-05
    x1126  OBJ  -212.03313952161477
    x1126  r39  1.2204271815143894
    x1126  r60  0.4428892673736976
    x1126  r61  0.010929663752929216
    x1127  OBJ  -0.03401474106433142
    x1127  r28  0.0013416377979949467
    x1127  r128  0.22158883177055325
    x1128  OBJ  -0.0007505472859394224
    x1128  r224  -45294.72657904873
    x1128  r1168  -1412.8015843759374
    x1129  OBJ  281.12569804821595
    x1129  r257  -0.014537649107121693
    x1129  r283  8.617367024626249e-05
    x1130  OBJ  -0.0012031893012451587
    x1130  r498  -0.01573926689594273
    x1130  r768  0.14584686891197435
    x1130  r827  -1802.7773732196997
    x1130  r860  0.7176577554810272
    x1130  r861  825160.3626962663
    x1131  OBJ  -118.0003490941074
    x1131  r29  0.9333877455321542
    x1131  r644  58.86167952193422
    x1131  r683  0.00016740883491844064
    x1132  OBJ  -0.007169509582769827
    x1132  r709  6935.2552278781095
    x1133  OBJ  -7569.617081378867
    x1133  r200  -9.10025674642056
    x1133  r201  -3.0817051504200696e-07
    x1133  r222  0.0007914437680649632
    x1133  r555  14.321621839272446
    x1133  r556  0.0015106025804863686
    x1133  r833  1.5333933794462606
    x1133  r885  0.0076594711954992446
    x1133  r886  0.021459024850025443
    x1133  r1010  -3.7305525529343237e-06
    x1133  r1011  -8.723789104938682e-06
    x1133  r1083  0.00014656117297720853
    x1134  OBJ  -1816.3633610385987
    x1134  r34  9.933796712054848e-07
    x1134  r254  0.7876224412330997
    x1134  r648  -1.202640986494402e-05
    x1134  r753  0.03840984805567168
    x1134  r765  -0.0003628767489335332
    x1134  r766  -2.7282453745258083e-05
    x1135  OBJ  -194.8870989762397
    x1135  r172  0.6887662903018567
    x1135  r332  0.00018064196507484805
    x1136  OBJ  -0.32402889110496774
    x1136  r47  3.676256002585234
    x1136  r368  67.1249355793306
    x1136  r678  -17.924787724766688
    x1137  OBJ  2.2994781620986278e-05
    x1137  r48  221577.03987982488
    x1137  r619  30706.5992414381
    x1137  r747  44729.52338093939
    x1138  OBJ  0.5768610211389597
    x1138  r263  -0.006119089605342992
    x1138  r302  -0.23302632531054077
    x1138  r344  12373.479711675453
    x1139  OBJ  -0.013308874595795092
    x1139  r392  331.0455958981833
    x1139  r449  0.17288350523189902
    x1139  r838  -368.6876331709446
    x1139  r1125  -12151.453233966866
    x1139  r1126  -27.104554752115593
    x1140  OBJ  3.597408628424774
    x1140  r80  3.7994553737228694e-05
    x1140  r81  0.12721328335810186
    x1140  r147  -0.0019339987642950532
    x1140  r192  0.0004208857857093629
    x1140  r1195  7.004717050413719
    x1140  r1196  0.015419895975195873
    x1141  OBJ  0.006653113754191325
    x1141  r72  0.5017899241460558
    x1141  r209  0.5877508677241756
    x1141  r275  -0.11302934006771503
    x1141  r276  -0.03447911152933875
    x1141  r298  0.0003793234129659748
    x1141  r354  -0.0016024612717261426
    x1141  r479  -0.007793324636893585
    x1142  OBJ  -0.07650652154437705
    x1142  r287  13960.828278420198
    x1142  r452  0.025515344534378457
    x1143  OBJ  60.055840480868675
    x1143  r264  0.40374494273887845
    x1143  r789  119.18662325123233
    x1144  OBJ  0.3334742485855356
    x1144  r23  -0.5007577592362055
    x1144  r25  1.4088172379754467e-05
    x1144  r26  0.032621062340951815
    x1144  r655  0.00024967452750063987
    x1144  r656  0.6602978133983146
    x1145  OBJ  -1.0909801357802988
    x1145  r212  0.002683646379449031
    x1145  r363  -56594.04909446874
    x1145  r870  0.9552400311639802
    x1145  r871  0.013155207023568741
    x1146  OBJ  -0.049188999943336705
    x1146  r432  -0.028380598208442374
    x1146  r1180  4.180895181164422e-05
    x1146  r1181  0.4159891989000479
    x1147  OBJ  0.46069702730697676
    x1147  r315  -7707.541552698764
    x1147  r316  -853.9992720326312
    x1147  r449  -0.035034920771695524
    x1147  r870  5.134811424368253
    x1147  r871  0.07071469485239198
    x1148  OBJ  -0.0021931214139653027
    x1148  r24  -4.702067131001152
    x1148  r350  -731595.6198541275
    x1148  r351  -82665.26262781053
    x1148  r485  2365919.5776110785
    x1148  r486  45.78783944903306
    x1148  r519  -9062.287092560404
    x1148  r832  21565.43581597182
    x1149  OBJ  -81.85049264218993
    x1149  r152  0.0034293779741703884
    x1149  r815  1.6976195685669198e-05
    x1149  r816  0.00032139888066991295
    x1149  r928  7.778852412989565e-05
    x1149  r1164  39.801040256374
    x1150  OBJ  0.4919893002042907
    x1150  r200  35.48264190593852
    x1150  r201  1.2015819263017126e-06
    x1150  r519  -0.6372028063687799
    x1150  r643  0.00010810338396183155
    x1150  r857  84.67084968599852
    x1150  r1140  0.0016699276642366874
    x1150  r1141  0.45880976944914875
    x1151  OBJ  0.0944701350298874
    x1151  r199  -15.691979608580128
    x1151  r1112  0.0026318522475021265
    x1151  r1179  0.007539284422924063
    x1152  OBJ  0.9959245316561758
    x1152  r510  -0.00014559743361789305
    x1152  r511  -0.007781672871148059
    x1153  OBJ  0.004906391571682751
    x1153  r132  -2.1412032144482925e-05
    x1153  r218  -0.00013029478749302506
    x1153  r274  6.196211215192025e-05
    x1153  r383  0.3768547711998863
    x1153  r759  -0.0029939339255172213
    x1153  r983  82.93578630530376
    x1154  OBJ  4.8606281934899473e-05
    x1154  r75  3.1946893236652874
    x1154  r76  620289.8015230546
    x1154  r440  -317.08227173247485
    x1154  r441  -48.16231426602737
    x1154  r720  253905.10974794466
    x1154  r721  3.8675569973583532
    x1155  OBJ  11.860205075562757
    x1155  r574  3.904286949957366e-06
    x1155  r757  0.03945128958413352
    x1155  r780  -0.056342141331075186
    x1155  r781  -2.8987536446626683
    x1155  r817  1.999054778844616e-05
    x1155  r1035  1.6607772422183863e-07
    x1155  r1036  0.0533302998545456
    x1155  r1162  -0.002803352417913136
    x1156  OBJ  44.21344283041657
    x1156  r383  0.0023313329209604153
    x1156  r693  4.042890549184213e-06
    x1157  OBJ  -0.0014585173194580458
    x1157  r117  26703.195889171177
    x1157  r127  7.4747871375511235
    x1157  r145  0.0015857771124794158
    x1157  r146  2.872457526199919
    x1157  r480  -0.7008540225788349
    x1157  r481  -1040750.0748229064
    x1157  r489  -882.5112752413937
    x1157  r849  -2806.9898629965774
    x1157  r989  -57063.617051246736
    x1158  OBJ  -0.3182340366743206
    x1158  r133  947.3226837672704
    x1158  r298  -0.0003575188570589554
    x1158  r742  -1406.9031512688384
    x1158  r1049  0.015309590612493307
    x1159  OBJ  -1088.9341630114748
    x1159  r258  0.0001724017118158243
    x1159  r372  2.0396518630203944e-05
    x1159  r427  0.0017819528638200052
    x1159  r777  4.479197343908309e-07
    x1159  r955  -2.092278598424775e-05
    x1159  r956  -4.308155182261759e-05
    x1159  r1033  -0.20346701768094086
    x1160  OBJ  3.626748871699438
    x1160  r169  -4.7634782576612675
    x1160  r470  0.0014960214363264912
    x1160  r471  14328.360168477233
    x1160  r623  -46752.42182318286
    x1160  r1183  -19385.73204710314
    x1161  OBJ  -0.9475416287712796
    x1161  r552  47.742967876258746
    x1161  r898  8.449352669995065
    x1161  r1175  4.061094379213092e-06
    x1161  r1176  0.0018327669731678616
    x1162  OBJ  -3.674275755262432
    x1162  r537  -1.52849636792486
    x1162  r904  116.80976379338978
    x1163  OBJ  8.478439717615154e-05
    x1163  r39  97419.76594945914
    x1163  r167  -7.2693464651168815
    x1163  r559  -0.9531390020149106
    x1163  r820  8309.727618201572
    x1163  r821  0.06336758789169787
    x1164  OBJ  676.8260097219521
    x1164  r64  0.00035343444110110434
    x1164  r499  -0.0027211594832763325
    x1164  r853  -4.0663621419526304e-05
    x1164  r1115  40.042004982435806
    x1164  r1116  3.7408460761672844
    x1165  OBJ  284.9329557348636
    x1165  r78  0.0005136773973605176
    x1165  r570  0.0004904802943588918
    x1165  r571  9.582859424954075e-06
    x1165  r674  5.079685409741864e-06
    x1165  r822  -0.05057844168809031
    x1165  r975  6.512912141788718e-05
    x1165  r976  0.0025186020361735164
    x1166  OBJ  -1.9199090528255032
    x1166  r209  0.007874536627384972
    x1166  r327  7.440415532959003e-05
    x1166  r407  3.792559775478299e-05
    x1166  r564  0.13456185617844715
    x1166  r1192  1.8011959386472207e-06
    x1167  OBJ  19.830875119560638
    x1167  r47  0.00023696891512996256
    x1167  r282  -1.0833572718636534e-06
    x1167  r308  1.5147623355885841e-05
    x1167  r372  3.1969740446549484e-05
    x1167  r580  -0.00833687036858064
    x1167  r581  -0.5288035434544367
    x1167  r594  -0.004760705458883201
    x1167  r713  -1.80014321344381e-05
    x1167  r872  -0.004761448951533548
    x1167  r923  0.00014474589548889484
    x1168  OBJ  2.348476746892788e-05
    x1168  r43  -0.06564039898355876
    x1168  r767  3069504.4670185116
    x1168  r1110  1.9300423920200576
    x1168  r1111  2088.6250754739463
    x1169  OBJ  -0.20738075228093425
    x1169  r83  0.10486819107426369
    x1169  r950  5.988755156914711
    x1169  r951  0.004306173124380699
    x1169  r1080  140.57695949237186
    x1169  r1081  0.08765905481752834
    x1170  OBJ  0.07397816329152661
    x1170  r295  137.9134601295488
    x1170  r296  2.7970423273784033
    x1170  r357  85077.93204102964
    x1170  r1174  3326079.2721706205
    x1171  OBJ  0.2858784955012375
    x1171  r57  0.03380685485894746
    x1171  r140  576.7710387105795
    x1171  r141  1.3629245663270193
    x1171  r478  -1291.9386656452
    x1171  r973  0.06861178507539946
    x1172  OBJ  0.03198735018507718
    x1172  r452  -0.7176538485612391
    x1172  r797  -2256.6949424607337
    x1173  OBJ  -6.576441239265081e-06
    x1173  r147  -165.5514561314257
    x1173  r199  -12359.554790711949
    x1173  r217  -0.11042270153033461
    x1173  r574  0.19406640838634348
    x1173  r852  -0.10657395392644757
    x1173  r969  -465718.8548741106
    x1174  OBJ  -0.3339360162530299
    x1174  r4  0.13125755960905752
    x1174  r637  46.40699112175855
    x1174  r645  0.0003036186638737804
    x1174  r646  0.08888136701534662
    x1174  r824  -124728.43534708284
    x1174  r977  27250.78406604381
    x1175  OBJ  -2186.1525491705347
    x1175  r67  0.10019730179185012
    x1175  r155  0.03977283641137159
    x1175  r156  6.710396409502105e-05
    x1175  r355  0.44741346496450757
    x1175  r356  0.08944411699419896
    x1176  OBJ  -0.05117356931149349
    x1176  r600  0.06552967715579172
    x1176  r601  24.673676047855068
    x1176  r1193  2294.6337919671582
    x1177  OBJ  1.0893637500386215
    x1177  r162  0.001790908825040874
    x1177  r815  -2.4477879924612086e-05
    x1177  r816  -0.00046342321652100677
    x1177  r914  -3.1462799169892886e-06
    x1178  OBJ  11.12764421657392
    x1178  r32  -158.41296709280036
    x1178  r828  0.004585818488628663
    x1178  r887  0.014040369109631098
    x1179  OBJ  0.014186076896600773
    x1179  r413  -0.8656739186831364
    x1179  r534  9666.215913692819
    x1180  OBJ  0.028926004098765525
    x1180  r53  1545.8129694339384
    x1180  r354  -0.12311212851330608
    x1180  r673  0.10525100259340887
    x1180  r1013  4834.04995712918
    x1180  r1045  1015.8378047727591
    x1180  r1046  491.1039290543674
    x1181  OBJ  -0.008732307784922745
    x1181  r60  15.469371367589606
    x1181  r61  0.38175462801243354
    x1181  r400  0.01934451583272625
    x1181  r401  0.5446965075331832
    x1181  r615  -0.00011391526252415859
    x1181  r616  -2.526082952794049
    x1181  r682  0.2497621389396024
    x1181  r993  14.507138177889242
    x1181  r1003  13.320604675292314
    x1182  OBJ  2174.241338376583
    x1182  r1005  -1.4470374589293187
    x1182  r1006  -0.460040117995685
    x1183  OBJ  -21.69024985585157
    x1183  r940  -0.13928995738827005
    x1183  r941  -115.74170553849922
    x1183  r1084  4664.549743697875
    x1184  OBJ  -2.848661744218784
    x1184  r19  50.83783030047409
    x1184  r74  11.485678168858769
    x1184  r165  -0.00037587334157596926
    x1184  r166  -0.05889314582721904
    x1185  OBJ  -428.0198784934693
    x1185  r368  0.044532073566818944
    x1185  r390  4.496705196405246
    x1185  r391  0.06653533450167638
    x1185  r578  1.1532371678637102e-05
    x1186  OBJ  -16355.848409694147
    x1186  r502  0.016993414879952765
    x1186  r715  0.0016173150140985123
    x1186  r716  0.0011213068332044185
    x1187  OBJ  8403.616255895242
    x1188  OBJ  -3.488441434768601e-05
    x1188  r1042  -0.022344763232680774
    x1188  r1159  1.1545243016947888
    x1189  OBJ  0.018754111605484076
    x1189  r20  0.004721928852064152
    x1189  r21  103.52238094911827
    x1189  r552  -5312.184705265711
    x1189  r593  0.44593036763960947
    x1189  r980  0.01795626549315531
    x1189  r981  2.3379271286026427e-05
    x1189  r1135  0.43152962230780595
    x1189  r1136  2.5389746821234715
    x1190  OBJ  -8.557541873072838
    x1190  r323  0.0008635314542953595
    x1190  r349  2.1027394736405787e-05
    x1190  r455  -0.19088307216748696
    x1190  r456  -494.5484500836474
    x1190  r494  -3.1784225111171702
    x1191  OBJ  0.0011986422404632205
    x1191  r7  -835.8962835184925
    x1191  r172  -656.8488703681978
    x1191  r612  -1.965489383837568
    x1191  r983  41588.29198590546
    x1192  OBJ  0.060636902207240426
    x1192  r712  6.1285107009879525
    x1193  OBJ  43.744205283991384
    x1193  r533  0.002565678170276328
    x1194  OBJ  -0.28239470010025275
    x1194  r219  0.048548529117630954
    x1194  r559  0.06650416758020586
    x1194  r854  392.5758563196142
    x1194  r889  -0.0009364377193252915
    x1194  r982  -0.0019522058834759133
    x1195  OBJ  -0.5173220663259792
    x1195  r300  8.808078726056622e-05
    x1195  r301  0.00015732335158993751
    x1196  OBJ  3736.2058321155764
    x1196  r137  6.468179158677967e-07
    x1196  r875  5.500971166991104e-06
    x1196  r876  0.01093632007600602
    x1196  r1012  -0.000378181913974127
    x1196  r1063  -0.03955534131528168
    x1196  r1067  0.01384505860797952
    x1196  r1094  -1.4633964351478982e-05
    x1197  OBJ  -0.02514383860516837
    x1197  r343  67486.72349862348
    x1197  r362  -0.2803270209012483
    x1197  r517  345928.09865666064
    x1197  r564  1418.7060375072763
    x1197  r1062  197.791738955191
    x1198  OBJ  877.137366102732
    x1198  r184  -39.08978918469927
    x1198  r577  -0.02918033709297593
    x1198  r755  54.73166955458608
    x1198  r756  7.484274193950439e-06
    x1199  OBJ  -0.008162783554958059
    x1199  r717  0.8968695875174745
    x1199  r998  179.3108283070783
    x1199  r1192  0.0010199653325578457
    x1200  OBJ  0.014175737923197627
    x1200  r418  5.3197539048146325
    x1200  r530  -0.03193403526814265
    x1200  r531  -5.765438574481272
    x1200  r792  0.3277297671155157
    x1200  r950  12816.659133048175
    x1200  r951  9.215730424269621
    x1200  r1144  519.9956698896995
    x1201  OBJ  -0.41506068533440205
    x1201  r530  0.25932813795895443
    x1201  r531  46.81965299664171
    x1201  r797  1812.9405578954409
    x1201  r873  1341.8399648224145
    x1202  OBJ  2115.280010335939
    x1202  r573  432.62698876350265
    x1202  r985  0.007251436950972944
    x1202  r986  16.257172120440355
    x1202  r1173  -0.034599284614320235
    x1203  OBJ  -0.16453788010486653
    x1203  r505  2.8677475052145245e-05
    x1203  r506  0.16533216103453469
    x1203  r799  -5.075604823339689e-05
    x1204  OBJ  4.207879625937513
    x1204  r40  0.0070751716098832644
    x1204  r41  3.372544962241117
    x1204  r390  60.88856146455444
    x1204  r391  0.9009353798885134
    x1205  OBJ  0.11724481483489964
    x1205  r478  140.4695809903482
    x1205  r727  -0.0006388809482749171
    x1205  r903  1.7510305235443096e-06
    x1206  OBJ  41.572562698565235
    x1206  r467  49.020313796245716
    x1206  r529  -5.261334486669189
    x1206  r617  -19.873139027042683
    x1206  r819  4.066695118866318
    x1206  r989  14.976209638933739
    x1207  OBJ  41.46257633477857
    x1208  OBJ  38.03576267582608
    x1208  r183  7.018668181493411
    x1208  r1138  -0.0004321847138952223
    x1209  OBJ  -0.17650632395484425
    x1209  r1049  0.00919703538058164
    x1210  OBJ  -1.7894835277604733
    x1210  r89  0.3192443124202112
    x1210  r129  1.0170496364058386
    x1210  r570  0.3321915171839128
    x1210  r571  0.006490259951210907
    x1210  r783  0.4210430112848247
    x1210  r958  4.645641311658739
    x1211  OBJ  -0.040029578304248636
    x1211  r49  1.4403362932303083e-05
    x1211  r108  -0.2674438724529229
    x1211  r252  -0.011412652967815547
    x1211  r299  3.421703390272004
    x1211  r695  0.0001062849089997111
    x1211  r696  0.012200778670383088
    x1211  r755  -30.009895767499806
    x1211  r756  -4.10369883257145e-06
    x1211  r875  -0.0003151972618846978
    x1211  r876  -0.6266344684255502
    x1212  OBJ  361.6139789028231
    x1212  r283  5.253676234921567e-06
    x1212  r345  -0.00038952586660746574
    x1212  r346  -1.2564347695052396
    x1212  r709  0.31472346256007816
    x1212  r965  0.08994070981819206
    x1212  r966  0.008629736282201594
    x1212  r1148  -5.142138924516031e-06
    x1213  OBJ  -730.4827798389922
    x1213  r148  -0.000290706175534929
    x1213  r217  4.461529264777822e-05
    x1213  r247  9.256365583152233
    x1213  r260  -0.0001054828461618251
    x1213  r261  -0.4356776522377862
    x1213  r519  3.8422488022232053
    x1213  r1078  0.017907418585649492
    x1214  OBJ  -0.048972571378295186
    x1214  r223  -8.458783700125828
    x1214  r422  -90804.42102957655
    x1214  r479  -0.6582190758404884
    x1214  r892  111292.25052360946
    x1214  r1048  0.03844743248245171
    x1215  OBJ  -0.005180130916427956
    x1215  r35  -69.87996795892687
    x1215  r36  -20.296582838722237
    x1215  r213  168.5068713845089
    x1215  r782  5121.882034732489
    x1215  r827  -47.01333613848802
    x1215  r914  0.0028578526589407784
    x1215  r963  0.07052165021939054
    x1216  OBJ  0.0011868035490120402
    x1216  r180  0.057291740513917715
    x1216  r181  0.0028015704777607634
    x1216  r550  0.02216129650526089
    x1216  r551  1579.3671825588183
    x1216  r573  937565.5157056554
    x1216  r610  25.229296751671008
    x1216  r611  7.1858724408808525
    x1216  r722  -125239.33958751342
    x1216  r852  0.36232265252959506
    x1217  OBJ  23.814540786511074
    x1217  r397  1.6012352039530765e-05
    x1217  r1040  0.5217900594137417
    x1217  r1041  0.005271639394311706
    x1218  OBJ  33.641095919692596
    x1218  r24  0.0006690419765102206
    x1218  r128  -0.002661107204340776
    x1218  r335  -0.0013479259669242787
    x1218  r336  -9.374565132104145e-06
    x1218  r922  0.26737094867101824
    x1219  OBJ  0.9532639364579361
    x1219  r238  10.234873796106465
    x1219  r718  -0.014429240724130253
    x1219  r737  26284.260272254724
    x1219  r972  -0.03717188157537144
    x1219  r1063  814.2774500829056
    x1219  r1089  -0.02859176269234726
    x1220  OBJ  2.1447119989437287
    x1220  r424  9.403650558216394e-05
    x1220  r624  0.865868456336998
    x1220  r723  -0.02242498020370682
    x1220  r735  0.007004169035283368
    x1220  r736  104.59221428307377
    x1220  r1183  41.16902815293757
    x1221  OBJ  -22.12026201036828
    x1221  r939  -0.00015748294997968993
    x1221  r1072  -0.03850050080939777
    x1221  r1129  0.3011039096992102
    x1222  OBJ  -0.12610083277739306
    x1222  r167  0.0915504013998188
    x1222  r484  0.0015973987106164547
    x1223  OBJ  0.0003491184176998892
    x1223  r300  -0.4607558401656906
    x1223  r301  -0.8229678150476379
    x1223  r477  -6.672985801055163
    x1223  r484  -0.04050396742856225
    x1223  r502  646.0654644587378
    x1223  r687  -2.7508790139833823
    x1223  r844  3460.3754363187063
    x1223  r1147  31015.878240365113
    x1224  OBJ  30145.512747079327
    x1224  r633  3.6280360816801525e-05
    x1224  r697  -9.99399461695521e-05
    x1224  r779  -1.2040526405461767
    x1224  r868  0.009253685908542466
    x1224  r984  0.000152686366144574
    x1224  r1025  6.558728017870368e-07
    x1224  r1026  1.7511844359855084e-05
    x1225  OBJ  -29.33212665069764
    x1225  r129  0.00945470149583902
    x1225  r590  0.00043013753457012604
    x1225  r591  0.00344663508735497
    x1225  r729  -0.7676230000602989
    x1225  r944  -0.00021435618191269074
    x1226  OBJ  4.961650107361519
    x1226  r54  7.0394391493623605
    x1226  r148  0.0014921222642607047
    x1226  r902  -0.13674321633070308
    x1226  r1117  0.009542058578481435
    x1226  r1138  -0.22096289544130235
    x1226  r1164  5620.776359915823
    x1227  OBJ  -1004.7831960168245
    x1227  r224  5.224980993630162
    x1227  r500  1.5279617074543943
    x1227  r501  0.00015883857528022183
    x1227  r1067  0.5147363378764018
    x1228  OBJ  6.93311149496046e-05
    x1228  r560  518456.28111475706
    x1228  r561  173595.37567609045
    x1228  r1019  -1700.0574806636055
    x1229  OBJ  -0.2131957746696728
    x1229  r285  1.1792203821251372
    x1229  r286  0.0010866226430671553
    x1229  r639  2231.869293725771
    x1229  r734  -618.3407315669664
    x1229  r1140  1.531337551135609
    x1229  r1141  420.73237292377155
    x1230  OBJ  0.0432544044128177
    x1230  r140  -20971.600699939037
    x1230  r141  -49.5564233825729
    x1230  r185  9264.112374814486
    x1230  r186  0.03943884649818714
    x1230  r810  0.13381822229942814
    x1230  r811  0.9588836547480385
    x1231  OBJ  0.0062837995908363855
    x1231  r104  293436.9300878006
    x1231  r1163  -23.1369855525676
    x1232  OBJ  -5.6259607876657505
    x1232  r154  -1.1230705933453606
    x1232  r429  -3.2336318602686616
    x1232  r452  3.0482345569558605e-06
    x1232  r1015  -2.0601218730579555e-05
    x1232  r1016  -0.0013489159371640122
    x1232  r1154  -0.00122955359922931
    x1233  OBJ  0.0023032943616574193
    x1233  r333  34.40217992674715
    x1233  r410  2129.87073363906
    x1233  r411  2733.929128023529
    x1233  r1002  7.19883416067907
    x1234  OBJ  0.1197337302516369
    x1234  r279  2.8764449848581455
    x1234  r330  -3.7779396872459543
    x1234  r331  -3.567911390313412e-05
    x1234  r589  -0.41226928997611045
    x1235  OBJ  1.6286580316676313
    x1235  r368  -0.7616479294577069
    x1235  r1034  2.7184071599289943e-06
    x1236  OBJ  -4.327131516766559
    x1236  r233  29.236183194881406
    x1236  r322  -72.84001473605241
    x1236  r630  3.27119934819207
    x1236  r631  1317.2231885604554
    x1236  r828  0.11059822492421557
    x1236  r978  -44.40742186490623
    x1237  OBJ  14451.626590124899
    x1237  r0  -1.6366402551225727e-05
    x1237  r1  -1.241535673988359e-07
    x1237  r38  -0.06898950399966292
    x1237  r457  5.556235077237823
    x1237  r463  -0.0003198188758341569
    x1238  OBJ  -0.019956192657479593
    x1238  r48  118495.09581779086
    x1238  r134  -173.70880025738725
    x1238  r613  11711.05518123282
    x1238  r888  -0.316506965068823
    x1239  OBJ  1.605226432089715
    x1239  r258  -0.07898912138227832
    x1239  r489  5.3665351746273515
    x1240  OBJ  -102.18135714650222
    x1240  r87  -4.425115357100603e-05
    x1240  r403  0.0009083700118373796
    x1240  r730  0.0007476075611257851
    x1240  r731  3.0154596104106312e-05
    x1241  OBJ  191.76318303798195
    x1241  r357  15.051101652884265
    x1242  OBJ  -0.004420357925772982
    x1242  r212  0.005873592496673321
    x1242  r1109  0.013076856151198232
    x1243  OBJ  97.1051223710941
    x1243  r42  0.0005036769383414141
    x1243  r59  790.6434247365939
    x1243  r409  15.853475838325476
    x1243  r513  2.378561323460964
    x1244  OBJ  0.009608754528808036
    x1244  r358  578.7319709179629
    x1244  r542  16.092691429397245
    x1244  r622  494.3284370341761
    x1244  r1175  -0.004126597401044095
    x1244  r1176  -1.8623284075607796
    x1245  OBJ  -0.010882044454797762
    x1245  r1018  -66441.42347678178
    x1245  r1069  245993.42417350964
    x1246  OBJ  -135.52577314152015
    x1246  r739  5.822306160207889
    x1246  r745  0.5251777553280564
    x1246  r746  0.0007812442681895963
    x1246  r1100  0.005386138937971104
    x1246  r1101  8.758443616838408e-06
    x1247  OBJ  25.64420196761209
    x1247  r329  -0.04565309323136192
    x1247  r679  -8.264815919849768
    x1247  r1082  -24.640933208424823
    x1248  OBJ  -0.023029100537296565
    x1248  r672  0.1786578770826088
    x1248  r1142  0.27788134668936054
    x1249  OBJ  -0.012272883412737995
    x1249  r113  -2.8579972559401985
    x1249  r379  8610.6620625228
    x1249  r460  283.36016372386854
    x1249  r461  2.5359525471439937
    x1249  r520  0.702914533711543
    x1249  r521  1.6169931218459983
    x1250  OBJ  -2643.259305795288
    x1250  r697  0.00036729778591871237
    x1250  r779  -4.051556334175182
    x1250  r848  -8.714062794766885e-06
    x1250  r940  0.0003594071054447845
    x1250  r941  0.2986460197620657
    x1250  r1022  1.3677848759902422e-06
    x1251  OBJ  -0.19920316180223394
    x1251  r250  -0.00032728102728231303
    x1251  r251  -0.005280905917341483
    x1251  r278  -0.0004808631100733567
    x1251  r932  -13.296319803709405
    x1252  OBJ  -2.423991536414919
    x1252  r420  1.962271034698008e-05
    x1252  r421  2.4138912886156566e-06
    x1252  r657  0.25461621713668886
    x1253  OBJ  0.01853847222509401
    x1253  r97  -59159.542808873266
    x1253  r829  -70.6983914396901
    x1254  OBJ  -0.00021694659808226119
    x1254  r69  3.0517419629989915
    x1254  r735  0.5652760419075298
    x1254  r736  8441.183044904654
    x1254  r757  -8.833452084406446
    x1255  OBJ  0.0047912048282395476
    x1255  r118  -0.005030819037777474
    x1255  r348  0.011334326351709369
    x1255  r610  1.569687715792742
    x1255  r611  0.44708244580607276
    x1255  r830  -542.0770698913495
    x1255  r831  -164.24966831641694
    x1255  r838  3.8570896523467253
    x1255  r1179  -0.18386573702663264
    x1255  r1192  0.0006373928968836137
    x1256  OBJ  -0.3128396277835803
    x1256  r159  -0.5119806295513558
    x1256  r285  -0.0035189598712809657
    x1256  r286  -3.2426351631469728e-06
    x1257  OBJ  0.0049505786510789535
    x1257  r223  1.549774821224749
    x1257  r403  -1.3084831762901457
    x1257  r437  18.62747979959636
    x1257  r948  0.0028420622100063467
    x1257  r1119  0.03458742690689176
    x1258  OBJ  -0.021283279804680182
    x1258  r933  0.310765169222847
    x1258  r944  -1.913466313872108
    x1259  OBJ  5.114784574899773
    x1259  r243  -149.5870142141037
    x1259  r1020  461.8183887660273
    x1259  r1021  0.0007003308661206732
    x1259  r1198  -369.5688797606723
    x1260  OBJ  0.00038543700147742363
    x1260  r174  -0.5081561585385098
    x1260  r497  796.6184691779542
    x1260  r838  1227.0035305376305
    x1260  r1044  10234.762713365464
    x1261  OBJ  -0.01431008662808704
    x1261  r305  -56.447001948537824
    x1261  r306  -0.024088973261356256
    x1261  r603  0.006237554951145148
    x1261  r820  8310.321235612406
    x1261  r821  0.063372114646988
    x1261  r1132  -44.34403203337436
    x1262  OBJ  146.7668139193606
    x1262  r115  2.8436135695079736
    x1262  r116  0.020182108778581485
    x1262  r1099  0.2538094312671176
    x1263  OBJ  -0.3360952607502816
    x1263  r457  33.79553685700709
    x1263  r627  49.57552190778508
    x1263  r757  -0.6250620364664448
    x1264  OBJ  -6.799412305151339
    x1264  r35  -0.04048317095518067
    x1264  r36  -0.011758305804446405
    x1264  r173  -12.767334906893417
    x1264  r204  8.692872781375399e-05
    x1264  r878  -0.06415099173534147
    x1265  OBJ  -0.0910382295769873
    x1266  OBJ  55.2796344265936
    x1266  r337  -1.656596128937714e-05
    x1266  r428  11.904439091050763
    x1266  r440  -0.0017237904656941497
    x1266  r441  -0.0002618302741554391
    x1266  r550  1.2781323586095093e-07
    x1266  r551  0.009108854717390523
    x1266  r1038  -14.619273700345953
    x1266  r1040  -0.024472328892237768
    x1266  r1041  -0.00024724367728243393
    x1267  OBJ  -0.06544507669957886
    x1267  r124  -0.0003191975671630537
    x1267  r325  99.56461404857507
    x1267  r326  0.6515962456286057
    x1267  r425  -0.012134163510357752
    x1267  r426  -182.63706768152935
    x1267  r460  0.14610188047690623
    x1267  r461  0.001307549484263403
    x1267  r489  -2.0447933294320704
    x1267  r922  1.665616498525686
    x1267  r947  -7.3677933462003065
    x1267  r1058  -1.1190121038931487e-07
    x1268  OBJ  1.802393412142924
    x1268  r214  0.028830013011828304
    x1268  r439  -0.043598244965405826
    x1268  r1109  -0.0003533586632104657
    x1268  r1163  0.038319092390804395
    x1269  OBJ  0.004795690057089256
    x1269  r512  0.03474341691389018
    x1269  r567  0.6998875298488201
    x1269  r740  0.03267045857991186
    x1269  r741  10.239001673192673
    x1269  r854  -48155.059206158934
    x1269  r1185  -2.4472246972394274
    x1269  r1186  -0.059716501959005054
    x1270  OBJ  938.407546340347
    x1270  r63  -0.0001801202450067372
    x1270  r552  18.018450365972456
    x1270  r557  6.111417479770036e-05
    x1271  OBJ  8.640145098946897e-05
    x1271  r114  30076.417055357357
    x1271  r593  6.10138115265376
    x1271  r728  -0.8545744839604466
    x1272  OBJ  -7.957525342465234e-05
    x1272  r259  -367.03437677472743
    x1272  r498  0.12916004684268503
    x1272  r894  10.112921627347907
    x1272  r925  -262.34656276192953
    x1272  r926  -1.0411042926882537
    x1273  OBJ  -0.7535252198772256
    x1273  r167  1.4059550582185145
    x1273  r238  -5.807706894599349
    x1273  r345  -3.8404849500514677
    x1273  r346  -12387.67239010816
    x1273  r1128  -0.4231843390822095
    x1274  OBJ  -0.024062346938343346
    x1274  r2  -30853.596968710342
    x1274  r65  -586.7846131734609
    x1274  r66  -0.02665793727561184
    x1274  r1060  0.0400839780628096
    x1274  r1061  21.40813990910156
    x1275  OBJ  3.144201208875042
    x1275  r244  -0.007632641276488575
    x1275  r392  -39.985457827094294
    x1275  r567  0.1633357721357355
    x1275  r864  53.35880953064141
    x1275  r1103  2872.285038905968
    x1276  OBJ  -3.986177878469427
    x1276  r474  0.3651257295056573
    x1276  r509  509.8309960343286
    x1276  r512  0.0007971685004884984
    x1277  OBJ  -0.05163285664019743
    x1277  r219  0.0003430716643514804
    x1277  r949  591.9083372847955
    x1278  OBJ  -8.996673783930651
    x1278  r320  -2448.6020284400415
    x1278  r321  -0.0014744771215607535
    x1279  OBJ  0.11370351266798494
    x1279  r277  -0.017775639329102547
    x1279  r824  107436.8285898365
    x1279  r1087  -32.58146196190782
    x1279  r1098  -0.04616298780813433
    x1279  r1107  0.10164535294044455
    x1280  OBJ  -1.7710828957302957e-06
    x1280  r708  0.3882327396177582
    x1281  OBJ  -0.04194744706864553
    x1281  r127  -5.867823478477745
    x1281  r159  -902.9836589568984
    x1281  r712  3100.5547965956594
    x1281  r753  -18795.291926032765
    x1281  r1189  -4.586867167032473
    x1282  OBJ  -0.09435373155476044
    x1282  r53  41.4434002493744
    x1282  r165  -7.707038470721565e-05
    x1282  r166  -0.012075656620102557
    x1282  r393  1.888518846886105
    x1282  r585  0.00033853135609396274
    x1282  r586  1.9650762700330735e-05
    x1282  r625  -0.0007268934632930743
    x1282  r626  -139.63580477152811
    x1283  OBJ  0.15464865747191237
    x1283  r348  -0.00026497394745880466
    x1283  r842  0.11825940825710525
    x1284  OBJ  0.0018228257950026056
    x1284  r160  -3711.51351167541
    x1284  r161  -244496.19524624792
    x1284  r238  133.09627851357394
    x1284  r910  0.29978477629180333
    x1284  r911  216.65972819377822
    x1284  r1147  -13274.785921807306
    x1285  OBJ  109.61460293886164
    x1285  r485  -9.122290576638209
    x1285  r486  -0.00017654445243328528
    x1285  r593  -0.001311979002493154
    x1285  r920  0.017136596916438315
    x1285  r921  9.28945504571479
    x1285  r1082  0.01073671422588702
    x1285  r1122  4.99135361623602e-05
    x1286  OBJ  -0.053920091917369836
    x1286  r88  -582.2561581944684
    x1286  r959  -0.05942464433514483
    x1286  r1083  6.795300814591189
    x1287  OBJ  -0.03431739524820592
    x1287  r524  -3542.4309280740176
    x1287  r583  0.28177503178083196
    x1287  r635  -0.0035652608133928303
    x1287  r636  -1431.0862725608742
    x1287  r847  4.787829987791296
    x1287  r1023  0.01255978114492805
    x1288  OBJ  38.10593566417299
    x1288  r228  -0.0649506248338478
    x1288  r337  0.00040146362420704317
    x1288  r397  3.7166362458693114e-06
    x1288  r702  -0.14056610421944107
    x1288  r1030  3.7147054505493655e-06
    x1288  r1031  0.8038223829311816
    x1289  OBJ  0.09504420517656685
    x1289  r292  0.08618941118787733
    x1289  r575  -0.15889983028147986
    x1289  r576  -0.14861907516446718
    x1289  r1084  10401.160286879376
    x1289  r1093  -2.6328043915375496
    x1290  OBJ  -1164.5264334587835
    x1290  r242  -0.3381271665410016
    x1290  r584  4.953102884271323e-06
    x1290  r704  2.857793707305648e-05
    x1290  r943  0.1144564804072228
    x1290  r1113  0.0018779235914009348
    x1291  OBJ  0.7324398861271719
    x1291  r243  -27.1366109054118
    x1291  r339  0.07287359452024197
    x1291  r869  -509.88797818965725
    x1292  OBJ  12.66602177212385
    x1292  r33  -0.0005705273005396803
    x1292  r84  1.3834013494636812
    x1292  r128  -0.0008002732465705692
    x1292  r310  0.00019145355713311296
    x1292  r311  0.051146754882899485
    x1292  r437  -0.007560113782781677
    x1292  r463  0.0005061262901016964
    x1293  OBJ  0.002456209720224698
    x1293  r302  2626.7586789624424
    x1293  r308  -24.188766602960516
    x1293  r545  -0.014675578643982124
    x1293  r546  -133.86376506477714
    x1293  r784  0.02974281929533949
    x1293  r1027  -355.23452727993873
    x1294  OBJ  0.022940729719133055
    x1294  r217  0.030289805182929303
    x1294  r329  -75.3618390696271
    x1294  r507  -0.023738067037884357
    x1294  r1192  -0.028463353502929865
    x1295  OBJ  -1.471128466106287
    x1295  r37  0.00014045083208663202
    x1295  r367  -3.7292688772182734
    x1295  r717  -0.16856473773728586
    x1296  OBJ  -0.002312832883326736
    x1296  r82  345663.89524658653
    x1297  OBJ  -0.002644340028678582
    x1297  r154  16061.337941616046
    x1297  r372  0.5070725778681384
    x1297  r508  3070.813772453552
    x1297  r772  0.10649762861249804
    x1297  r825  62003.93560144441
    x1297  r826  36.92702075550122
    x1297  r1149  -148892.3911868778
    x1297  r1165  0.02806807231019941
    x1297  r1166  0.06701310184320368
    x1298  OBJ  0.9438454981075305
    x1298  r15  -836.074858781801
    x1298  r16  -161.17685092040918
    x1298  r85  0.00012559086995464036
    x1298  r86  810.4873534219224
    x1298  r248  -5.482392969169288
    x1298  r330  383.3291030400638
    x1298  r331  0.0036201855672616167
    x1298  r678  -324.86242674054944
    x1298  r705  19736.28411588048
    x1298  r706  0.011977727094935373
    x1298  r964  -11691.224762617016
    x1298  r1060  0.0043119536598447
    x1298  r1061  2.3029377744611894
    x1298  r1092  1872.4961995586887
    x1299  OBJ  -4.093864582130106
    x1299  r144  -0.016823454358020747
    x1299  r442  0.6966196736267974
    x1299  r654  2137.9459919871965
    x1300  OBJ  0.005381518052249983
    x1300  r278  0.4531620496700853
    x1300  r283  -0.27404217609927517
    x1300  r560  888020.5595146392
    x1300  r561  297337.0528091149
    x1300  r780  168.08964107868144
    x1300  r781  8648.064276501456
    x1300  r1180  0.24496762681766263
    x1300  r1181  2437.3700468602533
    x1301  OBJ  -10.467553676202606
    x1301  r263  -0.008293793841597513
    x1301  r334  -0.00023730642218933816
    x1301  r555  150.50280328804888
    x1301  r556  0.015874593364413856
    x1301  r809  -101.59880358119594
    x1301  r1142  12.176142222228526
    x1302  OBJ  -0.04539315442238593
    x1302  r360  -0.0002914578362773696
    x1302  r361  -560.8939182865334
    x1302  r619  -5.339073183780936
    x1302  r697  0.07168849024301807
    x1302  r699  -0.3860596474624365
    x1303  OBJ  -0.35765027732151206
    x1303  r449  0.0006705350631746551
    x1303  r639  -345.125243234909
    x1303  r789  -264.0584486758885
    x1304  OBJ  0.22840143497475585
    x1304  r35  -109.33867197029612
    x1304  r36  -31.757333008872664
    x1304  r70  -2.4085255877352276
    x1304  r71  -0.15989146800901627
    x1304  r173  -2326.8601570341348
    x1304  r230  0.47502160553213274
    x1304  r231  41956.22696144088
    x1304  r244  0.028322968454523624
    x1304  r854  -3043.536014701054
    x1304  r1098  -0.040388021964564536
    x1305  OBJ  5.8655163945064235
    x1305  r15  80.27446121744984
    x1305  r16  15.475151216977023
    x1305  r540  0.01603495201879525
    x1305  r541  0.02725191389285142
    x1305  r648  0.010599802545350458
    x1305  r712  -0.6471962585495059
    x1305  r1062  -6.878120487378582
    x1306  OBJ  0.06085980187461727
    x1306  r275  -0.02615518128632643
    x1306  r276  -0.007978524975029109
    x1306  r1038  4387.2171248342975
    x1307  OBJ  -0.0063330948576008775
    x1307  r619  21681.32269873601
    x1307  r990  -0.013591483585351028
    x1307  r991  -0.34132555105308693
    x1307  r1020  204294.4051521533
    x1307  r1021  0.30980506879794517
    x1307  r1165  0.009665146988189701
    x1307  r1166  0.023075737880785308
    x1307  r1184  226.41127963057926
    x1308  OBJ  59.52598943097131
    x1308  r358  0.5259735470689114
    x1308  r504  -2.84382310898602e-05
    x1308  r1035  6.523032006507798e-07
    x1308  r1036  0.20946532986156777
    x1309  OBJ  0.0007895879770229451
    x1309  r50  -0.661420037020177
    x1309  r51  -160510.39216100363
    x1309  r242  -315.10042711649527
    x1309  r375  33.43035432979654
    x1309  r376  0.26928164561784024
    x1309  r678  -429.60692749983093
    x1309  r918  22154.95064261279
    x1310  OBJ  0.1628781513663719
    x1310  r132  0.0021192630292740477
    x1310  r498  0.0020410522580414374
    x1310  r549  -8.138017142072508
    x1311  OBJ  -18.626825852138875
    x1311  r162  0.0008673804435657991
    x1311  r237  -1.018313911471416
    x1312  OBJ  8.841255957441001
    x1312  r349  0.00013865314925137211
    x1312  r394  2593.5489267210514
    x1312  r400  0.03947668613488103
    x1312  r401  1.1115715302771116
    x1312  r433  93.13545731055264
    x1312  r613  -278.20531136890384
    x1312  r727  -0.07999238033296674
    x1313  OBJ  1.103916728387673
    x1313  r68  6826.932630177335
    x1313  r392  76.82227285468682
    x1313  r395  -0.00040974976816015327
    x1313  r396  -0.2583363708415733
    x1313  r943  38.83290879386367
    x1313  r998  13.79935818736529
    x1313  r1023  0.02706678163707605
    x1313  r1182  -0.03273531340487098
    x1314  OBJ  0.00012377423229085693
    x1314  r410  3387.9121617996884
    x1314  r411  4348.767085269963
    x1314  r480  -0.6707818039271266
    x1314  r481  -996093.6088491583
    x1314  r557  0.9266088041385668
    x1314  r830  2795.0603482845063
    x1314  r831  846.9048309188703
    x1314  r944  6.195906066532976
    x1314  r982  -0.009733398523432326
    x1315  OBJ  0.06035195611566216
    x1315  r400  -0.5537555200649454
    x1315  r401  -15.592465607038582
    x1315  r645  0.001159799308421472
    x1315  r646  0.3395197998724087
    x1315  r715  -19.657360985421686
    x1315  r716  -13.628719824879262
    x1316  OBJ  -0.00015621109534964738
    x1316  r474  -27.515155925113948
    x1316  r969  1113718.5045994355
    x1316  r1014  -116584.32318483572
    x1317  OBJ  0.0003466709757312732
    x1317  r267  0.2832425907109267
    x1317  r474  10.627507520673493
    x1317  r675  366192.80708558345
    x1317  r676  0.08713001397778344
    x1317  r980  10.160583180914275
    x1317  r981  0.013229200175358394
    x1318  OBJ  -38.257397981563145
    x1318  r153  -0.0002749398260165865
    x1319  OBJ  6.372890188039778
    x1319  r134  0.2331652244062725
    x1319  r1133  17.9209547959766
    x1320  OBJ  -81.95927369727542
    x1320  r34  1.0200077151278602e-07
    x1320  r392  0.006712822050627981
    x1320  r704  -6.839445048158086e-06
    x1320  r710  1.5009608018810783
    x1320  r711  0.022593687545928314
    x1320  r794  0.00013119153075798299
    x1321  OBJ  -0.3822393385765531
    x1321  r187  0.0014480102992467032
    x1321  r734  903.628743954571
    x1321  r828  -0.001726054328744787
    x1321  r959  -7.924096438608756e-06
    x1321  r1094  0.0010156600679218277
    x1321  r1135  0.0924558294848749
    x1321  r1136  0.5439789023553572
    x1321  r1155  0.018311431772301764
    x1321  r1156  0.011766038609076783
    x1322  OBJ  13.95182305454427
    x1322  r50  -7.200834955320369e-06
    x1322  r51  -1.747465722042946
    x1322  r263  -3.853353120554782e-05
    x1322  r357  0.7620880091262976
    x1322  r399  0.4599858698713899
    x1322  r544  0.00013736100944899054
    x1322  r872  -0.030215544771528945
    x1322  r1078  0.00479516124989521
    x1323  OBJ  9.090362087599654e-05
    x1323  r23  -2813.0398392852085
    x1323  r355  -2156.842995447015
    x1323  r356  -431.18259292105853
    x1323  r390  539317.8963283284
    x1323  r391  7979.9975910432995
    x1323  r515  43471.33741493533
    x1323  r516  2.057455947516216
    x1323  r898  -299857.0580075459
    x1323  r1193  -34338.14022723489
    x1324  OBJ  83.91535788637688
    x1324  r688  -0.31078204489166966
    x1324  r805  -0.015002668426821368
    x1324  r806  -0.00164749610687819
    x1324  r979  -90.53299305088193
    x1324  r1125  16.30022347488128
    x1324  r1126  0.03635863885083725
    x1325  OBJ  0.17378138248453615
    x1325  r622  -10.304664154674386
    x1326  OBJ  0.06845925831498823
    x1326  r59  -72675.01385208621
    x1326  r647  1059.5808140645177
    x1327  OBJ  68.10547519757264
    x1327  r62  -2.574653653959996
    x1327  r128  0.0010316304245126672
    x1327  r525  0.019575072330782657
    x1327  r526  0.1703806950769384
    x1327  r914  3.3461490167092694e-06
    x1327  r1034  2.7602977685288527e-06
    x1328  OBJ  0.15752849568018945
    x1328  r364  694.6941000421881
    x1328  r575  27.369339302398057
    x1328  r576  25.59855405622162
    x1328  r924  87378.94720148643
    x1329  OBJ  2.54087273427516
    x1329  r252  0.010416711592636576
    x1329  r340  148.97258084690768
    x1329  r341  0.06038934608004848
    x1329  r615  -0.00034467103078202684
    x1329  r616  -7.643116434865643
    x1330  OBJ  -20.78155111115474
    x1330  r527  0.0014120206132984313
    x1330  r677  -4.923420731693721e-06
    x1331  OBJ  78.02273136958442
    x1331  r24  -0.00167514067763928
    x1331  r384  -0.18251678035034308
    x1331  r409  22.83402570176702
    x1331  r560  -353.79231034182885
    x1331  r561  -118.4607290185526
    x1331  r644  -26.93272627288192
    x1331  r674  -6.567522488134121e-05
    x1331  r982  7.558131168314363e-06
    x1331  r1169  556.5233833375416
    x1332  OBJ  0.01294529873280413
    x1332  r110  8.683170271906961
    x1332  r111  7.079880188240433
    x1332  r268  0.6225492806543611
    x1332  r619  3259.1733991689766
    x1333  OBJ  7.739738716883725e-06
    x1333  r248  5.572858338685513
    x1333  r868  -41.26552872257349
    x1333  r1159  0.08001643128066752
    x1334  OBJ  -0.0011829812713635265
    x1334  r30  -34.23692158520812
    x1334  r31  -2374.889762193132
    x1334  r1105  2153.0309128182353
    x1334  r1106  32264.603998994095
    x1335  OBJ  0.0032118174815719608
    x1335  r368  680.080280339298
    x1335  r1132  -2.353688237358274
    x1336  OBJ  7.195687146294832
    x1336  r867  20.509987132988876
    x1337  OBJ  -85.87493056429331
    x1337  r879  0.13409729982344865
    x1338  OBJ  -0.0038350061442668534
    x1338  r347  0.0011710320036848838
    x1338  r438  0.043922587244179266
    x1338  r628  33861.54457226431
    x1339  OBJ  -0.0005454008963592429
    x1339  r137  -0.004663042483295198
    x1339  r817  0.5195300020806949
    x1339  r965  791.1803681400596
    x1339  r966  75.91309811213955
    x1339  r1052  -808709.0111862572
    x1340  OBJ  -65.72451842002972
    x1340  r167  0.0001634255690744544
    x1340  r282  1.8671327286213268e-06
    x1340  r820  0.12363540388166588
    x1340  r821  9.428079573675124e-07
    x1341  OBJ  -2.359615766359264
    x1341  r247  -14.709054965200542
    x1341  r520  2.6506715778138614e-05
    x1341  r521  6.097637058329199e-05
    x1341  r723  -0.015182814533123711
    x1342  OBJ  8304.434044235382
    x1342  r37  1.1471289620548115e-06
    x1342  r450  -0.003493142269985941
    x1342  r451  -0.01886130677489932
    x1343  OBJ  0.7221591053768401
    x1343  r90  153.24780375101403
    x1343  r91  0.39575691489230014
    x1343  r653  490.7701052246093
    x1343  r1037  2676.420905119886
    x1344  OBJ  -0.027837869803278757
    x1344  r633  -0.006633905227139552
    x1344  r877  -674.3119211678232
    x1344  r957  0.050047920061641826
    x1344  r1118  50.87638957548957
    x1345  OBJ  -0.06739309273873274
    x1345  r52  -3684820.28588142
    x1345  r364  73.33366755908312
    x1345  r393  -323.8616740445143
    x1345  r599  2427242.1742573692
    x1345  r622  6155.7009053789025
    x1345  r659  -2.6449326958734836
    x1345  r669  0.20265470064169142
    x1345  r698  -2.0544347717377476
    x1345  r874  -5.807234591016505
    x1345  r947  14218.595019909284
    x1345  r1052  -3165369.157241593
    x1345  r1103  -34226.87895107939
    x1345  r1134  -7.933551663999196
    x1346  OBJ  -0.05811637496349286
    x1346  r23  3.561839707710837
    x1346  r129  0.14759016444863876
    x1346  r162  0.03350498986718247
    x1346  r379  18.652464105792035
    x1346  r1014  -24.229028358464937
    x1347  OBJ  2.3446521382399923
    x1347  r94  -8.87903420319068e-05
    x1347  r110  0.0007041774771812456
    x1347  r111  0.000574155753438397
    x1347  r492  0.001907210231633367
    x1347  r694  -4.459573454389242
    x1347  r787  -0.02323116068962015
    x1348  OBJ  0.01335843636580199
    x1348  r242  244.79885152304806
    x1348  r548  -27.315828885604997
    x1348  r1025  -0.0025662128094156252
    x1348  r1026  -0.06851804067848008
    x1348  r1187  -0.010449511021821737
    x1349  OBJ  -0.00013141288932430343
    x1349  r29  -214088.26753755717
    x1349  r164  -538.8172758851006
    x1349  r198  230.34913432022
    x1349  r552  169451.12215796925
    x1349  r963  0.7617150492993653
    x1350  OBJ  -78.94051142487426
    x1350  r12  -0.036271495519649734
    x1350  r73  -0.00015062757134844118
    x1350  r143  -0.025216396136458742
    x1350  r343  -0.42075436298007196
    x1350  r959  5.307813933706665e-07
    x1350  r1127  -6.972730350996842e-08
    x1350  r1192  4.2877727183687015e-07
    x1351  OBJ  0.09746749478524122
    x1351  r392  -12.13337979372804
    x1351  r473  -0.0006898652908959756
    x1351  r655  0.01285460687803355
    x1351  r656  33.99573396064097
    x1351  r658  11.345139664560282
    x1352  OBJ  -2.1739316983349295
    x1352  r75  0.001040783847129428
    x1352  r76  202.0814985613773
    x1352  r345  -0.009852966415237419
    x1352  r346  -31.781225967586156
    x1352  r900  0.5134898411655873
    x1352  r901  1310.3428622958218
    x1352  r1117  0.0005477981891200792
    x1353  OBJ  -30.443948461823158
    x1353  r197  -0.5473548727467941
    x1353  r203  0.04990087690655885
    x1353  r998  -0.025765232735798935
    x1353  r1074  3.1208223316394273e-06
    x1354  OBJ  -4.318780711577379
    x1354  r674  -0.001734665902476066
    x1354  r807  0.07391531265639226
    x1355  OBJ  0.0012387880819804346
    x1355  r547  -18742.759687196554
    x1355  r902  -0.0629124032280846
    x1355  r1040  133.37905445694688
    x1355  r1041  1.347527161865227
    x1355  r1060  0.0009942622268557268
    x1355  r1061  0.5310177753692326
    x1355  r1135  -10.041678519839497
    x1355  r1136  -59.08184794254942
    x1355  r1157  5.067296432909541
    x1356  OBJ  0.3777527677127456
    x1356  r430  -0.00022697796300239176
    x1356  r431  -436.64656992025533
    x1356  r528  0.00022669111963326524
    x1356  r582  0.0038671312399098465
    x1356  r787  0.12960171908518667
    x1356  r855  -1.351202292303022
    x1356  r856  -2.81867472542526e-05
    x1357  OBJ  -0.012187611435955942
    x1357  r5  13.133661916227135
    x1357  r6  0.48471544612554474
    x1357  r382  2188.0324612579607
    x1357  r523  -25309.337044606575
    x1357  r807  -22.128953256463355
    x1357  r919  305.94790195898014
    x1358  OBJ  12.530538118179173
    x1358  r297  8.327877707789312e-06
    x1358  r624  -4.5819497331321175
    x1358  r808  -0.0008888189302937457
    x1358  r1162  0.055315105283769074
    x1359  OBJ  0.7379525641513909
    x1359  r318  0.02201517302934811
    x1359  r573  -302.65967395086534
    x1359  r582  0.03363656011741502
    x1359  r799  0.000112270372958416
    x1360  OBJ  -0.011560302420182189
    x1360  r245  -17.954169862571728
    x1360  r246  -681.1317850054401
    x1360  r398  -0.22302982564359614
    x1360  r664  -485938.2859963822
    x1360  r869  1925490.4394903681
    x1361  OBJ  -0.008755908923602116
    x1361  r769  -50746.62426160004
    x1361  r819  -73.82187275739201
    x1361  r868  41.05505360166137
    x1361  r875  -0.037586411232901955
    x1361  r876  -74.72444615197684
    x1361  r1120  44792.72217625377
    x1361  r1121  320.69357560459076
    x1362  OBJ  2134.6039212240244
    x1362  r160  0.04949923925107309
    x1362  r161  3.26076562200308
    x1362  r390  8.829039127969839
    x1362  r391  0.13063855557564144
    x1363  OBJ  -0.006453066430321358
    x1363  r190  21978.679608870487
    x1363  r191  933.4914005792432
    x1363  r227  157123.63170321402
    x1363  r1094  -2.2826951091945693
    x1364  OBJ  -0.0009035313912947153
    x1364  r154  750.3119301220195
    x1364  r612  0.0003065553746887505
    x1364  r1092  545.5743738468078
    x1365  OBJ  0.014534763075560748
    x1365  r442  116.850885691045
    x1365  r574  0.03533649111218664
    x1365  r808  6.491730286413705
    x1365  r1105  -65953.83832970285
    x1365  r1106  -988362.2493539134
    x1366  OBJ  -1333.861801518229
    x1366  r683  3.921864693083326e-06
    x1366  r864  0.01164699435595001
    x1366  r1079  0.08590821719422641
    x1367  OBJ  0.6518266621646638
    x1367  r630  -0.08887264385601909
    x1367  r631  -35.78660144345007
    x1367  r998  -0.18603609504227303
    x1367  r1137  0.0019474687773004826
    x1368  OBJ  0.0016031207954918872
    x1368  r1052  165857.9177652402
    x1368  r1068  10543.940623710314
    x1369  OBJ  -2.08496274759502
    x1369  r903  0.0010742400558949104
    x1370  OBJ  -1.6505420170704133
    x1370  r204  -0.01260346389626908
    x1370  r225  62.839387834490886
    x1370  r226  10199.569465798895
    x1370  r732  -2.5763237217680635
    x1370  r952  -0.00043005568926457753
    x1370  r1192  -0.00013959242179180327
    x1371  OBJ  -0.0005399496678101373
    x1371  r233  -13854.590382454118
    x1371  r309  -2.760430835508375
    x1371  r357  155109.67063993367
    x1371  r438  15.242334822284292
    x1371  r503  0.10595475542377554
    x1371  r600  -1.134799684308203
    x1371  r601  -427.2824314891975
    x1371  r665  26.134495761194298
    x1371  r666  0.9631555418743634
    x1371  r809  -220547.07007275015
    x1372  OBJ  0.028936689019979252
    x1372  r9  -76951.92036807264
    x1372  r88  464.66642202231657
    x1372  r118  1.2066986770853396
    x1372  r249  0.18684088497286294
    x1372  r954  74166.1882705294
    x1372  r1018  534238.8300892671
    x1372  r1197  1.48598190384717
    x1373  OBJ  0.000842051381624766
    x1373  r408  1.602039697984174
    x1373  r659  -0.004671117775156192
    x1374  OBJ  0.003234023795463917
    x1374  r284  8909.958962411496
    x1375  OBJ  3.085287377471411
    x1375  r749  -0.45042368189354315
    x1375  r977  15.896801743805018
    x1376  OBJ  -627.0767834506273
    x1376  r459  0.00583686605288031
    x1376  r575  -0.00016492916586877173
    x1376  r576  -0.00015425831516398258
    x1376  r870  0.00047335562559394086
    x1376  r871  6.518875934116104e-06
    x1377  OBJ  0.0007467891150424017
    x1377  r67  1582.543642254673
    x1377  r449  1.5169101339808055
    x1377  r708  0.38293439240738614
    x1377  r710  2040672.367303842
    x1377  r711  30717.86671090288
    x1377  r1045  20216.722983075266
    x1377  r1046  9773.71785431138
    x1377  r1132  -16.434726398763914
    x1378  OBJ  0.0020054320313628053
    x1378  r393  336.783921685394
    x1378  r445  0.8427342595310078
    x1378  r446  68.87205928788612
    x1378  r465  172.476260160391
    x1378  r466  1.7334221978076196
    x1379  OBJ  -0.43507954831709056
    x1379  r22  0.0011496447507796366
    x1379  r982  1.1332472280293906e-05
    x1379  r1119  0.0002431441703324545
    x1380  OBJ  -15.514826339098772
    x1380  r253  0.01029261499762333
    x1381  OBJ  0.02693025120246401
    x1381  r65  -1306.7494941816233
    x1381  r66  -0.05936632500030036
    x1381  r364  3.0217684229809603
    x1381  r434  1.8429870582614878
    x1381  r657  1052.1416746564255
    x1381  r957  2.6178570602453255
    x1381  r1164  -130999.3040868932
    x1382  OBJ  6.912326247432128e-05
    x1382  r160  -60062.13934269093
    x1382  r161  -3956597.356157538
    x1382  r180  5.236699037001408
    x1382  r181  0.2560749820371993
    x1382  r779  -37645.03133577269
    x1382  r832  -8289.066695724065
    x1382  r973  602.7053557985085
    x1383  OBJ  -0.01856963618151863
    x1383  r168  3569.9517839546297
    x1383  r465  -1499.8609176215064
    x1383  r466  -15.073913394292667
    x1383  r555  -1107655.4943482112
    x1383  r556  -116.83224615413486
    x1383  r674  4.598945246020515
    x1384  OBJ  7.69973479588641
    x1384  r174  0.0002456872796357004
    x1384  r414  0.004271543847049835
    x1384  r662  -0.0001834412856371713
    x1384  r1050  -0.00010400408461730728
    x1384  r1051  -1.8011854202607832e-08
    x1385  OBJ  73.9079034522474
    x1385  r698  -7.678978581606084e-05
    x1385  r959  9.730789618593273e-07
    x1386  OBJ  -2.0797030216144208
    x1386  r529  -787.2243179142604
    x1386  r753  -111.95414664260744
    x1386  r1102  0.2884394564032378
    x1387  OBJ  -629.5127158452152
    x1387  r63  3.9934650741220154e-05
    x1387  r424  3.972925536589066e-05
    x1387  r745  0.6701303544390966
    x1387  r746  0.0009968729502230656
    x1387  r799  -1.1822436042166377e-05
    x1387  r1065  0.00026239822652963723
    x1387  r1066  0.008981920446487287
    x1388  OBJ  658.6704573068868
    x1388  r17  -3.0197350893688894e-06
    x1388  r674  9.169339633322059e-05
    x1389  OBJ  0.007672280499579578
    x1389  r495  21.497840160340946
    x1389  r496  10318.768422697862
    x1389  r999  11296.163194419918
    x1389  r1012  7.113439871934982
    x1390  OBJ  0.3348229977141863
    x1390  r15  1.1937771789261158
    x1390  r16  0.2301339938391524
    x1390  r83  -0.01848629898855026
    x1390  r129  0.0010026031494212476
    x1390  r420  6.49567476357932e-05
    x1390  r421  7.990666145616222e-06
    x1390  r509  1.2685766173965423
    x1390  r908  0.9740177915983121
    x1391  OBJ  -0.0036384502022921233
    x1391  r202  2.938809521967492
    x1391  r895  356.94296941003233
    x1391  r896  7.982852626740937e-05
    x1391  r928  -0.002729690507059008
    x1391  r999  -689.0890789690754
    x1391  r1183  -118.92052800869958
    x1392  OBJ  -6.047848748331434
    x1392  r777  2.1567588124246654e-06
    x1392  r960  -2.2490637544098807e-06
    x1392  r961  -7.270871900185099e-05
    x1392  r1038  -138.77485243479956
    x1392  r1105  1.72486469709838
    x1392  r1106  25.848247729466028
    x1393  OBJ  -1235.991720707061
    x1393  r37  1.954626779222125e-05
    x1393  r133  181.72826971301782
    x1394  OBJ  -0.2805103803928056
    x1394  r509  15329.368618397122
    x1394  r672  -10.388556243022046
    x1394  r894  5.770665083975677
    x1394  r998  -1184.7688786743327
    x1395  OBJ  2.1932955973009984
    x1395  r548  -0.025936766395676398
    x1395  r898  6.134601153932168
    x1396  OBJ  0.004502556346996415
    x1396  r310  0.15480227634263727
    x1396  r311  41.35537726210437
    x1396  r453  -4.037771819359897
    x1397  OBJ  -0.0037650226712516765
    x1397  r304  2074.345687089944
    x1397  r435  19.439825121081732
    x1397  r436  156.58430002889534
    x1397  r785  15839.75593035126
    x1397  r786  1.109469331961051
    x1398  OBJ  -0.0107500702410579
    x1398  r5  -0.07919960829315735
    x1398  r6  -0.0029229679971702906
    x1398  r27  0.14559420144434662
    x1398  r724  -12.972800709164686
    x1398  r898  399.32174545606915
    x1398  r940  0.2836058118909395
    x1398  r941  235.65963393461698
    x1398  r1190  8.015405745242287
    x1398  r1191  0.06282785325004503
    x1399  OBJ  -1.2665277568211393
    x1399  r858  9.217892449400258
    x1399  r919  0.12026471949464185
    x1400  OBJ  4.53840534904844
    x1400  r937  0.12628585947526003
    x1401  OBJ  -3101.6536627829228
    x1401  r10  0.1735939620988043
    x1401  r11  3.605406192709352e-07
    x1401  r225  0.11935421613674232
    x1401  r226  19.372588761192567
    x1401  r437  -0.01614473436604195
    x1401  r659  1.693861167959399e-05
    x1401  r754  0.004054326475217819
    x1401  r1040  0.004424453132287493
    x1401  r1041  4.470020271497398e-05
    x1402  OBJ  0.5661922975320641
    x1402  r877  7.842050153649806
    x1403  OBJ  3.7004175305369422
    x1403  r39  0.34674130908691964
    x1403  r364  -0.006714768860487048
    x1403  r870  0.0005930226627521834
    x1403  r871  8.166885435765155e-06
    x1403  r947  0.06976188110693912
    x1403  r1128  5.737024536169356e-05
    x1404  OBJ  2.3235648613783746
    x1404  r117  797.0910280548679
    x1404  r629  -8.696493850881673e-05
    x1404  r653  0.6249824243301259
    x1404  r770  19.858069857256737
    x1404  r771  5.0658130748972985
    x1404  r1135  0.3086637286876292
    x1404  r1136  1.8160732239807185
    x1405  OBJ  0.6433450495763317
    x1405  r1057  0.8356883656987851
    x1405  r1192  0.0009480553457479196
    x1406  OBJ  0.2352389356540253
    x1406  r267  -0.28558838267944076
    x1406  r418  1.569205425410911
    x1406  r563  -20.22544171110568
    x1406  r663  1.9860719331274266
    x1407  OBJ  -0.0034800113828443516
    x1407  r652  3.5020806142180896
    x1408  OBJ  35.77129479212254
    x1408  r13  0.0026331674358276943
    x1408  r320  -3.2198934685797944
    x1408  r321  -1.9389264560515174e-06
    x1408  r993  0.26556209390318275
    x1408  r1072  0.03235755252136545
    x1409  OBJ  -0.020404773094468875
    x1409  r873  0.9950107680371009
    x1409  r875  0.004245203193982088
    x1409  r876  8.439764453894705
    x1409  r1102  -0.02839055205801623
    x1410  OBJ  -1685.4775313707762
    x1410  r604  0.0018805917089295616
    x1410  r1114  -1.4090463061487948e-05
    x1411  OBJ  -45.58923926278559
    x1411  r344  1907.205436297459
    x1411  r518  83.54277374245339
    x1411  r620  -0.23128229608859305
    x1411  r621  -3.950991254361819e-05
    x1411  r1093  0.029697819360132747
    x1412  OBJ  -49.62019832949716
    x1412  r267  -0.00012765610222340988
    x1412  r394  14.515574187205152
    x1412  r787  -0.005826384829783654
    x1412  r890  0.23947789416451062
    x1412  r891  20.491845021823778
    x1412  r903  -1.2666474474140595e-06
    x1412  r1033  1.9520296131564618
    x1413  OBJ  -0.0006179950581017536
    x1413  r95  9491.506017345486
    x1413  r96  0.0406973702658253
    x1413  r122  195.68520258041536
    x1413  r419  11815.856163827868
    x1413  r488  6848.05623434601
    x1413  r600  -0.035016628783833416
    x1413  r601  -13.184697260849253
    x1413  r727  8.639383130601875
    x1413  r828  2.6002474677893215
    x1413  r1179  6.76423998968056
    x1414  OBJ  0.008366725475138611
    x1414  r47  639.9907139320117
    x1414  r109  -0.4139332881722779
    x1414  r234  182.5793239319788
    x1414  r468  5637.350168657506
    x1414  r737  -1083971.8698121163
    x1414  r1057  -20.16413144561856
    x1415  OBJ  -4923.309955587106
    x1415  r8  3.581801636175199
    x1415  r53  0.5989627360225039
    x1415  r202  0.026551354406731304
    x1415  r323  -5.148226464627687e-06
    x1415  r1008  0.5945877688441012
    x1416  OBJ  5.782957154777637
    x1416  r354  5.4368980287944066e-05
    x1416  r1065  0.00040631133036806696
    x1416  r1066  0.013908081979586833
    x1417  OBJ  0.2817668793990486
    x1417  r13  1.013944959476159
    x1417  r83  -2.44143184961264
    x1417  r124  0.005444266878997906
    x1417  r595  -110.282917075034
    x1417  r596  -944.0342784651986
    x1418  OBJ  -0.20475525715436668
    x1418  r47  -1.2631859922121214
    x1418  r577  2.9724064723339225
    x1418  r695  0.0011490709014723994
    x1418  r696  0.13190545936752343
    x1418  r814  22.48539690982282
    x1418  r1048  -0.0006428056491600536
    x1419  OBJ  0.4184742223547113
    x1419  r693  0.001518008173903781
    x1419  r833  31.05519134212575
    x1419  r1077  -0.1107762655721934
    x1420  OBJ  -4.7357731999958075
    x1420  r795  -4.801312025150828
    x1420  r796  -66.77419075069413
    x1420  r828  0.00552193493095016
    x1420  r973  0.2766847646204542
    x1421  OBJ  -0.10782214466263958
    x1421  r50  -0.010966348726935977
    x1421  r51  -2661.2633972579833
    x1421  r90  -0.7620672704349831
    x1421  r91  -0.001968011185189657
    x1421  r617  52.66280256567359
    x1421  r929  -90.30498933834195
    x1422  OBJ  -0.07849173679435716
    x1422  r394  378.5321838764805
    x1422  r530  -0.0003664065954215971
    x1422  r531  -0.06615182520623852
    x1422  r597  -0.0014872318251582391
    x1422  r897  3.6558448842714304
    x1422  r929  -52.139892738622365
    x1423  OBJ  -2.160198967938826
    x1423  r577  -0.03214652189498533
    x1423  r627  28.71778677515403
    x1423  r1017  -22.695810642143865
    x1423  r1190  0.486202702950618
    x1423  r1191  0.0038110450102776796
    x1424  OBJ  23.9899299140651
    x1424  r702  0.05594831890332001
    x1425  OBJ  -0.07988692282343102
    x1425  r115  -32.57979219524883
    x1425  r116  -0.2312300507772099
    x1425  r533  0.005805400534038116
    x1425  r592  -2131.7753739150653
    x1425  r890  59.6504282773558
    x1425  r891  5104.217806864845
    x1426  OBJ  0.1373286934289003
    x1426  r123  -0.5680047037927677
    x1426  r1112  -0.0018226445513853588
    x1426  r1165  0.0002715380483789398
    x1426  r1166  0.0006483026938658111
    x1427  OBJ  -0.837809790101441
    x1427  r375  0.24489090008732314
    x1427  r376  0.0019725972366847425
    x1427  r455  0.6380459613144985
    x1427  r456  1653.0781785267325
    x1427  r740  -0.00022817042783498297
    x1427  r741  -0.07150917048381944
    x1428  OBJ  -0.016695915829438177
    x1428  r245  0.07903051175290061
    x1428  r246  2.9982000812170138
    x1428  r867  51.23396780512074
    x1429  OBJ  0.2417905761222288
    x1429  r837  40505.35561528384
    x1430  OBJ  -0.08944717907872528
    x1430  r1039  0.25199918991939396
    x1431  OBJ  1.9760958384802265
    x1431  r298  -0.003298129592692904
    x1432  OBJ  -0.1464014580045386
    x1432  r170  -0.00361788954266433
    x1432  r171  -0.01667786597093733
    x1432  r203  152.6204231836644
    x1432  r577  60.91219685465685
    x1432  r669  -0.001769796935783205
    x1432  r869  -34291.897262081875
    x1433  OBJ  238.81948437720246
    x1433  r10  -0.5138974488827447
    x1433  r11  -1.0673234381071525e-06
    x1433  r77  0.007114780106114458
    x1433  r437  0.018724196169855576
    x1433  r492  -8.893869956706763e-05
    x1433  r1049  5.8270878590339834e-05
    x1433  r1167  -5.8117959922507625
    x1434  OBJ  0.16763770711876425
    x1434  r139  973.9445535175099
    x1434  r888  0.019506459145193233
    x1435  OBJ  -6.016379049380447e-07
    x1435  r225  -290.53781299473593
    x1435  r226  -47157.693736389134
    x1435  r400  2.2530586467124514
    x1435  r401  63.440883542586796
    x1435  r508  -5751.040657510962
    x1436  OBJ  -0.04194324292505395
    x1436  r13  408.8789728949993
    x1436  r763  -252.657476372596
    x1436  r1130  -2229.1380767160435
    x1436  r1131  -246.16806316872194
    x1437  OBJ  -749.4872667395733
    x1437  r38  0.04895168272672653
    x1437  r389  -1.7557710977907703
    x1437  r572  -0.7002394449559404
    x1437  r612  2.2628640750520717e-05
    x1437  r657  0.017428157309543828
    x1437  r994  4.538503691279696
    x1438  OBJ  0.19719834066343328
    x1438  r745  3770.9599866819776
    x1438  r746  5.609607119264494
    x1438  r1147  1120.2123354569806
    x1439  OBJ  281.607908481561
    x1439  r537  0.011216907890266975
    x1439  r620  -0.00175143999204243
    x1439  r621  -2.99198175049615e-07
    x1439  r719  7.591127172701711e-06
    x1440  OBJ  94.2363055219172
    x1440  r34  6.719471057785918e-06
    x1440  r185  35.78811194060666
    x1440  r186  0.0001523558648881122
    x1441  OBJ  0.04372783284044578
    x1441  r388  116111.06682099911
    x1441  r498  0.004452738996490289
    x1441  r1049  0.08503882982769317
    x1442  OBJ  0.0009034284119894204
    x1442  r1087  307.27438606080426
    x1443  OBJ  -1.7962126772321416
    x1443  r350  52.471941889769546
    x1443  r351  5.928967778366259
    x1443  r419  -2.3211615914268147
    x1443  r424  0.00012121629476933939
    x1443  r1029  -1.3189452567734267e-05
    x1444  OBJ  -40.92130963336361
    x1444  r205  -6.273157467753987
    x1444  r206  -0.5898325658923973
    x1444  r493  -0.11048693550303995
    x1444  r1004  0.03816528600675366
    x1445  OBJ  0.0007480493350664407
    x1445  r272  -642.3693256151391
    x1445  r429  286214.3692076683
    x1445  r833  6084.734351502839
    x1445  r1177  213551.1310004465
    x1446  OBJ  0.20110582865162488
    x1446  r72  -0.45913899660803653
    x1446  r73  0.07809585563873349
    x1446  r125  58.20424940407148
    x1446  r126  0.001759248235176269
    x1446  r353  -2.9938213643149115e-05
    x1446  r524  258.7322124459374
    x1446  r657  -47.839764546057786
    x1447  OBJ  -0.06941808621387453
    x1447  r88  0.1323650012988526
    x1447  r504  -0.00035438209633349704
    x1447  r528  0.0001539167876580792
    x1447  r854  20.18527253789551
    x1447  r993  -1.6144111527390994
    x1448  OBJ  0.003294321111433973
    x1448  r133  -2026603.4373703445
    x1448  r297  0.060279884450365154
    x1448  r694  105591.19624667063
    x1448  r1072  913.2423435558691
    x1449  OBJ  -0.0011710993559700777
    x1449  r85  -0.023652629983662334
    x1449  r86  -152639.7379351714
    x1449  r983  31449.536984650596
    x1450  OBJ  -907.7633413534967
    x1450  r63  -0.00023091124666339073
    x1450  r298  2.0035405608282364e-05
    x1450  r943  0.2105871457762888
    x1451  OBJ  219.92986050808156
    x1451  r213  0.09455632340676405
    x1451  r1039  1.437785128586036e-06
    x1451  r1058  2.116527379249089e-05
    x1452  OBJ  376.0354949905762
    x1452  r1063  0.6003162205335576
    x1453  OBJ  -2841.469380560379
    x1453  r92  -1.6391111745534064
    x1454  OBJ  0.1255678860334391
    x1454  r682  8.741665242545771
    x1454  r958  -144.01019433397786
    x1455  OBJ  -70.36861583910935
    x1455  r678  0.11963880025218403
    x1455  r942  -0.574055039883698
    x1456  OBJ  15.29236744774071
    x1456  r167  -0.00025513767276940237
    x1456  r463  0.006027560795471564
    x1456  r683  0.00018399436992039826
    x1456  r764  7.832497947953656
    x1457  OBJ  -303.2587664718994
    x1457  r435  -0.0022093564072110028
    x1457  r436  -0.01779596906776286
    x1457  r669  -3.0712399214971437e-06
    x1457  r935  23.28178403952115
    x1457  r936  7.368900857312588e-07
    x1457  r1090  0.4559359323466802
    x1457  r1091  5.745563669237874
    x1458  OBJ  -0.06521339006240374
    x1458  r68  -1460.7209401107232
    x1458  r298  0.0007016750793538774
    x1458  r790  -0.00022770398891547663
    x1458  r791  -1.861015153432845
    x1459  OBJ  -2.4995877569385123
    x1459  r580  -0.05920105304660464
    x1459  r581  -3.7550933675616736
    x1460  OBJ  -0.018169104044858168
    x1460  r69  108.19179295239843
    x1460  r940  1.2487322813151747
    x1460  r941  1037.622573158821
    x1461  OBJ  10.271066200332525
    x1461  r610  0.0023138007789042115
    x1461  r611  0.0006590226201891732
    x1461  r708  5.446750742571484e-07
    x1462  OBJ  3.7682171017610036
    x1462  r398  6.197720189029526e-06
    x1462  r683  2.3044256328304384e-06
    x1462  r720  0.5115712568395987
    x1462  r721  7.792403217097577e-06
    x1462  r735  -0.0005595185438158316
    x1462  r736  -8.355207182370815
    x1462  r747  0.04363368927145105
    x1462  r797  -0.008443765770488458
    x1463  OBJ  -0.3501007451617259
    x1463  r108  0.33645250780120156
    x1463  r955  -9.202433558511441e-05
    x1463  r956  -0.0001894848604500793
    x1463  r1039  3.803648340181832e-06
    x1463  r1150  5.3899444556101495
    x1463  r1151  0.00012355874139508832
    x1464  OBJ  0.7742659459475042
    x1464  r84  192.28960194408472
    x1464  r415  0.00017997337763535373
    x1464  r416  9.946274888370116e-05
    x1465  OBJ  0.03829959559428553
    x1465  r54  -3.6353648582011755
    x1465  r138  3164.1111200603627
    x1465  r242  -68.30519460249462
    x1465  r313  15.139444789352108
    x1466  OBJ  -0.5302095253553648
    x1466  r24  -0.00019470001068936637
    x1466  r557  0.0007201597971134515
    x1466  r659  0.00010821982657500744
    x1467  OBJ  7.256945666768247e-05
    x1467  r109  0.15230148263388998
    x1467  r537  -1166.6382277152245
    x1467  r982  -0.05005935682628719
    x1468  OBJ  -0.3520721893789418
    x1468  r579  0.6448014660326002
    x1468  r1118  0.16243252514912881
    x1469  OBJ  0.011267865460279755
    x1469  r159  -1961.288438332779
    x1469  r483  1388.7469395395724
    x1469  r635  -0.25101594167598384
    x1469  r636  -100757.1359091089
    x1469  r705  395714.4110035769
    x1469  r706  0.2401545901297684
    x1470  OBJ  0.000493774656145675
    x1470  r269  -255380.40543843168
    x1470  r727  -10.810615900403311
    x1471  OBJ  3.8687059894169944
    x1471  r142  -0.0001320572054774651
    x1471  r169  0.031111595727068408
    x1471  r527  0.004437911690789434
    x1471  r572  69.25884546524316
    x1471  r609  -20.81846882724688
    x1471  r799  3.195990653508818e-05
    x1471  r874  0.000505694139697583
    x1471  r1034  -8.177081514015423e-06
    x1471  r1123  -3.671213512456045e-08
    x1472  OBJ  7299.98734151898
    x1472  r412  -6.606741864502222e-07
    x1472  r527  9.639316121768929e-05
    x1472  r668  -4.396038767687543e-06
    x1472  r775  -3.788468789142218
    x1472  r776  -5.497614285754929e-06
    x1472  r798  0.004123293352606852
    x1472  r819  0.0023670346716977756
    x1472  r922  -0.0020187104500900277
    x1472  r939  1.454130470602044e-06
    x1472  r942  0.37522817434817446
    x1472  r1162  -0.0012635993667402471
    x1473  OBJ  -0.09404987711698325
    x1473  r292  -0.6869567730277278
    x1473  r462  -3649.435791362558
    x1473  r557  -4.221872955567502
    x1473  r719  0.3439143934430265
    x1473  r824  1127036.3366635472
    x1474  OBJ  0.15307780228543255
    x1474  r19  -36.35868260917398
    x1474  r308  0.034986658118576174
    x1474  r383  -0.6917395493680506
    x1474  r574  -0.0003242221729172075
    x1474  r719  -0.00018860229242900455
    x1474  r833  64.59471597312695
    x1474  r959  1.0128110545288757e-05
    x1475  OBJ  6.295710517726994
    x1475  r97  7.08471309711296
    x1475  r888  -4.461036296247095e-05
    x1476  OBJ  -6.635908208576302
    x1476  r318  0.2318271525535581
    x1476  r330  -92.99710868307672
    x1476  r331  -0.0008782708852042145
    x1476  r415  0.0021398016294372478
    x1476  r416  0.0011825668603101405
    x1477  OBJ  12.947607495572926
    x1477  r399  1110.7375230604073
    x1477  r429  3301.4499235652734
    x1477  r623  -28229.85252602726
    x1477  r1110  0.001233002342555502
    x1477  r1111  1.334312459367356
    x1478  OBJ  53.626917980272886
    x1478  r39  -40.50614761237003
    x1478  r240  -2.15926848268477
    x1478  r241  -9.372197687073045
    x1478  r494  2.8990751022126635
    x1478  r687  0.0021921766882808144
    x1478  r954  1365.8182079556539
    x1479  OBJ  -71.0385700125805
    x1479  r285  -0.03289661089875485
    x1479  r286  -3.0313419632670022e-05
    x1479  r717  0.0003609551916938761
    x1480  OBJ  0.003991713348647997
    x1480  r179  3753.6972365387733
    x1480  r258  23.54016558265312
    x1480  r444  5769.659224195867
    x1480  r807  10.397275605055425
    x1480  r847  -6.368783671628154
    x1481  OBJ  0.0014899302923268402
    x1481  r372  0.06126281718520544
    x1481  r614  -4053.3009388920095
    x1481  r715  1.3114266759658995
    x1481  r716  0.9092302242842775
    x1481  r795  -56.34170520246382
    x1481  r796  -783.5716051573445
    x1481  r863  68.26883329970546
    x1481  r877  667.534446373874
    x1481  r1082  255.3989233848507
    x1481  r1149  12024.979990854214
    x1482  OBJ  46.26345989802341
    x1482  r293  -0.09625380808395419
    x1482  r340  1.0499376415878536
    x1482  r341  0.0004256155544856759
    x1482  r418  0.0006005205515677059
    x1482  r523  2.228278658083667
    x1482  r739  9.995212050453793
    x1482  r955  -0.00012477895062207596
    x1482  r956  -0.00025692901660629797
    x1483  OBJ  -0.08359172444745429
    x1483  r12  229.13780438956329
    x1483  r137  0.0026285810081861437
    x1483  r380  -386.9873105967037
    x1483  r381  -240.59073080316566
    x1483  r924  1447.9945625168073
    x1483  r1183  5149.3333966782175
    x1484  OBJ  0.6354875690592707
    x1484  r188  0.007849576274488755
    x1484  r294  -0.07807648032225496
    x1484  r334  0.00017056250073420713
    x1484  r447  -2025.7453370647434
    x1484  r514  73.05329196437236
    x1484  r804  2.820597327444181
    x1484  r814  -91.15967922221897
    x1484  r847  0.41872289283616926
    x1484  r1067  14.968766926715716
    x1484  r1154  -1.1780955144851648
    x1485  OBJ  -4.423905561123984e-07
    x1485  r822  6305.579937703225
    x1485  r928  -0.16745753023436602
    x1485  r1129  557.1648942504623
    x1486  OBJ  -90.99563668356377
    x1486  r390  -18.87910487877618
    x1486  r391  -0.2793439870609655
    x1486  r855  -0.48525787625098227
    x1486  r856  -1.0122718995472527e-05
    x1487  OBJ  0.00028153885783906943
    x1487  r355  510.07664606011224
    x1487  r356  101.9713401953458
    x1487  r597  0.11420446427351703
    x1487  r657  3501.9894769377433
    x1488  OBJ  -9152.489155825535
    x1488  r75  -3.313011445039181e-05
    x1488  r76  -6.4326355507058075
    x1488  r308  0.0007776172716318172
    x1488  r692  0.0015550578959640591
    x1489  OBJ  0.0001094532343800248
    x1489  r94  -13.51636797060015
    x1489  r163  -24.336919552654887
    x1489  r430  -0.8392314846672937
    x1489  r431  -1614463.1148407818
    x1489  r655  4.412303469624738
    x1489  r656  11668.928994110322
    x1489  r988  0.4137387614456649
    x1490  OBJ  0.0029275941098324074
    x1490  r150  11351.66140177602
    x1490  r151  15.005531731885755
    x1490  r447  -156627.17529818186
    x1490  r454  1324.5059615509315
    x1490  r713  0.9183993881613753
    x1490  r723  30.411090319150173
    x1490  r1093  55.54636782425131
    x1491  OBJ  -0.6815827034162294
    x1491  r125  1.0940639142375468
    x1491  r126  3.306854791529718e-05
    x1491  r454  0.03892101186885231
    x1491  r504  1.1915645697913356e-05
    x1491  r555  44.94146632185624
    x1491  r556  0.004740293785056825
    x1491  r664  -15.98544269450676
    x1492  OBJ  0.353702845836977
    x1492  r190  2.7442732790383975
    x1492  r191  0.11655638793641789
    x1492  r277  0.00021598788636451846
    x1492  r372  0.0008603891028955743
    x1492  r700  1.6259135429933083
    x1492  r701  0.0017195895931661279
    x1493  OBJ  -0.00015309936155397048
    x1493  r333  6364.9256510351
    x1493  r490  677229.7648515775
    x1493  r491  1761.8381002318554
    x1493  r633  -24.89149215993757
    x1494  OBJ  -1066.1223353387416
    x1494  r133  -24.24202256028014
    x1494  r948  1.0397971065549287e-07
    x1494  r1022  4.928756840561695e-06
    x1495  OBJ  0.015151783199011773
    x1495  r65  643.934383975718
    x1495  r66  0.02925428177947121
    x1495  r152  17.777290973698403
    x1495  r322  7837.865339801726
    x1496  OBJ  -8.308890284552527
    x1496  r569  6.470081753175522
    x1496  r729  -0.15787541764621238
    x1496  r1183  2.9593513072760946
    x1497  OBJ  -8.70489115049134
    x1498  OBJ  -1.5464951738287283
    x1498  r67  0.2402951162023905
    x1498  r165  1.3690468758056232e-05
    x1498  r166  0.0021450703836314302
    x1498  r202  0.025904677031101497
    x1498  r735  -0.003085051291583702
    x1498  r736  -46.06861201352228
    x1498  r1085  14.600657270102161
    x1498  r1086  11.73553457703203
    x1498  r1177  20.3851618769127
    x1499  OBJ  -27.463812907946945
    x1499  r1028  2.0018673642716476e-05
    x1500  OBJ  -0.2895487956481472
    x1500  r638  -10.455077917480812
    x1500  r735  -30.441644103596378
    x1500  r736  -454580.54298422683
    x1501  OBJ  -1.7487231075845813
    x1501  r169  0.04785129408724798
    x1501  r384  -0.17165946066129104
    x1501  r767  341.15643049948227
    x1501  r887  0.0062201751709028185
    x1502  OBJ  293.46889531646957
    x1502  r133  918.1150582833711
    x1503  OBJ  217.2766618055611
    x1503  r35  0.40953325441216887
    x1503  r36  0.11894861812577943
    x1503  r343  -11.952494400590815
    x1503  r774  -0.0005422562446432686
    x1504  OBJ  0.3310892551531414
    x1504  r390  270843.3325104742
    x1504  r391  4007.523495322581
    x1504  r1089  0.19428644166679906
    x1505  OBJ  0.08470475509666019
    x1505  r77  0.6446494794474543
    x1505  r624  -360.0265790273815
    x1505  r867  -115.98424229278648
    x1506  OBJ  1.2321028509393988
    x1506  r142  0.0001657785824360272
    x1506  r758  0.00012463099241139645
    x1507  OBJ  29.94791872803205
    x1507  r75  2.7006686678634097e-06
    x1507  r76  0.5243693712434493
    x1507  r423  -0.00035078494607081417
    x1507  r799  -3.031407750509356e-06
    x1507  r1160  -0.00017144179368614427
    x1507  r1161  -1.4199327158131103e-06
    x1508  OBJ  1.0954428332347266
    x1508  r108  -1381.8351831975074
    x1508  r539  -0.04034970195255463
    x1508  r619  -7404.418231102026
    x1509  OBJ  -1.497606085352175
    x1509  r682  0.1443753467674757
    x1509  r823  -0.00012902768891945548
    x1509  r922  -0.4403339478781292
    x1509  r1168  0.2422200061742891
    x1510  OBJ  -0.7052050368670437
    x1510  r148  -0.0006066805812021544
    x1510  r930  85.41965186142515
    x1510  r931  0.022477258497522554
    x1510  r985  0.006488943608401664
    x1510  r986  14.547719829166141
    x1511  OBJ  6.716679657842617e-06
    x1511  r189  80.96332839767514
    x1511  r218  0.10897890649133286
    x1511  r1058  1.8233215135316916
    x1511  r1175  -0.2620438199995163
    x1511  r1176  -118.26005848968163
    x1512  OBJ  0.1806577099659478
    x1512  r327  -0.0044694626950874524
    x1512  r430  0.012085960678483313
    x1512  r431  23250.245110337917
    x1512  r1105  -176.03341764272616
    x1512  r1106  -2637.9781530389905
    x1513  OBJ  -2.0166182076132246
    x1513  r4  -0.00729526828964703
    x1513  r215  -0.05165916363051675
    x1513  r216  -0.001179079753809636
    x1513  r447  -343.94486698743856
    x1513  r482  -19.260890687802924
    x1513  r793  -0.11080071076061382
    x1513  r813  0.11923168972785059
    x1513  r933  0.00014540729544070506
    x1513  r1049  -0.010428030819315398
    x1514  OBJ  -0.02010326218316309
    x1514  r744  -0.016320279065179615
    x1514  r1108  272.60615572565894
    x1514  r1117  0.0006279399277653366
    x1515  OBJ  101.87188413873513
    x1515  r312  13.280959653733728
    x1515  r432  0.21994100800365085
    x1515  r1027  0.41105532753088103
    x1516  OBJ  4.063272872961294
    x1516  r434  0.0016070062076699958
    x1516  r482  -0.16226094981469874
    x1516  r538  0.027331499971010746
    x1516  r660  0.002003041432528028
    x1516  r661  0.001924146691608345
    x1516  r688  0.1536797107209229
    x1516  r697  0.004967538104794442
    x1517  OBJ  9.008797830452846
    x1517  r357  -3.0493831095772186
    x1517  r364  -0.011233090963172505
    x1517  r415  0.00018736991907008116
    x1517  r416  0.00010355046648391624
    x1517  r424  -0.00032021501993365737
    x1517  r564  -0.11098920433205718
    x1517  r745  2.551370096461776
    x1517  r746  0.0037953687940305183
    x1517  r1170  0.8972069644517793
    x1517  r1171  3.187948392485687e-07
    x1518  OBJ  6.6097961063074
    x1518  r28  5.598431026760698e-05
    x1518  r327  0.0008562232909762397
    x1518  r369  -0.054733567208782266
    x1518  r672  0.04662669145427239
    x1518  r835  2.502702466818152
    x1518  r836  106.25739538245688
    x1519  OBJ  0.7174349127248286
    x1519  r210  -6.756771032515891
    x1519  r211  -0.004240222144227908
    x1519  r325  467.53660915051245
    x1519  r326  3.05977281313795
    x1519  r713  0.012314563923881094
    x1520  OBJ  -0.0002639768034276878
    x1520  r35  3413.4865122083957
    x1520  r36  991.4445267722572
    x1520  r248  -624.864248286316
    x1520  r304  -99629.56665721985
    x1520  r318  35.036196131089426
    x1520  r579  -17443.64116592541
    x1521  OBJ  0.45038796230848915
    x1521  r243  0.7218558574604742
    x1521  r777  2.276115360888139e-06
    x1522  OBJ  0.017677363156658982
    x1522  r258  32.493425885797386
    x1522  r269  645371.0374529861
    x1522  r733  -553.3188395715853
    x1522  r1037  5757.9789844271745
    x1522  r1098  0.060030455424115954
    x1523  OBJ  -0.014674094721420106
    x1523  r539  -0.0015116246407257887
    x1523  r619  -1320.3768488053229
    x1523  r779  49111.55317300411
    x1524  OBJ  -0.03642772346180932
    x1524  r174  0.13777371731535298
    x1524  r222  6.582838858250095
    x1525  OBJ  0.006443708248604832
    x1525  r527  -1.622606373781383
    x1525  r679  -386.1456013689721
    x1525  r1047  -0.0500872188217063
    x1526  OBJ  -1.9667592245051098
    x1526  r464  0.05749239802835832
    x1526  r530  0.009428290662579804
    x1526  r531  1.702203627603771
    x1526  r628  -30312.820083478717
    x1526  r645  0.0014572918280145002
    x1526  r646  0.4266077986169797
    x1527  OBJ  0.013356306531700068
    x1527  r288  22804.499518241253
    x1527  r313  476.63181056070187
    x1527  r520  -0.10383424374750129
    x1527  r521  -0.23886155414264307
    x1527  r680  124025.12553956962
    x1527  r681  17.00360022587542
    x1527  r1062  -26.883655831257915
    x1528  OBJ  1344.3652188706044
    x1528  r10  3.961103620044437
    x1528  r11  8.226891850963757e-06
    x1528  r83  -0.0644330376627119
    x1528  r235  -7.820624515892245e-05
    x1528  r236  -0.0010428851018077136
    x1528  r1073  0.00015903244901802177
    x1529  OBJ  3115.603467538628
    x1529  r963  1.5237160330862075e-05
    x1529  r1084  -8.523449510265207
    x1529  r1107  4.549088553498821e-05
    x1529  r1128  1.5579333328652143e-05
    x1529  r1143  6.323758412403665e-06
    x1530  OBJ  0.9640566984986646
    x1530  r308  0.006418262225883872
    x1530  r478  -18.928880010478316
    x1530  r865  -61.26895819076175
    x1530  r866  -0.00016478407501788816
    x1531  OBJ  -1278.637904402579
    x1531  r87  2.171375123134247e-05
    x1531  r298  -2.0210082707359953e-06
    x1531  r404  -0.0007387304903921028
    x1531  r898  -5.7534413135273805
    x1531  r1182  2.0606105016532433e-05
    x1532  OBJ  0.0003692605821619415
    x1532  r33  183.31556669314313
    x1532  r409  -12123.455723808525
    x1532  r1097  -506.3192016824041
    x1532  r1160  76.30211737883627
    x1532  r1161  0.6319571816331149
    x1533  OBJ  0.05061912196871982
    x1533  r92  1798.3282570337358
    x1533  r317  488.1468326388539
    x1534  OBJ  0.0033291549240514083
    x1534  r44  0.04336646955265493
    x1534  r598  -0.00020498070794904466
    x1534  r743  169.77052069533005
    x1535  OBJ  29.123442148424097
    x1535  r30  0.04007504905908148
    x1535  r31  2.779859266638022
    x1536  OBJ  -2.6041172992977675
    x1536  r487  133685.9918139892
    x1537  OBJ  1243.4083173737258
    x1537  r83  -0.004082620801785986
    x1537  r298  7.668693279960216e-07
    x1537  r537  0.013695092249265538
    x1537  r602  4.569769788060134e-06
    x1537  r915  0.030149242491550012
    x1537  r916  2.7206851015150755
    x1537  r1045  2.2270945745269226
    x1537  r1046  1.0766826069940396
    x1537  r1144  0.0076289072190877045
    x1538  OBJ  432.509643706533
    x1538  r894  0.0007420153553887377
    x1539  OBJ  6.1229650920521586
    x1539  r905  7.944939796027074e-05
    x1539  r906  0.09981255209102717
    x1539  r919  0.010342578799041241
    x1539  r1123  3.3723624317727586e-06
    x1540  OBJ  2.8974431743396582e-05
    x1540  r493  1408.4016650667443
    x1540  r718  -1.168176028621914
    x1540  r739  299254.6832023843
    x1540  r937  3.3005073442817303
    x1540  r1125  66872.52222756707
    x1540  r1126  149.16322395600812
    x1541  OBJ  16.260214727865282
    x1541  r58  0.4806422124228874
    x1541  r345  -4.2118852741438e-06
    x1541  r346  -0.013585642334079467
    x1541  r489  -0.011403875055375452
    x1541  r808  7.773062825896863e-06
    x1541  r1067  0.0011810477731154375
    x1542  OBJ  -0.19024935003451449
    x1542  r65  7519.566038020899
    x1542  r66  0.34161788717885966
    x1542  r285  8.724420936063096
    x1542  r286  0.008039339787945833
    x1542  r357  -13920.963236966676
    x1542  r935  408456.89196258876
    x1542  r936  0.0129280399485239
    x1542  r942  40995.54233488382
    x1542  r1140  126.35145184782704
    x1542  r1141  34714.84527946006
    x1543  OBJ  0.6798035893494359
    x1543  r73  -0.0005311535215845745
    x1543  r208  -0.000223841913436069
    x1543  r368  3.240903185598162
    x1543  r634  39.461536500882914
    x1543  r967  0.007307017052110513
    x1544  OBJ  -3.8715772129011943
    x1544  r212  4.834127892633371e-05
    x1544  r289  -0.10964034666552093
    x1544  r517  9.115629769207988
    x1545  OBJ  -2196.6362599356025
    x1545  r390  -5.601788226626786
    x1545  r391  -0.0828866552702016
    x1545  r393  0.0469544255199547
    x1545  r609  0.675457847751128
    x1546  OBJ  -0.41534364066622553
    x1546  r29  11371.449110397105
    x1546  r280  5.454659518431459
    x1546  r281  0.010928339683626349
    x1546  r445  0.1857206867381205
    x1546  r446  15.177935397017198
    x1546  r864  16.705742071908205
    x1547  OBJ  0.0134580363106158
    x1547  r373  1.1729879992094355e-05
    x1548  OBJ  0.0164057382590445
    x1548  r1029  0.1396801710436467
    x1549  OBJ  -17.84528648312565
    x1549  r449  -2.5223558505162808e-05
    x1549  r660  0.0006427137965013981
    x1549  r661  0.0006173989240094763
    x1549  r792  -0.003159940026207332
    x1550  OBJ  -0.013788956842952976
    x1550  r367  -1234.2504233658303
    x1550  r654  -13645.945910880757
    x1550  r822  1538.4271965694395
    x1550  r1014  6777.046731903028
    x1551  OBJ  0.24235623568604256
    x1551  r227  83.29260337551096
    x1551  r599  1343.5395497566935
    x1552  OBJ  16.750969906482357
    x1552  r274  5.455012867097292e-07
    x1552  r313  -0.01659605410326323
    x1552  r850  4.7096990455170575e-05
    x1552  r851  0.014462834497390584
    x1552  r947  -0.1348804552052988
    x1553  OBJ  -24.083968231556227
    x1553  r48  0.9996698148755051
    x1553  r137  3.3188651239950266e-07
    x1553  r240  0.0036742853910803172
    x1553  r241  0.015948053389411018
    x1553  r275  -4.657656260372247e-05
    x1553  r276  -1.4207979058400958e-05
    x1553  r832  0.007604424955150319
    x1554  OBJ  -0.0535671518363133
    x1554  r402  -101.8324543113108
    x1554  r712  -2.219559237809616
    x1554  r747  -140.74427759118237
    x1555  OBJ  0.36358066621499896
    x1555  r64  -0.0011456956337423305
    x1555  r235  15.713471040701895
    x1555  r236  209.54010530404994
    x1555  r319  -106.15999641429127
    x1555  r792  -1.8725088098332623
    x1556  OBJ  0.003479910190180453
    x1556  r78  -0.3720201825357318
    x1556  r783  3.5864911726148887
    x1556  r913  0.2163086568726822
    x1557  OBJ  -0.5470883894570043
    x1557  r264  -3.166768739064129
    x1557  r433  714.9440897952769
    x1557  r837  -87.27656856145441
    x1558  OBJ  90.45898290285047
    x1558  r138  54.499395889713576
    x1558  r482  -1.199906150276264
    x1559  OBJ  0.03379669038912891
    x1559  r53  7106.22646243907
    x1559  r704  0.5755730149626473
    x1559  r1192  0.012324015822424251
    x1560  OBJ  -0.3376615238104232
    x1560  r44  0.06099114323061612
    x1560  r252  0.011278421954210208
    x1560  r712  -1.9554331322352678
    x1561  OBJ  -0.006469447305547258
    x1561  r52  -14349.305589139985
    x1561  r187  -0.008883767947283103
    x1561  r329  0.3869609197001068
    x1561  r533  -0.00467411967380299
    x1562  OBJ  -1.642425662527367
    x1562  r405  -0.038462586767807845
    x1562  r406  -6.871611911849999e-05
    x1562  r599  164.50442972779246
    x1562  r632  0.022629116672996778
    x1562  r998  0.07554939307921046
    x1563  OBJ  -0.0008394415647643734
    x1563  r533  0.00205326750404404
    x1563  r839  60.75213823492949
    x1564  OBJ  -46.68892587546926
    x1564  r25  -5.37983537501749e-07
    x1564  r26  -0.001245697031679577
    x1564  r75  -1.6610727150694854e-06
    x1564  r76  -0.3225185175639206
    x1564  r562  -39.28022428672321
    x1564  r794  0.0009725594048486754
    x1564  r1023  9.62827238551787e-07
    x1565  OBJ  -0.015984762777579698
    x1565  r200  18078.01791251253
    x1565  r201  0.0006121928475511332
    x1565  r932  -571.2330830236288
    x1565  r1060  0.007460087798645837
    x1565  r1061  3.9843002377992334
    x1565  r1132  -1.09111176117311
    x1566  OBJ  -2.146864154294491
    x1566  r105  -7.283782688448673
    x1566  r106  -0.007006132285574958
    x1566  r803  -598.1288856780282
    x1566  r807  3.652805838946333
    x1566  r849  147.07707572632015
    x1566  r1008  -1209.8276823391755
    x1566  r1034  -0.000908527001116577
    x1566  r1155  -2.740851962093794
    x1566  r1156  -1.7611386378065683
    x1567  OBJ  0.00016939867375115688
    x1567  r128  4.3116760527902285
    x1567  r355  1180.172673625843
    x1567  r356  235.9327566182459
    x1567  r499  18.623841636194083
    x1567  r750  -3212.196840009819
    x1567  r751  -0.1076177755246011
    x1567  r893  10.07973363163445
    x1568  OBJ  -0.00596043778520831
    x1568  r262  43122.37545604957
    x1568  r290  0.11959662441062448
    x1568  r291  0.011743793266268728
    x1568  r689  1122.2993881867005
    x1569  OBJ  -1.6451524428386914
    x1569  r207  0.0021654181073158954
    x1569  r272  0.2739972412506136
    x1569  r510  0.0006727474575708042
    x1569  r511  0.035955995305876016
    x1569  r679  1.6368551610756605
    x1569  r719  0.00026963718020873843
    x1569  r788  0.2039152891504972
    x1570  OBJ  -40.06120546956299
    x1570  r249  -0.0003674058826592883
    x1570  r315  191.5199380914006
    x1570  r316  21.22050028423416
    x1570  r492  0.002647436348223519
    x1570  r637  3.174694092081256
    x1570  r1150  150.27510116570537
    x1570  r1151  0.0034448967917893366
    x1570  r1154  0.5704745907539508
    x1571  OBJ  -3.084099998517514
    x1571  r225  2.3518855515740826
    x1571  r226  381.7386019429379
    x1571  r502  -0.45067948705711164
    x1571  r818  0.08178391579870625
    x1571  r914  9.239270909889265e-05
    x1571  r1065  -0.002634033724796904
    x1571  r1066  -0.09016326704029072
    x1571  r1157  -0.023110275344443817
    x1572  OBJ  -113.03299207970765
    x1572  r102  -0.017562061436786645
    x1572  r330  -6.217875058408052
    x1572  r331  -5.872202597445931e-05
    x1572  r543  -4.5111257119210624e-06
    x1572  r884  15.80864894824016
    x1572  r990  -1.3296227952744279e-05
    x1572  r991  -0.000333910739353675
    x1573  OBJ  29.06596776645378
    x1573  r714  33.6520512374011
    x1573  r787  -0.04575039150974572
    x1573  r795  0.4991686803554495
    x1573  r796  6.942182575143088
    x1573  r1117  -9.182017016233787e-06
    x1574  OBJ  0.0010390464846237826
    x1574  r497  -164.4651155067167
    x1574  r720  6407.423220228377
    x1574  r721  0.09759974714581833
    x1574  r875  0.05253488982996659
    x1574  r876  104.44307975758515
    x1574  r1198  -6184.720061494849
    x1575  OBJ  0.31461238547565124
    x1575  r577  9.445063121507328
    x1575  r944  -0.031215464499366713
    x1576  OBJ  0.004131494236220902
    x1576  r174  0.27620785535331055
    x1576  r315  1004.9600985796295
    x1576  r316  111.35005717981986
    x1577  OBJ  0.00017261976163571158
    x1577  r78  118.33261212516233
    x1577  r337  -22.137418377074745
    x1577  r460  -243.20563372661226
    x1577  r461  -2.176586638797243
    x1577  r824  3588034.0991665656
    x1577  r923  37.60539483198128
    x1578  OBJ  1988.1603975859646
    x1578  r175  5.3738276656551195e-08
    x1578  r176  0.001531862769670991
    x1578  r194  2.116825944833176e-06
    x1578  r293  0.03243664597386812
    x1578  r742  -0.5355227771975016
    x1578  r915  -0.013853167707842793
    x1578  r916  -1.250117876164919
    x1578  r1009  -0.013478638469334408
    x1579  OBJ  0.35881025675525613
    x1579  r947  16.72514962711337
    x1580  OBJ  -0.14233207343546436
    x1581  OBJ  -10.995388243020427
    x1581  r43  1.5738325748981064e-05
    x1581  r147  0.07906671564806865
    x1581  r238  0.08373937097553974
    x1581  r480  0.0005606078878530662
    x1581  r481  832.4881964471581
    x1581  r773  -1.0405799082522014
    x1581  r789  -187.41510270236182
    x1581  r870  0.01867352510068077
    x1581  r871  0.00025716477591493755
    x1581  r899  -0.029969865424840404
    x1582  OBJ  0.05233938864969727
    x1582  r140  282915.0750428559
    x1582  r141  668.5354847604411
    x1583  OBJ  -0.03984191962427181
    x1583  r210  -1.8376597456742294
    x1583  r211  -0.0011532262244296743
    x1583  r575  0.015245587059213092
    x1583  r576  0.014259203707555509
    x1583  r743  726.2526502546314
    x1583  r1063  18.3047351813719
    x1584  OBJ  -5530.533970204328
    x1584  r358  0.11987390587179096
    x1584  r1009  0.012289949069941351
    x1584  r1140  -0.00045542201434515075
    x1584  r1141  -0.12512641947235248
    x1585  OBJ  2.1782633160143097
    x1585  r492  0.3047811447076105
    x1585  r644  2908.577009070965
    x1586  OBJ  -0.45509470626280424
    x1586  r553  0.12704838391152412
    x1586  r570  0.0034597861659860477
    x1586  r571  6.759628235907347e-05
    x1586  r595  0.05793454620305164
    x1586  r596  0.4959262864419449
    x1587  OBJ  36.465524540008076
    x1587  r778  3.7739639645603097e-06
    x1588  OBJ  0.003662241210478814
    x1588  r63  0.43553613899896
    x1588  r425  0.3916263060284291
    x1588  r426  5894.553843693238
    x1588  r999  -32939.68846291533
    x1589  OBJ  42.46888737966606
    x1589  r138  -18.433360640339867
    x1589  r1014  0.6642584485141063
    x1589  r1017  -1.2127331458172617
    x1589  r1094  4.0302007882528636e-05
    x1590  OBJ  33.9113387436353
    x1590  r975  -0.0022087443545833543
    x1590  r976  -0.08541414205708257
    x1591  OBJ  2.1552736262033267
    x1591  r40  -12.917171277104982
    x1591  r41  -6157.269861292429
    x1591  r473  0.6911762617033627
    x1591  r1029  -0.0134684208500267
    x1592  OBJ  -384.41334230168013
    x1592  r424  -2.6534431697850275e-05
    x1592  r513  0.007138493994807148
    x1592  r589  0.03214586241695735
    x1592  r604  0.0007539871268192126
    x1592  r768  -2.590883862059338e-08
    x1592  r830  0.13630901607727464
    x1592  r831  0.041301707236659366
    x1592  r1048  2.0318117446494707e-05
    x1593  OBJ  -5125.93126298661
    x1593  r3  2.176472693873373
    x1593  r552  1.2932862747851324
    x1593  r653  0.006121314738440693
    x1594  OBJ  0.015437010685129541
    x1594  r88  -17.30216073116015
    x1594  r367  6670.678158915393
    x1595  OBJ  -0.003382878365616943
    x1595  r127  0.6408654831701805
    x1595  r1070  -0.031688832954476
    x1595  r1071  -0.000295977757071473
    x1596  OBJ  -0.07791747944378741
    x1596  r270  0.5565939899335082
    x1596  r271  0.0018728799951957815
    x1596  r312  186.0866111716177
    x1596  r392  -24.01268877396591
    x1596  r960  0.004534455610592244
    x1596  r961  0.14659186880339228
    x1596  r973  -9.901181034008285
    x1596  r1132  -1.1443143504404722
    x1597  OBJ  -45.954994155905794
    x1597  r120  1.5297508800511264e-05
    x1597  r121  23.748978125728613
    x1597  r337  0.0005072801993196148
    x1597  r538  0.020519214679541813
    x1598  OBJ  -0.011037147469701223
    x1598  r482  43235.9443491237
    x1598  r1013  -61353.84140264917
    x1599  OBJ  -21.385258004266543
    x1599  r60  0.26393406733063796
    x1599  r61  0.0065133901888681685
    x1599  r668  3.974721201038035e-06
    x1599  r928  -2.789694586952273e-05
    x1600  OBJ  0.26167328914547117
    x1600  r550  0.00040876717505025504
    x1600  r551  29.13157456416824
    x1600  r587  164.54852145507704
    x1600  r922  -11.223096422820165
    x1600  r993  -72.62003898594696
    x1601  OBJ  -154.50011283024216
    x1601  r60  -4.563037997384083
    x1601  r61  -0.11260708867249775
    x1601  r289  0.2771838307356626
    x1601  r332  0.00038150066110113076
    x1601  r467  -3.202066819980987
    x1601  r574  8.896011832709163e-05
    x1601  r1065  -0.005085392743840581
    x1601  r1066  -0.17407355860753404
    x1602  OBJ  0.26892159833692136
    x1602  r42  -0.1615862026776794
    x1602  r323  0.0038334323025624307
    x1602  r395  0.33256130833244774
    x1602  r396  209.67109234177897
    x1602  r892  103335.32359171358
    x1602  r1080  -188562.65894396434
    x1602  r1081  -117.58131998725436
    x1603  OBJ  -636.003311863793
    x1603  r262  37.56929330522878
    x1603  r512  -2.634181605659704e-07
    x1603  r1047  1.2666436440652771e-05
    x1604  OBJ  -0.337869050098275
    x1604  r18  -0.002854682830177525
    x1604  r34  -0.0011957342282610407
    x1604  r247  1068.3415518445745
    x1604  r793  0.0663466923304897
    x1604  r1110  0.010639892477468013
    x1604  r1111  11.514123379190192
    x1604  r1167  2779.0673312106246
    x1605  OBJ  -0.018706738272782387
    x1605  r289  0.35823263282785806
    x1605  r417  -0.00018035168810802917
    x1605  r420  -0.003574031369412774
    x1605  r421  -0.00043966012010121324
    x1605  r810  -0.01606120527873385
    x1605  r811  -0.11508766857528804
    x1605  r834  880.3477556686582
    x1605  r879  -0.18152812814945923
    x1605  r912  -0.22669064874714304
    x1605  r1037  14.109787588035518
    x1606  OBJ  8.53340180319241e-05
    x1606  r338  1563.8178793855388
    x1606  r680  1525999.870235361
    x1606  r681  209.21157406884805
    x1606  r959  0.1132688955135054
    x1606  r1059  -99365.53377675982
    x1606  r1189  -7.898844478081182
    x1607  OBJ  -0.2556214767020998
    x1607  r22  0.1048694953683044
    x1607  r807  1.9070105995680628
    x1607  r910  -0.02195077389777172
    x1607  r911  -15.864210201605013
    x1607  r1013  -5193.654586268775
    x1607  r1095  -0.0588772048476532
    x1607  r1096  -257.84228123719606
    x1608  OBJ  168.7837522086342
    x1608  r387  -1.9992905025374425e-06
    x1608  r499  0.0012357835769420942
    x1608  r915  -0.09806132172666225
    x1608  r916  -8.849110458791177
    x1608  r1085  0.9406115372245903
    x1608  r1086  0.756033034297585
    x1609  OBJ  1.4315062221288462
    x1609  r353  0.002286986666581343
    x1609  r773  74.06914091604295
    x1609  r958  30.767054918465494
    x1610  OBJ  9.520095435827576
    x1610  r84  13.961216145529935
    x1610  r674  -1.7498978417526503e-05
    x1611  OBJ  -2.578745516207725
    x1611  r59  8939.846483644304
    x1611  r177  0.019419022636318128
    x1611  r717  -0.28695818816122015
    x1611  r742  -3326.7864822512697
    x1611  r775  -2012.1181374960868
    x1611  r776  -0.002919873445712008
    x1611  r782  5314.3914521722345
    x1611  r1199  -1084.542556689931
    x1612  OBJ  -11.42856916098908
    x1612  r645  1.5855330060765682e-05
    x1612  r646  0.004641491377045976
    x1612  r915  -4.214922306592765
    x1612  r916  -380.3570297596865
    x1613  OBJ  -4.308658689862469
    x1613  r972  0.0004911944663239447
    x1613  r1053  -6.504246961197682e-06
    x1614  OBJ  -0.00010747762577302506
    x1614  r198  5.359370518105752
    x1614  r393  -10.01136133974998
    x1615  OBJ  -1.016439421878116
    x1615  r434  0.45853696513694714
    x1615  r685  10.689973305483571
    x1615  r686  4.963588086102697
    x1615  r1054  47.307400347645356
    x1616  OBJ  -4578.337801160163
    x1616  r137  -6.045479065481311e-07
    x1616  r293  0.01376956529402577
    x1616  r333  0.019419117596373957
    x1617  OBJ  52.5678152003999
    x1617  r62  -83.08761483937607
    x1617  r305  4.42526036365297
    x1617  r306  0.001888496729582949
    x1617  r514  28.121149361257025
    x1617  r644  59.91541077189862
    x1618  OBJ  -10056.681383533598
    x1618  r1010  -2.139716738354477e-06
    x1618  r1011  -5.0036656245545566e-06
    x1619  OBJ  2.833806849987185
    x1619  r229  0.6172801842853504
    x1619  r319  -2450.440413090888
    x1619  r538  -18.898917727994405
    x1619  r657  -513.165003312342
    x1619  r984  -15.96255228461018
    x1619  r1035  0.0028641452379495344
    x1619  r1036  919.7243343892836
    x1620  OBJ  -0.010791042027450778
    x1620  r129  -10.342567374590702
    x1620  r225  1255.9381833897464
    x1620  r226  203853.49360774495
    x1620  r883  -196189.92009171259
    x1621  OBJ  -0.004604834165513437
    x1621  r13  59.25139061649187
    x1621  r300  3.278859916082011
    x1621  r301  5.856455731553905
    x1621  r532  0.4159967692665687
    x1622  OBJ  2.4041230154102506
    x1622  r292  2.844008151423033e-05
    x1622  r630  -0.0017069434709727363
    x1622  r631  -0.6873398048241302
    x1622  r718  -8.693755149261681e-06
    x1623  OBJ  5.2838688178289654
    x1623  r77  0.0070436693769638905
    x1623  r270  0.0006392383033832119
    x1623  r271  2.1509693820307527e-06
    x1623  r288  2.2347514920643525
    x1623  r298  2.2302805912738556e-06
    x1623  r379  0.4392618944421427
    x1623  r463  -0.001099234873719786
    x1623  r502  -0.0015276300171758765
    x1623  r914  3.691469664333999e-06
    x1623  r1057  0.0002829319343918789
    x1624  OBJ  0.004941615372189619
    x1624  r334  0.0012593449804446579
    x1625  OBJ  1.8284373451056317
    x1625  r72  -0.021351291954038794
    x1625  r220  -1.9327367400287065
    x1625  r221  -0.3459536786225749
    x1625  r252  0.00677805739629845
    x1625  r442  0.015596451234082487
    x1625  r555  3.2833416565717393
    x1625  r556  0.00034631722822305874
    x1625  r562  -624.7513391998215
    x1625  r579  0.18599595461114338
    x1625  r920  -0.0008681573657747222
    x1625  r921  -0.47061320641990273
    x1625  r1097  -0.06347968185493134
    x1626  OBJ  0.3954880775414704
    x1626  r508  -8.201529490307408
    x1626  r599  532.3464453765497
    x1626  r824  194.1300442322394
    x1626  r864  0.5527671771666477
    x1626  r899  0.10580592539292598
    x1626  r1167  13.976296453323242
    x1627  OBJ  -0.38997213648721446
    x1627  r540  -0.44711644430835523
    x1627  r541  -0.7598886997657925
    x1627  r817  1.8164114356312329
    x1627  r1009  68.96315673924036
    x1627  r1039  -0.04729755368417099
    x1628  OBJ  -99.35935218240118
    x1628  r187  -2.733063449871168e-05
    x1628  r1199  -0.08371028905423143
    x1629  OBJ  1.5950782468989142
    x1629  r352  -0.0023075946914356683
    x1629  r385  0.9720355051273452
    x1629  r386  4.744379321896616
    x1629  r593  -0.040608333337317365
    x1629  r769  195.180083820249
    x1630  OBJ  0.00023161456762275291
    x1630  r433  212742.91928406392
    x1630  r602  0.3018860683281252
    x1630  r692  142.86238231862876
    x1630  r1108  -288635.38027479826
    x1630  r1132  -121.04668363261136
    x1630  r1163  19.81922976630769
    x1631  OBJ  -1.3073997004422604
    x1631  r70  -0.03009048468309862
    x1631  r71  -0.0019975755265309474
    x1631  r158  5.800780789682958e-05
    x1631  r680  333.49181892277306
    x1631  r681  0.045721070975684716
    x1632  OBJ  -16.384553104854614
    x1632  r252  0.00024073219735582676
    x1632  r425  0.00018095413819116973
    x1632  r426  2.7236268207415226
    x1632  r727  0.00016681102338372722
    x1632  r937  -2.2279520039197988e-05
    x1632  r1083  8.77712650951715e-05
    x1632  r1122  -3.874560279883271e-05
    x1633  OBJ  -26.153529284679873
    x1633  r54  0.05741814431831295
    x1633  r217  2.2887641034279884e-05
    x1633  r425  0.0012385520905672353
    x1633  r426  18.64203674187662
    x1633  r602  3.218454162722978e-05
    x1633  r725  -52.158277239702485
    x1633  r726  -179.99633729005345
    x1633  r940  0.007943793099741045
    x1633  r941  6.6008216173552885
    x1634  OBJ  -638.2027749989307
    x1634  r67  -0.08533307290988756
    x1634  r160  0.2604034312360309
    x1634  r161  17.154093058262198
    x1634  r668  1.3377964121584073e-05
    x1634  r887  0.0006533777931781038
    x1634  r917  -4.206129089107323e-06
    x1634  r980  -1.8212593293355546e-06
    x1634  r981  -2.3713013131251207e-09
    x1635  OBJ  58.34050007609941
    x1635  r35  0.01511276222093302
    x1635  r36  0.004389490139997903
    x1635  r563  -0.0017574996482098745
    x1635  r764  0.5773719890968447
    x1635  r997  -4.785227168776305e-05
    x1635  r998  -0.012069631472880201
    x1636  OBJ  0.21459052310334306
    x1636  r419  138.4013999482559
    x1637  OBJ  0.008375418665960555
    x1637  r133  -724340.6577166072
    x1637  r213  -712.9639205597837
    x1637  r262  -50886.12773596985
    x1637  r274  0.005141219779207257
    x1638  OBJ  0.6625792399831354
    x1638  r75  -0.00011131217768389645
    x1638  r76  -21.612683302621246
    x1638  r328  0.11823676801787066
    x1638  r763  -0.018946272789091535
    x1638  r1127  3.411239331981709e-07
    x1639  OBJ  3.9847763883202725
    x1639  r550  8.636010312338978e-07
    x1639  r551  0.06154617926938452
    x1639  r554  -0.3283755338662574
    x1639  r764  -7.050345507718966
    x1639  r787  0.15566627736131747
    x1639  r930  304.2863751980837
    x1639  r931  0.08006967206676406
    x1640  OBJ  0.0004832903033721589
    x1640  r98  -11233.706537831264
    x1640  r244  1.3028825981961005
    x1640  r337  5.8620210992154576
    x1641  OBJ  0.08459316922367499
    x1641  r177  0.008635925254803391
    x1641  r505  0.0009897049717446113
    x1641  r506  5.705874086460731
    x1641  r857  6260.420747346103
    x1642  OBJ  1.7791919598400057
    x1642  r557  0.2299526781867094
    x1642  r754  4.6024028008854
    x1642  r774  -0.03557948047580711
    x1642  r815  0.07696039290245207
    x1642  r816  1.4570392915325163
    x1643  OBJ  -94.64630882316007
    x1643  r759  -0.00016522776055488038
    x1643  r955  0.0009298609793367961
    x1643  r956  0.0019146519970757341
    x1643  r959  1.4520567665382802e-05
    x1643  r990  3.0173510681780887e-06
    x1643  r991  7.577531986107369e-05
    x1643  r1119  0.00020834517401612199
    x1644  OBJ  -0.0004253763954387335
    x1644  r343  126706.75952989385
    x1645  OBJ  0.010635866124346163
    x1645  r527  17.693891431486243
    x1646  OBJ  9.285663423903742e-07
    x1646  r233  16930.203716606142
    x1646  r234  184.63914153610463
    x1646  r243  -81428.35536438627
    x1646  r1104  31689.043077434082
    x1647  OBJ  -10.555806879281848
    x1647  r252  0.09605459492344051
    x1647  r570  0.2633450780918447
    x1647  r571  0.005145158516319812
    x1647  r593  0.3823848141081873
    x1647  r735  -0.44769760853000456
    x1647  r736  -6685.401789920607
    x1647  r745  -20.731867211785037
    x1647  r746  -0.030840324563932684
    x1647  r1120  -3416.503952110594
    x1647  r1121  -24.46046623731222
    x1647  r1153  1.0746489123012346
    x1648  OBJ  0.03579851827998623
    x1648  r98  32.240544738503296
    x1648  r618  -41.21684061513772
    x1648  r619  -265.61630028673153
    x1649  OBJ  0.02756909686866156
    x1649  r68  508078.65140761674
    x1649  r668  1.0118831508371255
    x1649  r965  1923.4058824643469
    x1649  r966  184.54919427315014
    x1649  r1005  -33912.72359660363
    x1649  r1006  -10781.4854886204
    x1650  OBJ  24.90767644221139
    x1650  r1013  1206.7743062445695
    x1651  OBJ  1.6748092083257442
    x1651  r429  -429.4688543678815
    x1651  r467  747.732546216572
    x1651  r937  -0.03420169066339751
    x1652  OBJ  0.017247015253672032
    x1652  r373  -5.0698247273802845e-06
    x1652  r1133  -29.11414048126702
    x1653  OBJ  -1.7212205439056576
    x1653  r19  0.059349685357767266
    x1653  r168  0.004945176190550074
    x1653  r520  4.7207468207174815e-07
    x1653  r521  1.0859663263427524e-06
    x1653  r1165  1.8182935173931742e-06
    x1653  r1166  4.3412132944244975e-06
    x1654  OBJ  0.00027314762380476534
    x1654  r7  6217.30053697804
    x1654  r739  393982.4908435212
    x1655  OBJ  0.1138124548496842
    x1655  r40  0.0021426530027638187
    x1655  r41  1.0213453452079795
    x1655  r298  6.030660989487799e-06
    x1655  r312  0.12634646142488823
    x1656  OBJ  -25.96703871559692
    x1656  r383  0.002968544121476278
    x1656  r408  -0.005559915810223486
    x1656  r922  0.00581935861513657
    x1657  OBJ  7.936460421434901e-08
    x1657  r273  2.2868297133785926
    x1657  r995  0.028617337136210275
    x1657  r996  9972.156117036053
    x1658  OBJ  6.7541203540620005
    x1658  r3  1.2388168269663464
    x1658  r222  0.0005492034122685593
    x1658  r364  -0.0030607035373583654
    x1658  r824  0.8357907664945028
    x1658  r909  6.94961515360934e-08
    x1659  OBJ  670.5851032348588
    x1659  r672  -0.0021265496258574207
    x1659  r764  1.6395162832810117
    x1659  r950  1.1937142768240228
    x1659  r951  0.0008583320243296357
    x1660  OBJ  -0.007902216632436088
    x1660  r78  1.700628586814632
    x1660  r559  -2.2607038819302105
    x1660  r730  21.637306417404023
    x1660  r731  0.8727362719754899
    x1660  r863  1022.4988022186757
    x1661  OBJ  -1.9007581476157989
    x1661  r388  -17715.09967385085
    x1661  r1069  7103.364080048399
    x1661  r1085  10440.558950987293
    x1661  r1086  8391.782527746118
    x1662  OBJ  0.3459097309238263
    x1662  r85  4.883059697418532e-06
    x1662  r86  31.51230763981002
    x1662  r395  9.293901168003414e-08
    x1662  r396  5.8595584067880036e-05
    x1662  r885  -0.011450683743032493
    x1662  r886  -0.03208060983843162
    x1662  r1033  21.635487653352097
    x1663  OBJ  0.0823558689658568
    x1663  r212  0.02315441648713201
    x1663  r492  -0.4073766530641787
    x1663  r719  0.08282163329711277
    x1663  r814  -173.84637491254367
    x1663  r1085  10275.726717865797
    x1663  r1086  8259.295726952034
    x1664  OBJ  0.1237296481311309
    x1664  r315  247.77209659988748
    x1664  r316  27.453266217191235
    x1664  r964  -3213.6517808068543
    x1664  r1105  -124.82316821638096
    x1664  r1106  -1870.5584153130826
    x1665  OBJ  -376.1569297421776
    x1665  r135  0.0019441220666260495
    x1665  r136  0.0017811788209114105
    x1665  r202  -0.020027878378287355
    x1665  r650  -0.07994809379187862
    x1665  r651  -0.0008875009012463466
    x1665  r723  0.019022602079250158
    x1666  OBJ  1.2550583745570352
    x1666  r687  0.00041829038161146984
    x1666  r718  0.0003008362057212918
    x1666  r1079  0.06395837249992786
    x1667  OBJ  24.263704844930377
    x1667  r363  525.0160390028595
    x1667  r554  3.9087675167619467
    x1667  r745  13.187548541974966
    x1667  r746  0.01961754207097814
    x1667  r852  -7.883654922213891e-05
    x1668  OBJ  -0.03163195092959733
    x1668  r214  0.02242451225777168
    x1668  r880  12733.244768628461
    x1668  r881  1249.2947194350756
    x1668  r1003  -90.2911812681538
    x1669  OBJ  4.909648398186729
    x1669  r409  2.6040533674913537
    x1669  r852  -1.1233013720137232e-05
    x1670  OBJ  35145.4815530259
    x1670  r52  -10.499475163949981
    x1670  r292  1.3452601750215375e-05
    x1670  r1005  0.06898326110923868
    x1670  r1006  0.02193106155240963
    x1671  OBJ  -241.18863788028224
    x1671  r389  1.5017927868091037
    x1671  r724  0.11181419995128578
    x1672  OBJ  0.05266646287470541
    x1672  r12  -22.028149415752985
    x1672  r19  -111.10809156947826
    x1672  r288  210.0765632235285
    x1672  r412  0.00024231974520495317
    x1672  r1149  1139.2494373815973
    x1672  r1159  -0.0026854841112416753
    x1673  OBJ  -0.7401912738261555
    x1673  r607  9.131914738505685e-05
    x1673  r772  3.410141048264527e-05
    x1673  r780  0.503400516742258
    x1673  r781  25.89951407876042
    x1673  r885  0.15926523427026193
    x1673  r886  0.4462026858928491
    x1674  OBJ  0.13799783612672945
    x1674  r253  0.01046183107038587
    x1674  r558  -0.6904540699090255
    x1675  OBJ  -40.149730588007465
    x1675  r378  0.0002678250514720039
    x1675  r410  17.629586274732667
    x1675  r411  22.629560879098577
    x1675  r554  -74.5249366471997
    x1675  r685  -1.2800330851795223
    x1675  r686  -0.5943473187304602
    x1676  OBJ  -0.2675872287701413
    x1676  r63  9.487222288106253
    x1676  r259  -2568.093469192341
    x1676  r394  -125343.32702911884
    x1676  r1118  3313.365747174392
    x1677  OBJ  0.13606911863857185
    x1677  r168  490.88198996567127
    x1677  r595  -716.7697636536116
    x1677  r596  -6135.630472995443
    x1678  OBJ  -34.59917098737236
    x1678  r322  -1.4618864489059586
    x1678  r373  -1.4243189104721724e-06
    x1678  r647  0.4551666748511291
    x1678  r1044  -2.40343543867204
    x1679  OBJ  1208.115696707511
    x1679  r28  1.79125464024984e-05
    x1679  r188  -8.409892741000919e-05
    x1679  r970  0.014612753120373126
    x1679  r971  0.005987653229513438
    x1679  r1133  -3.3354874393921343
    x1680  OBJ  -0.6009443950038519
    x1680  r27  -0.27387577832684706
    x1680  r322  -46.260811687451046
    x1680  r1112  -0.010800663148869244
    x1681  OBJ  -4.0480029384151835e-05
    x1681  r282  0.036107824923149553
    x1681  r672  29.260654224294054
    x1682  OBJ  0.0022487127446036187
    x1682  r49  0.00952391279608556
    x1682  r538  -15.679540438916947
    x1682  r643  0.15342785351373855
    x1682  r710  -90798.45183151637
    x1682  r711  -1366.772435205701
    x1682  r985  1.3509371488001014
    x1682  r986  3028.6987117764897
    x1682  r1112  -0.034680040260216045
    x1683  OBJ  4.587031511868256
    x1683  r267  0.10022633796876357
    x1683  r699  2.7217634169189315
    x1683  r820  197.00352908466212
    x1683  r821  0.001502292134931464
    x1683  r900  -1.5791842141173582
    x1683  r901  -4029.822203535336
    x1684  OBJ  -0.0011656665070089033
    x1684  r108  326.5275736163151
    x1684  r115  -106.99167787404146
    x1684  r116  -0.7593569338714606
    x1684  r608  482.4431907096281
    x1684  r627  9043.25144975571
    x1684  r885  8.684263730475447
    x1684  r886  24.330117111211433
    x1684  r1150  9622.070157097667
    x1684  r1151  0.22057571984601154
    x1685  OBJ  158.55279143276363
    x1685  r42  9.391878567037195e-06
    x1685  r702  0.35375730881807954
    x1685  r778  2.134199667129191e-06
    x1685  r1037  0.732242039633955
    x1686  OBJ  -20.966264929519802
    x1686  r184  1732.1708150073553
    x1686  r188  -0.017916406223760072
    x1686  r417  -0.0005619553172455588
    x1686  r764  -967.0156281427732
    x1686  r923  1.7049888038659264
    x1686  r982  0.0006846496024914802
    x1687  OBJ  -14.107705682204355
    x1687  r142  0.11112291202128052
    x1687  r599  1634.693189228089
    x1687  r640  9.76434109844749
    x1687  r641  0.0013823367946895564
    x1687  r698  -0.028247442764702643
    x1687  r927  92.59572726635083
    x1688  OBJ  -0.0007160238882604356
    x1688  r129  -72.82019675590315
    x1688  r192  -16.960071448348057
    x1688  r594  287.4481620207644
    x1688  r979  -78659.04319958523
    x1688  r1102  -6.43296730980828
    x1688  r1197  -0.6939211546149131
    x1689  OBJ  106.74587747216314
    x1689  r288  5.072880598364736
    x1689  r825  -21.9348528140355
    x1689  r826  -0.013063505683563162
    x1689  r830  -2.547871569495154
    x1689  r831  -0.7720064942750385
    x1689  r942  7.499671191364618
    x1690  OBJ  -19641.30215022214
    x1690  r417  1.1987481228753644e-07
    x1690  r442  0.0004903632030809418
    x1690  r485  9.287417333675062
    x1690  r486  0.0001797401643718869
    x1690  r673  3.497690451589554e-05
    x1691  OBJ  -18.146931428164045
    x1691  r254  -0.9584845433175834
    x1691  r334  6.024837906178189e-07
    x1691  r362  8.425415429764339e-07
    x1691  r470  1.0239273956428622e-06
    x1691  r471  9.806811690591294
    x1691  r542  -0.00450793695582543
    x1691  r570  0.001322817488733525
    x1691  r571  2.584481820207163e-05
    x1691  r943  -0.04409143816031638
    x1691  r954  -21.480462313614733
    x1692  OBJ  -845.9994067492936
    x1692  r573  -30.153539463548622
    x1692  r602  -1.0356778729579036e-05
    x1692  r1028  1.7655383182439005e-06
    x1693  OBJ  -0.05224443707465623
    x1693  r218  -2.881419686211266e-05
    x1693  r239  6050.0025176788195
    x1693  r769  5014.967337789525
    x1693  r1190  0.22825537250245645
    x1693  r1191  0.0017891539745983514
    x1693  r1192  0.00029260897587925693
    x1694  OBJ  0.04946064656652283
    x1694  r463  0.8202459015950258
    x1694  r573  91678.56810724894
    x1695  OBJ  41.30785190656878
    x1695  r102  0.0671306500692807
    x1695  r399  5.597911831527895
    x1695  r803  1.4612584291516633
    x1695  r1033  140.15389613245827
    x1696  OBJ  0.025054258682013192
    x1696  r282  0.07290245984853123
    x1696  r784  0.021094869792295586
    x1696  r962  5111.800923548668
    x1697  OBJ  0.2364386744764848
    x1697  r75  0.46198458553216437
    x1697  r76  89700.21740257353
    x1697  r713  -0.19167631292346496
    x1697  r812  0.008835825148158201
    x1697  r825  33434.950805360655
    x1697  r826  19.912496043556843
    x1697  r1148  0.04877049204894456
    x1697  r1170  -40708.63466365694
    x1697  r1171  -0.014464558521967109
    x1698  OBJ  0.0007714043615100306
    x1698  r410  4632.240744430349
    x1698  r411  5946.003059809018
    x1698  r495  230.61358170418185
    x1698  r496  110692.42895964601
    x1698  r1128  9.421338508834177
    x1699  OBJ  -1.2427964363429262
    x1699  r664  35.01011128618597
    x1699  r984  -8.891180541014292e-05
    x1699  r1153  0.03356820401890165
    x1700  OBJ  -0.3581728870487944
    x1700  r124  2.46810611160436e-05
    x1700  r278  -5.964940685715186e-06
    x1700  r812  4.826474408999388e-06
    x1701  OBJ  -6.510459558164635
    x1701  r15  0.6137586140603604
    x1701  r16  0.1183191667593736
    x1701  r279  3.695024501941575
    x1701  r470  6.339826555690271e-06
    x1701  r471  60.72059937768292
    x1701  r640  0.9099881407442915
    x1701  r641  0.00012882693025563984
    x1701  r1092  7.495504520906608
    x1702  OBJ  -4.212511964187647
    x1702  r197  -0.5644212934493412
    x1702  r363  44.364778154001506
    x1702  r595  0.31791524421230427
    x1702  r596  2.721390548445987
    x1702  r712  0.030883034447397397
    x1702  r1037  -0.21957211379110034
    x1703  OBJ  3353.959935858787
    x1703  r297  4.868989148776595e-07
    x1703  r610  0.0013519635119051579
    x1703  r611  0.00038506968453777107
    x1704  OBJ  -0.38016782574719166
    x1704  r50  -0.6268221953075616
    x1704  r51  -152114.34603238173
    x1704  r164  568.4129003389634
    x1704  r720  17157.065194841063
    x1704  r721  0.26134144214078053
    x1704  r870  3.1391262490963627
    x1704  r871  0.04323086798368531
    x1705  OBJ  -27.468635554292256
    x1705  r279  46.052144073771494
    x1705  r434  0.01823818907691815
    x1705  r703  0.0025891318220012194
    x1706  OBJ  -148.61835053526167
    x1706  r225  -0.10093645193058026
    x1706  r226  -16.383169673911983
    x1706  r473  0.0006034359920561958
    x1706  r1055  -0.0007381746738044568
    x1706  r1056  -0.0002024367816500833
    x1707  OBJ  112.57943605737705
    x1707  r39  6.743901812848281
    x1707  r153  0.0001106692880146457
    x1707  r215  0.0031919184424200908
    x1707  r216  7.285302639018878e-05
    x1707  r1139  -2.0411722473272426e-05
    x1708  OBJ  0.00024210167193846891
    x1708  r667  0.15245257478786287
    x1709  OBJ  6.002021981017735
    x1709  r348  5.1937639953365244e-05
    x1709  r1085  -1.3663047774725157
    x1709  r1086  -1.0981914486566515
    x1710  OBJ  -12.719971345553274
    x1710  r317  -0.11665818758538993
    x1710  r670  5.2029794586781986
    x1710  r671  1.7271293468254632e-05
    x1710  r678  -0.04694158194754952
    x1710  r882  0.07719715993273626
    x1711  OBJ  21.30384937618143
    x1711  r504  1.3427977701381722e-05
    x1711  r954  36.141040361102355
    x1711  r1194  0.05484833276676532
    x1712  OBJ  0.08270369916340602
    x1712  r258  -16.518128199626847
    x1712  r532  0.24566829438385265
    x1712  r820  -50144.36539791721
    x1712  r821  -0.38238647854905594
    x1712  r845  -590869.0756295368
    x1712  r846  -80.65672617955323
    x1712  r1120  3847343.6229393925
    x1712  r1121  27545.063641478027
    x1712  r1190  6352.073750475681
    x1712  r1191  49.790013146275946
    x1713  OBJ  0.03458253763905135
    x1713  r118  0.01018598076824139
    x1713  r168  47.94218911736771
    x1714  OBJ  -0.03271010762553938
    x1714  r565  4.896898732710879
    x1714  r566  0.004155008911797461
    x1714  r1054  0.3810659184044442
    x1714  r1159  0.001676615000937669
    x1715  OBJ  17.038810205906206
    x1715  r317  -0.6017075710206145
    x1715  r364  -0.01599214036371913
    x1715  r542  0.014495724391156104
    x1715  r785  13.227494611589062
    x1715  r786  0.0009264978371363499
    x1715  r935  -74.52714054580609
    x1715  r936  -2.358853208709437e-06
    x1716  OBJ  3.335017792512182
    x1716  r308  -0.00430908280958466
    x1716  r397  9.909255582930406e-06
    x1716  r543  1.1602517803194084e-05
    x1717  OBJ  -17.83742827178486
    x1717  r582  0.21105459911001237
    x1718  OBJ  -0.0018877480764027082
    x1718  r104  14602.181869816197
    x1718  r510  -0.04080956678991138
    x1718  r511  -2.1811284092120915
    x1719  OBJ  1172.7951963532716
    x1719  r122  -0.41000196758892865
    x1719  r1167  -46.29270588585437
    x1719  r1182  0.00022676752198470135
    x1720  OBJ  -238.79491278558478
    x1720  r28  1.3885977438038787e-05
    x1720  r255  0.008400906807186418
    x1720  r256  1.0858071616583005
    x1720  r958  -0.7904818095027146
    x1721  OBJ  0.006983389665718229
    x1721  r243  -1173.1323792407934
    x1721  r398  -0.007434731360802993
    x1721  r605  0.0012731757082689395
    x1721  r606  36.19454440428614
    x1721  r737  13487.700537916862
    x1722  OBJ  -0.08716921354821938
    x1722  r715  -14.619811733738763
    x1722  r716  -10.136117363840214
    x1722  r1003  28.144411000266274
    x1722  r1010  -0.0023481019881628202
    x1722  r1011  -0.005490968496210404
    x1722  r1073  0.1549854847190491
    x1723  OBJ  -0.2952420240076846
    x1723  r17  -0.012804524252897092
    x1723  r730  -0.019531717126315337
    x1723  r731  -0.0007878077641119531
    x1723  r784  0.00012326922190585644
    x1724  OBJ  -2031.4420800622258
    x1724  r7  0.03631647298858172
    x1724  r325  -0.10415718867361451
    x1724  r326  -0.0006816521486423505
    x1724  r355  0.022517007381189783
    x1724  r356  0.004501459609224734
    x1724  r514  -0.07463670645801172
    x1724  r827  0.014957484075461927
    x1724  r898  -0.19222711216108723
    x1725  OBJ  1.7855020956257381
    x1725  r99  0.43539457480894944
    x1725  r545  -0.00021133117989062717
    x1725  r546  -1.9276641897416096
    x1725  r790  0.00023026763105222787
    x1725  r791  1.8819676931191132
    x1725  r832  109.98471933126758
    x1726  OBJ  -1292.1314829464018
    x1726  r625  2.0277596095822692e-05
    x1726  r626  3.8953142278163284
    x1726  r683  1.254253361842212e-05
    x1726  r717  0.0032642282949020248
    x1726  r749  -0.07971567292996794
    x1727  OBJ  -0.0015900828397885014
    x1727  r214  -24.399081074574276
    x1727  r448  -0.6848158866650399
    x1728  OBJ  -0.028294726156985032
    x1728  r17  -0.18733195652460005
    x1728  r69  30090.98042385911
    x1728  r532  0.03607947683704563
    x1728  r908  28806.573491349627
    x1729  OBJ  0.19916554254362062
    x1729  r2  1063.3237975293575
    x1729  r5  -1.3821651670009607
    x1729  r6  -0.051010663272388776
    x1729  r97  -22460.54328485942
    x1729  r128  -10.745048909225181
    x1729  r175  0.01568396991610656
    x1729  r176  447.08708745304625
    x1729  r1024  -21.92200597183795
    x1730  OBJ  -0.3448378351113145
    x1730  r842  0.13178921874008773
    x1730  r1042  0.0009376193476047356
    x1731  OBJ  132.49247583752825
    x1731  r1147  10.801398363473842
    x1732  OBJ  0.19111178359426065
    x1732  r905  0.009946661342844755
    x1732  r906  12.496024877507015
    x1732  r920  26.905496267353136
    x1732  r921  14585.007704678581
    x1733  OBJ  2.5801488805616445e-05
    x1733  r1034  -0.10774287151240002
    x1733  r1194  8835.788615775702
    x1734  OBJ  0.7572073990635254
    x1734  r1172  168.26043377132277
    x1735  OBJ  -0.08564623607253774
    x1735  r8  907.3443476836928
    x1735  r60  25.872092241032874
    x1735  r61  0.6384739699295128
    x1735  r137  -0.00014059375733663787
    x1735  r158  0.0005911153293917114
    x1735  r497  -5.205575699713067
    x1736  OBJ  -0.06311778572171385
    x1736  r99  0.5485490561736815
    x1736  r494  32.97846557725983
    x1736  r607  -0.03426886816990849
    x1736  r702  -29.385227047937693
    x1737  OBJ  0.00026944306596942807
    x1737  r458  -1858511.5521663364
    x1737  r1075  -436.3643566392148
    x1737  r1076  -10750.36844246796
    x1738  OBJ  0.2452616615292368
    x1738  r67  -0.316965303524469
    x1738  r105  0.009646606252936816
    x1738  r106  9.278887414106047e-06
    x1738  r282  -1.7392943921700187e-05
    x1738  r564  0.6339021307801085
    x1738  r910  0.00013790729012169126
    x1738  r911  0.09966802305071916
    x1738  r913  -0.022555047885063274
    x1739  OBJ  17.329138961238225
    x1739  r338  0.0008322021606309446
    x1739  r918  0.3133895761225077
    x1739  r974  3.156167638625076e-05
    x1739  r1002  -2.7847357071009726e-05
    x1740  OBJ  3.426546197730658
    x1740  r225  -59.103728000772506
    x1740  r226  -9593.228072484237
    x1740  r992  7.16065158493566
    x1741  OBJ  -177.57636107446407
    x1741  r5  0.0008958115212550902
    x1741  r6  3.306112826256603e-05
    x1741  r77  0.0016798485306889672
    x1741  r92  -3.618477537861772
    x1741  r317  -0.559603661057986
    x1741  r722  18.257243094120522
    x1741  r919  0.0022570944503541635
    x1741  r1130  -0.2355487629719244
    x1741  r1131  -0.026012109060561034
    x1742  OBJ  0.0046283566106181655
    x1742  r117  529.8813529260666
    x1742  r545  0.00012680752189322725
    x1742  r546  1.156678910655581
    x1742  r742  1030.5469919370428
    x1743  OBJ  -38.1788874851382
    x1743  r410  -0.04093410012081059
    x1743  r411  -0.05254353087358803
    x1743  r428  -10.58578635965726
    x1743  r759  1.0126387227732022e-05
    x1744  OBJ  0.029873687284681563
    x1744  r434  37.85009881610278
    x1744  r670  -333580.018240822
    x1744  r671  -1.10731907283882
    x1744  r680  624077.4280288492
    x1744  r681  85.55978516473682
    x1744  r738  0.49855976584316786
    x1744  r793  -77.53375755927888
    x1745  OBJ  -0.00013421055057310317
    x1745  r319  8462.333218125814
    x1745  r380  333.53843799791014
    x1745  r381  207.36146729237765
    x1745  r399  2935.859997322524
    x1745  r737  -11702.24722628031
    x1745  r807  3.8880796587190978
    x1745  r852  0.02512768495888696
    x1745  r932  1474.3581409487954
    x1746  OBJ  0.7943360870966804
    x1746  r128  0.0002928095617924904
    x1746  r353  5.4894999722040655e-06
    x1746  r384  0.06147528741331983
    x1746  r527  -0.004902480376653935
    x1746  r683  2.670475212303663e-05
    x1746  r790  -5.845701288987714e-06
    x1746  r791  -0.04777667151578226
    x1746  r954  225.2447837316244
    x1747  OBJ  8.242733418697714e-05
    x1747  r188  -0.10665750107798565
    x1747  r500  -12413.398823129644
    x1747  r501  -1.290429317588082
    x1747  r965  1197.9117334154912
    x1747  r966  114.93863423612537
    x1748  OBJ  -7.098280629796158
    x1748  r40  0.0075547992821332
    x1748  r41  3.601170637912133
    x1748  r117  -5.087232420481963
    x1748  r310  0.003053949895542767
    x1748  r311  0.8158617111688379
    x1748  r438  -9.005824808456079e-05
    x1748  r728  0.001034058556185827
    x1748  r865  -10.823351643539924
    x1748  r866  -2.9109618342473916e-05
    x1748  r1084  -26.168381681989764
    x1749  OBJ  19.069745616417226
    x1749  r724  0.18889626348471064
    x1749  r1023  3.7824648171469e-05
    x1749  r1143  6.030568481300865e-06
    x1750  OBJ  -0.0908348267672247
    x1750  r224  1390.7106753012163
    x1751  OBJ  4.799425535352951
    x1751  r1018  2.538131681858447
    x1752  OBJ  -0.1370980146970479
    x1752  r89  -5.17478133915597
    x1752  r745  10905.232361567225
    x1752  r746  16.222412677072022
    x1752  r805  -4.755885123445501
    x1752  r806  -0.5222605741008459
    x1752  r874  -1.5925329036374964
    x1753  OBJ  -0.00047151943586439714
    x1754  OBJ  -0.007229057293934213
    x1754  r309  -0.013542640534802561
    x1754  r318  -0.08766972133325526
    x1754  r589  -44.233133411752924
    x1754  r729  -33.95308146290836
    x1754  r1188  0.010011721804272549
    x1755  OBJ  0.24611492670021085
    x1755  r238  -19.757806471436357
    x1755  r528  -0.006451934947632332
    x1755  r695  0.07494256777736023
    x1755  r696  8.602892838194379
    x1755  r758  -0.4687600033062813
    x1756  OBJ  -216.550788451884
    x1756  r190  1.8697142704828504
    x1756  r191  0.07941160361296747
    x1756  r208  -4.23070907059535e-05
    x1756  r332  0.00010202873199153551
    x1756  r775  285.8205619070627
    x1756  r776  0.00041476683371556783
    x1756  r1007  -0.049569403312777684
    x1757  OBJ  -5.010894049539207
    x1757  r692  0.43559236404905166
    x1758  OBJ  -0.09196020640245599
    x1758  r394  339.11595002750033
    x1758  r744  0.011007688459230995
    x1758  r1092  -37.60580284927443
    x1759  OBJ  0.10399520553451974
    x1759  r340  -20206.231602039366
    x1759  r341  -8.191044998026543
    x1759  r598  0.0682936731862641
    x1760  OBJ  0.8858328459366714
    x1760  r140  16041.294302846542
    x1760  r141  37.90598454788568
    x1760  r218  -0.00018139433715592685
    x1760  r235  -3.022708573427562
    x1760  r236  -40.30800522296148
    x1760  r473  -0.16429656634415207
    x1761  OBJ  281.36140722872193
    x1761  r178  0.05756385400239881
    x1761  r430  3.400340516805247e-05
    x1761  r431  65.41370816726528
    x1761  r623  -28.520550767472475
    x1761  r1098  -1.4156522025345024e-05
    x1762  OBJ  -0.3492208019093668
    x1762  r952  -0.00019872281483737016
    x1763  OBJ  0.00032518999244873553
    x1763  r277  1.1881700944861204
    x1763  r447  -156884.46697137848
    x1763  r703  4.576355120891588
    x1763  r1157  -4.015120751640295
    x1764  OBJ  22.714994495492114
    x1764  r478  -29.885060362174066
    x1764  r664  5.371817636202237
    x1765  OBJ  -3.35857606669902
    x1765  r443  1.5283268020581094e-05
    x1766  OBJ  -0.05985117222268293
    x1766  r3  824.8271335640317
    x1766  r480  0.005364721515508915
    x1766  r481  7966.472530364798
    x1766  r742  2752.2460397782534
    x1766  r1042  0.0029285597663146166
    x1766  r1054  -16.34412440032893
    x1767  OBJ  -1.046135537651758
    x1767  r265  119.35711910940958
    x1767  r266  0.0007988201352038528
    x1767  r315  -549.7589748034669
    x1767  r316  -60.91355603670732
    x1768  OBJ  0.11623804494952003
    x1768  r42  0.312944616015572
    x1768  r130  796.1231238796071
    x1768  r131  470.4874202250347
    x1768  r293  -1424.2910154583333
    x1768  r308  17.29249817301286
    x1768  r772  0.34553101723567403
    x1768  r975  26.398686320292256
    x1768  r976  1020.8610782876874
    x1768  r1175  0.06868315754291687
    x1768  r1176  30.996625786848778
    x1769  OBJ  5.047956673075204
    x1769  r123  0.17156006827715345
    x1769  r813  2.31125492781535
    x1769  r978  43.18009214625817
    x1769  r1152  0.004327666170023381
    x1770  OBJ  -92.44567618400409
    x1770  r8  6.47092779095461
    x1770  r280  0.00901094074294653
    x1770  r281  1.805330304764199e-05
    x1770  r284  3.457749983507576
    x1770  r405  -0.012132449581486102
    x1770  r406  -2.1675475330701742e-05
    x1770  r810  9.127871472764286e-05
    x1770  r811  0.0006540638941003168
    x1771  OBJ  0.1979914274894251
    x1771  r114  -66.08957227680396
    x1771  r260  6.676289698091195e-05
    x1771  r261  0.27575196604586594
    x1771  r419  1.763713484401909
    x1771  r474  -0.00035739051026197283
    x1771  r530  -3.2913609122483364e-05
    x1771  r531  -0.005942292919350219
    x1771  r1040  -0.0540176186457544
    x1771  r1041  -0.0005457394239357678
    x1772  OBJ  2.6365405072469796
    x1772  r25  1.2273360962085011e-06
    x1772  r26  0.0028418879488764258
    x1772  r135  0.0011504312230142869
    x1772  r136  0.0010540098096332173
    x1772  r563  -0.008727053469358936
    x1772  r713  -3.0341437903331716e-05
    x1773  OBJ  -0.07364314448784796
    x1773  r277  0.0633397034780515
    x1773  r342  3.507626245884439
    x1773  r355  -92.6267125958713
    x1773  r356  -18.5173543902596
    x1773  r360  -0.03115763448490745
    x1773  r361  -59961.08361330171
    x1773  r645  0.00014707154159800413
    x1773  r646  0.043053742149788424
    x1773  r683  0.03421296537374914
    x1773  r787  2.0585443020721055
    x1773  r1135  -3.740420112415639
    x1773  r1136  -22.007369772531483
    x1774  OBJ  0.0054427389467549565
    x1775  OBJ  7.053566349563543e-05
    x1775  r88  -37.45561681741069
    x1775  r377  -0.15008868431012995
    x1775  r1135  58.203626564185015
    x1775  r1136  342.45049844765146
    x1776  OBJ  0.01751947448337023
    x1776  r93  -5.523730072975369
    x1776  r328  1011.7877729271711
    x1776  r865  136838.10118650616
    x1776  r866  0.36802877994133315
    x1776  r902  -7.288893557660642
    x1776  r980  -19.256673709030935
    x1776  r981  -0.025072418253201913
    x1777  OBJ  -18550.365438746296
    x1778  OBJ  -0.12570982149844798
    x1778  r534  -13737.080609377772
    x1778  r1089  0.03205113332279999
    x1779  OBJ  0.3658637330132416
    x1779  r200  52339.76061720215
    x1779  r201  0.0017724303210371335
    x1779  r247  242164.17608232048
    x1779  r499  20.26329597577644
    x1779  r627  -5969.571005947048
    x1779  r835  -5660.371603618582
    x1779  r836  -240322.75169409238
    x1779  r1069  -53712.68100639926
    x1780  OBJ  -0.01038689308671314
    x1780  r124  0.02526698217638828
    x1780  r508  196.84083851151013
    x1780  r520  0.04490938546365634
    x1780  r521  0.1033100952083365
    x1780  r558  -9.125271733236007
    x1781  OBJ  -0.037670440325463336
    x1781  r23  2.24794707011087
    x1781  r213  -0.7346885422523953
    x1781  r1080  316.5780130606375
    x1781  r1081  0.19740738098985897
    x1782  OBJ  -12084.210866317177
    x1782  r407  7.658832334980896e-05
    x1782  r537  -0.0012416106505823295
    x1782  r645  -5.622435206410401e-07
    x1782  r646  -0.00016459124110654652
    x1782  r710  54.08159905382696
    x1782  r711  0.8140803873592101
    x1783  OBJ  -542.7065510502566
    x1783  r354  6.281619101895489e-05
    x1783  r357  -0.9650895400629094
    x1783  r893  8.98630785345285e-05
    x1783  r933  -2.2829563825028323e-05
    x1783  r1008  -0.5815960986622306
    x1784  OBJ  -0.0002995336792045305
    x1784  r5  2.83357034557414
    x1784  r6  0.1045767222381522
    x1784  r408  -111.45653360287818
    x1784  r644  62593.57783107697
    x1785  OBJ  1.761208264267174e-05
    x1785  r44  350.61334680057365
    x1785  r73  -27.163627157549573
    x1785  r447  373665.4287291005
    x1785  r523  126261.0430284328
    x1785  r762  -2172.4300510717303
    x1786  OBJ  -0.0028412548886839264
    x1786  r30  96.46765898841538
    x1786  r31  6691.6079222878325
    x1786  r448  -0.0016719044550717714
    x1786  r754  2.771477345198603
    x1787  OBJ  0.0020344953538140496
    x1787  r130  69.88074912753429
    x1787  r131  41.29764906235584
    x1787  r274  0.0007974792287718388
    x1787  r729  147.02235759920097
    x1787  r982  -0.001384992722450236
    x1787  r1109  0.008917471273982236
    x1787  r1145  5.350336022991019
    x1787  r1146  5.737880104119297e-07
    x1788  OBJ  -4.852257763455491
    x1788  r458  186.8136201594665
    x1788  r802  4.292650198776553
    x1788  r980  0.014159591532719637
    x1788  r981  1.843595662299399e-05
    x1788  r1142  1.2497516729353313
    x1789  OBJ  -0.08130990320259884
    x1789  r89  2.428127292031013
    x1789  r904  3966.6853477663203
    x1790  OBJ  7.542000394655488e-05
    x1790  r35  587.2665033695447
    x1790  r36  170.57110331035935
    x1790  r45  91481.57589096237
    x1790  r46  0.015588553606088329
    x1790  r138  120917.13376449236
    x1790  r868  -584.0220367421693
    x1790  r884  -8580.90556140828
    x1790  r922  -38.96345903311537
    x1791  OBJ  -17251.307273263155
    x1791  r669  3.9596968035443037e-07
    x1791  r980  0.0002207843459754485
    x1791  r981  2.874638449868949e-07
    x1792  OBJ  5.303891804909846e-05
    x1792  r145  -0.23472834834129044
    x1792  r146  -425.1840977520529
    x1792  r335  32.140842691070475
    x1792  r336  0.2235333620700846
    x1792  r495  12.0900765886995
    x1792  r496  5803.127179334863
    x1792  r632  -32.56770252083027
    x1792  r1035  -0.01227525536793383
    x1792  r1036  -3941.7872121645346
    x1793  OBJ  -8.323540946373371e-05
    x1793  r322  4424.293669711328
    x1794  OBJ  -27.93538483513794
    x1794  r87  3.063106899384091e-05
    x1794  r789  -5.329066959061749
    x1794  r797  0.051390785732256014
    x1794  r1084  -6.501773803115247
    x1795  OBJ  -0.07546979863184924
    x1795  r388  23759.628697061256
    x1795  r484  -0.00400763111802453
    x1795  r1142  -446.00463145705623
    x1796  OBJ  -290.6541563067143
    x1796  r292  -0.00010660806057098109
    x1796  r298  -7.654886552870107e-06
    x1796  r435  0.022562553973090635
    x1796  r436  0.18173732010115826
    x1796  r557  -0.0003605686553657886
    x1796  r737  32.372572162487494
    x1796  r760  8.588140731860028e-05
    x1796  r761  3.5290184520286175e-06
    x1796  r875  4.659037643370911e-05
    x1796  r876  0.09262496633287204
    x1796  r933  -0.00010620563124355418
    x1796  r1093  -0.0009188818874008522
    x1797  OBJ  -2.6153489059571666
    x1797  r698  1.7215393542917872e-05
    x1797  r932  0.8646041568872246
    x1798  OBJ  1806.9781391577458
    x1798  r180  -6.426386150917997e-06
    x1798  r181  -3.1425077258263494e-07
    x1798  r190  0.051563012073312826
    x1798  r191  0.002190014560245681
    x1798  r755  0.624235888895009
    x1798  r756  8.536104584814654e-08
    x1798  r1039  -6.777046776101276e-07
    x1799  OBJ  2.4438603380282755
    x1799  r923  2.027250028631237
    x1799  r1002  0.19705027274853731
    x1799  r1080  -781.1883612460812
    x1799  r1081  -0.48712273781253035
    x1800  OBJ  -1.3254245199583101
    x1800  r225  0.8100906531554485
    x1800  r226  131.4872116866531
    x1800  r598  6.346014974325907e-05
    x1801  OBJ  -1543.1457407613807
    x1801  r919  0.0021526574640957953
    x1801  r939  -7.748362075710295e-09
    x1801  r1189  2.693054945114585e-05
    x1802  OBJ  -0.0014233156888595817
    x1802  r189  -2013.807598337427
    x1802  r230  2.262028787344153
    x1802  r231  199793.4243197371
    x1802  r419  7445.449803159681
    x1802  r482  9916.504320391407
    x1802  r609  -132352.3740840838
    x1802  r804  304.4569061880149
    x1802  r837  -28436.95953245611
    x1802  r1109  0.7644405664332441
    x1803  OBJ  -13.591242443588577
    x1803  r29  707.8306223731229
    x1803  r384  0.2977665999412321
    x1803  r387  -5.435131837557102e-05
    x1803  r619  -10.454839996258482
    x1803  r944  0.005388513373309522
    x1804  OBJ  17.037132630337624
    x1804  r154  -0.1881779511934071
    x1804  r199  0.9745097250773921
    x1804  r287  18.31322367180911
    x1804  r404  0.002550278943880713
    x1804  r729  2.3733659813268675
    x1804  r782  36.12401558069864
    x1805  OBJ  0.4394210842559752
    x1805  r85  -0.0007667685448870082
    x1805  r86  -4948.25944638413
    x1805  r123  4.209298515111099
    x1805  r332  -0.01796467678675556
    x1806  OBJ  0.019940830746382376
    x1806  r73  0.015137511746794972
    x1806  r587  44.16228895527161
    x1806  r730  0.013456591366334265
    x1806  r731  0.0005427688251022673
    x1807  OBJ  2867.4323570431757
    x1807  r12  0.6609385112425138
    x1807  r334  -7.272456114453684e-06
    x1808  OBJ  0.00012086095984726446
    x1808  r518  24968.127423997732
    x1808  r718  -0.28697962897868695
    x1808  r1080  363415.7112893863
    x1808  r1081  226.61379128203444
    x1809  OBJ  277.26594404307815
    x1809  r522  -2.1394800455836323e-06
    x1809  r584  3.5288098189161864e-05
    x1809  r1165  -2.5902401615369262e-06
    x1809  r1166  -6.1842518369298436e-06
    x1810  OBJ  0.02409371219555305
    x1810  r64  0.006751478974081191
    x1810  r292  0.04273633426460429
    x1810  r328  24.22536502300197
    x1810  r788  3.4788113593600816
    x1810  r964  -9258.209043765853
    x1810  r1028  -0.0007009709535177262
    x1811  OBJ  -8.022112205103097e-06
    x1811  r844  5699.591080955259
    x1812  OBJ  -79.96478343081165
    x1812  r243  2.1599984294146113
    x1812  r949  -41.12036475886587
    x1813  OBJ  0.00019552007335514048
    x1813  r482  159769.53638663294
    x1813  r514  18916.81996664347
    x1814  OBJ  -43.195715767162696
    x1814  r70  0.00525321040868299
    x1814  r71  0.00034873763778211673
    x1815  OBJ  -85.967759718403
    x1815  r407  0.00020832537507001843
    x1815  r534  82.60732638041866
    x1815  r890  0.48342838804759586
    x1815  r891  41.36640520237834
    x1816  OBJ  0.1417537456758788
    x1817  OBJ  -0.009292662559787265
    x1817  r879  -3.9405603219175838
    x1818  OBJ  -1.501778822890659
    x1818  r424  0.23542360826652478
    x1819  OBJ  8.279133443874838e-05
    x1819  r57  27.047557647528624
    x1819  r380  -5893.782965225604
    x1819  r381  -3664.1758320510553
    x1819  r529  29770.72729392184
    x1819  r749  -74.62336664582335
    x1820  OBJ  132.35760887869907
    x1820  r2  -4.749388011406192
    x1820  r137  -1.4315549486564425e-05
    x1820  r520  6.584296841698667e-05
    x1820  r521  0.00015146596342234997
    x1820  r708  4.8226464859507694e-05
    x1821  OBJ  -1.5329953701185053
    x1821  r598  0.00019787471389096046
    x1821  r664  92.96119069643457
    x1822  OBJ  0.8141019432057063
    x1822  r574  0.0002029695055936102
    x1822  r1190  -6.231220715780599
    x1822  r1191  -0.048842720274277274
    x1823  OBJ  121.55473234289535
    x1823  r405  -0.0025093960167138518
    x1823  r406  -4.4832126513217945e-06
    x1823  r584  2.186713982006655e-05
    x1824  OBJ  -0.0003334673085315003
    x1824  r374  -127840.10489417905
    x1824  r775  232957.73500410593
    x1824  r776  0.33805525219218224
    x1824  r879  -30.640686751168865
    x1825  OBJ  -3.094769849955323e-05
    x1825  r333  -681.4924068912735
    x1825  r348  1.0682507257975433
    x1825  r473  -3.457287398266164
    x1826  OBJ  0.4444338917590067
    x1826  r103  -0.1791363202363678
    x1826  r218  -0.0002816373964791916
    x1826  r940  0.610120860449027
    x1826  r941  506.9743023622594
    x1826  r980  -0.21395630897531404
    x1826  r981  -0.0002785736595840325
    x1826  r1087  5.083237567191877
    x1827  OBJ  0.0034106638787508047
    x1827  r397  0.002347133154965507
    x1827  r1159  0.03811092279781267
    x1828  OBJ  -31.54456456993356
    x1828  r42  4.8730867529202503e-05
    x1828  r422  -65.4223633463587
    x1829  OBJ  -5.441316309925105
    x1829  r207  0.001941894289126854
    x1829  r505  -4.303018959134532e-05
    x1829  r506  -0.24807882220895433
    x1829  r574  7.055683228400381e-05
    x1829  r923  0.011918572173830213
    x1829  r1188  -0.0005418019354020363
    x1830  OBJ  0.2520497401858078
    x1830  r125  -5754.720591119432
    x1830  r126  -0.1739388815681765
    x1830  r712  1216.54663859632
    x1831  OBJ  1.5793575345225739
    x1831  r255  -0.003891474595516467
    x1831  r256  -0.5029684392652204
    x1831  r282  1.28233340793778e-05
    x1831  r437  -0.05199969691529114
    x1831  r598  -4.998694248369267e-05
    x1831  r699  0.035479470293838855
    x1832  OBJ  2951.288764654302
    x1832  r802  0.05794505677779017
    x1832  r930  -0.9979488051066276
    x1832  r931  -0.0002625994460392453
    x1833  OBJ  0.03605894195481489
    x1833  r242  -11355.411515715605
    x1834  OBJ  0.0052870892494655645
    x1835  OBJ  1.9510266706653274
    x1835  r63  8.007289364774981e-05
    x1835  r194  1.724881015089243e-07
    x1835  r387  1.9304828157475735e-06
    x1835  r459  0.070283252499407
    x1836  OBJ  -0.0002570416953568372
    x1836  r787  1281.2807461844877
    x1836  r1095  -6.758998876045269
    x1836  r1096  -29599.83738339137
    x1836  r1178  1.1906344835736016
    x1837  OBJ  437.9497624778193
    x1837  r54  0.034200266945530286
    x1837  r140  64.62226575884391
    x1837  r141  0.1527040500010913
    x1837  r367  0.16698683213884552
    x1837  r694  -4.812444993669961
    x1837  r1167  -2.935444899154829
    x1838  OBJ  -910.1321362083918
    x1838  r214  0.00027290199571191194
    x1838  r1077  -0.0015097461722665788
    x1838  r1178  1.1635804679577018e-05
    x1839  OBJ  -22.399160077597095
    x1839  r249  -3.9314839787726615e-07
    x1839  r342  0.0009038035894321094
    x1839  r475  -5.9398372196579624e-08
    x1839  r476  -0.16646889338504803
    x1839  r950  -0.12157239482201365
    x1839  r951  -8.741579268684905e-05
    x1840  OBJ  -1.0476362800540662
    x1840  r285  37.01992681342909
    x1840  r286  0.03411295405839768
    x1840  r473  3.777057982882766
    x1840  r863  -1451.5596932898322
    x1840  r1039  0.0012799949002773152
    x1841  OBJ  -0.0006791426043007084
    x1841  r60  -1899.6909475910036
    x1841  r61  -46.88075512593968
    x1841  r287  90927.42275225412
    x1841  r479  -1.852263032147786
    x1841  r534  240722.24733348517
    x1841  r563  6.453605686287656
    x1841  r569  -314248.4673672225
    x1841  r715  146.73320451642124
    x1841  r716  101.73215696878623
    x1842  OBJ  1710.6539498531388
    x1842  r97  -0.31664666871664116
    x1842  r769  5.240127183684587
    x1842  r955  1.2150525292242696e-05
    x1842  r956  2.5018823279265117e-05
    x1842  r1177  -0.9019600815834024
    x1843  OBJ  3.6897361341764787
    x1843  r2  -110.11682973514972
    x1843  r33  0.5864660189877869
    x1843  r283  -1.0752205836914748e-05
    x1843  r1144  -1.563103225488753
    x1844  OBJ  -0.14684959029036448
    x1844  r709  37.9264931923093
    x1845  OBJ  -77.93268299989779
    x1845  r10  -65.34991197856729
    x1845  r11  -0.0001357264817807626
    x1845  r340  678.0751309507692
    x1845  r341  0.2748728223574317
    x1845  r518  -145.0281475463798
    x1845  r993  -17.67745308588436
    x1845  r1188  0.0023714170840605873
    x1846  OBJ  0.009311602456871428
    x1846  r399  239.22167294603463
    x1846  r488  -77.13273845153385
    x1846  r584  0.045453283703659975
    x1846  r1137  0.016713304387666716
    x1847  OBJ  -0.08907299559946902
    x1847  r87  0.3944692872649096
    x1847  r135  -41.240229338275626
    x1847  r136  -37.78375047938551
    x1847  r155  240.38252018472485
    x1847  r156  0.4055687614709442
    x1847  r1180  0.09348597698862185
    x1847  r1181  930.1633978074066
    x1848  OBJ  0.10187804223281574
    x1848  r53  156.1556310697897
    x1848  r182  0.011756062967147991
    x1848  r263  -0.002822755854920467
    x1848  r292  0.000385995879538196
    x1848  r670  607.374291951849
    x1848  r671  0.0020161793304559264
    x1849  OBJ  -0.004224642604001608
    x1849  r39  -690.2355026961051
    x1849  r194  -0.0002695586711434558
    x1849  r347  -0.0001734029293811147
    x1849  r389  -2660.4873361156538
    x1849  r709  48.52019243249867
    x1849  r1034  -0.00048409444302072657
    x1849  r1042  0.010086783443224516
    x1849  r1129  6.920781878464933
    x1850  OBJ  73.90220636968179
    x1850  r683  5.742149897600993e-06
    x1851  OBJ  5286.909818554972
    x1851  r83  0.007156795053587981
    x1851  r209  0.0014631346643522846
    x1851  r448  -1.195132577747151e-06
    x1851  r487  2.9258192066143964
    x1851  r528  3.021942374328861e-06
    x1851  r599  3.488617620811095
    x1851  r670  1.8855390352971846
    x1851  r671  6.259047971090899e-06
    x1852  OBJ  -0.013767826137617156
    x1852  r359  384.92872011069386
    x1852  r360  0.0017778431344877283
    x1852  r361  3421.3573206268293
    x1852  r549  0.08770607745171301
    x1852  r730  0.04234200536891541
    x1852  r731  0.001707856015012564
    x1853  OBJ  1230.4728951885154
    x1853  r107  9.477125517347245e-08
    x1853  r1098  -1.905960240111296e-06
    x1853  r1109  4.406233251623937e-06
    x1854  OBJ  -0.4972555190554583
    x1854  r354  0.5534808780708929
    x1854  r524  10174.504185808682
    x1854  r703  0.2784444515849933
    x1854  r873  3.778353094020756
    x1855  OBJ  -1383.5583374186617
    x1855  r197  0.16703900814738248
    x1855  r230  -3.2773854708270365e-05
    x1855  r231  -2.8947468294649243
    x1855  r415  7.061891227915918e-06
    x1855  r416  3.902772304853579e-06
    x1855  r833  -0.5169430846183217
    x1856  OBJ  -145.52512922713842
    x1856  r560  258.34060939254977
    x1856  r561  86.50051464988091
    x1856  r709  0.19264214823765347
    x1857  OBJ  -0.05386342005419021
    x1857  r282  0.032240566003208786
    x1857  r330  -8932.211650513216
    x1857  r331  -0.08435640144321203
    x1857  r669  -0.01801370126584361
    x1857  r908  14152.021831261729
    x1857  r929  5531.463490928588
    x1858  OBJ  0.002829989583760283
    x1858  r278  -0.0742372096153152
    x1858  r803  905.2546008827577
    x1858  r1063  2954.790009056037
    x1858  r1143  -0.05395883412466752
    x1858  r1174  316979.54125440953
    x1859  OBJ  0.027776503128252136
    x1859  r133  11038.03532331977
    x1859  r333  -27.942774711657993
    x1859  r403  0.4526335042699525
    x1859  r455  0.26960406802467335
    x1859  r456  698.5023473472726
    x1859  r708  0.0013947206980496612
    x1860  OBJ  -17.633885872390465
    x1860  r72  -0.9434642595048748
    x1860  r83  -0.821598781424915
    x1860  r233  -9.197059143709362
    x1860  r530  -8.11436745048857e-05
    x1860  r531  -0.014649851393266479
    x1860  r728  0.022671862655682145
    x1860  r785  242.18339182404125
    x1860  r786  0.016963332460459314
    x1861  OBJ  9.05372216901049e-05
    x1861  r69  -16761.401554715485
    x1861  r738  0.10037259914238528
    x1862  OBJ  0.030510861840422718
    x1862  r138  -1867920.4801964904
    x1862  r230  7.053983638980263
    x1862  r231  623042.2681675823
    x1862  r332  -1.1395351834840555
    x1862  r1032  -104805.15163261673
    x1863  OBJ  4.627362905502402e-05
    x1863  r137  0.07331625834444666
    x1863  r675  308706.46582093264
    x1863  r676  0.07345201260527137
    x1863  r839  -10512.78061824374
    x1863  r968  -41752.90673114591
    x1863  r1104  -15312.42731832555
    x1864  OBJ  9.514763695509078
    x1864  r745  -0.27651699385898076
    x1864  r746  -0.00041134133027855187
    x1864  r794  0.0003286227495219603
    x1865  OBJ  -439.7911486004051
    x1865  r54  0.0024044307660875523
    x1865  r163  9.549663679963776e-05
    x1865  r369  -0.0001435473800296395
    x1865  r642  -0.001446433059723809
    x1865  r657  0.06323544152955071
    x1866  OBJ  2.5230353269350795e-05
    x1866  r533  -0.3408251051227831
    x1866  r938  1212.860942682636
    x1866  r1133  282591.60301320965
    x1867  OBJ  3.4948609690952863
    x1867  r115  11.800839658788746
    x1867  r116  0.08375463959875615
    x1867  r169  -0.5614960450973908
    x1867  r190  38.509608832154846
    x1867  r191  1.6356027443058239
    x1867  r259  49.931219316856335
    x1867  r645  -9.399440543228309e-06
    x1867  r646  -0.0027515934429146595
    x1867  r1089  0.00015516249096034535
    x1868  OBJ  -203.6268830793225
    x1868  r75  -0.0003044199526694052
    x1868  r76  -59.107028224052414
    x1868  r79  0.0016777205931613273
    x1868  r194  7.972880238759203e-05
    x1868  r398  -0.00024574506645373847
    x1868  r574  -5.488327707245863e-05
    x1868  r583  3.537803607962769e-05
    x1868  r1195  48.36550247985178
    x1868  r1196  0.10646982764041038
    x1869  OBJ  -50.794390379939735
    x1869  r5  -0.0008162702370771624
    x1869  r6  -3.012555025761776e-05
    x1869  r40  0.0074174251895577714
    x1869  r41  3.53568808435675
    x1869  r139  1.4434819543429787
    x1869  r322  0.4996181906483194
    x1869  r1069  11.221335063711184
    x1869  r1112  0.00011723838763427877
    x1869  r1155  -0.0006621538190224609
    x1869  r1156  -0.0004254679533880376
    x1870  OBJ  1.1133194324354014
    x1870  r14  0.0007545762860213496
    x1871  OBJ  0.026895133935395565
    x1871  r0  -5.161441052105601
    x1871  r1  -0.03915407295720701
    x1871  r378  0.004055256135372684
    x1871  r494  -206.06865279329332
    x1871  r1155  5.6271062963574074
    x1871  r1156  3.6157057931684506
    x1872  OBJ  -1.116683592261773
    x1872  r213  26.45547629552102
    x1873  OBJ  561.9063020177447
    x1873  r2  -0.3456810421672876
    x1873  r147  0.0009529634851826569
    x1873  r615  2.9927041019343245e-06
    x1873  r616  0.06636352888226783
    x1873  r703  -3.731580145357867e-05
    x1874  OBJ  203.90778373358
    x1874  r382  0.22889634401694978
    x1874  r654  36.81432910477771
    x1874  r937  -0.00010198039898549198
    x1874  r1165  -1.072534400984071e-07
    x1874  r1166  -2.5606980147819913e-07
    x1875  OBJ  -41.55186957189647
    x1875  r125  0.06079868442426162
    x1875  r126  1.837666138976773e-06
    x1875  r488  -0.02615248021324271
    x1875  r899  0.00040186082613313627
    x1875  r1119  4.571107891581809e-06
    x1876  OBJ  22.84811556439422
    x1876  r84  -1.4528924847802467
    x1876  r239  -5.953089051210506
    x1876  r669  3.974519665592321e-08
    x1876  r807  0.00034424986834501837
    x1877  OBJ  0.1554826941346703
    x1877  r17  0.0026081809835216477
    x1877  r687  0.26235034849136185
    x1877  r692  5.945536667624164
    x1877  r1104  -424.8656435910038
    x1878  OBJ  30.595847980118204
    x1878  r159  4.405341111014799
    x1878  r583  0.001256833298056802
    x1878  r703  -0.001989557747719607
    x1879  OBJ  0.00033671536212693864
    x1879  r413  14.886347052549374
    x1879  r463  -0.3087707449913544
    x1879  r1157  -4.93183246513453
    x1880  OBJ  0.0004336280106760801
    x1880  r125  72525.36503795676
    x1880  r126  2.1921100564800855
    x1880  r508  -72287.72917124955
    x1881  OBJ  0.41263623195037497
    x1881  r79  -8.106168953491721
    x1881  r393  1249.7685308514644
    x1881  r603  0.006928369860959362
    x1882  OBJ  -43.895558176600005
    x1882  r142  0.0009589715940152562
    x1882  r165  -1.09712446976032e-05
    x1882  r166  -0.0017190128759143632
    x1882  r178  0.06777809873549788
    x1882  r702  -0.12094495560078343
    x1882  r853  3.1338828032404813e-06
    x1882  r873  -0.015577211730270891
    x1882  r983  -12.395385106945493
    x1883  OBJ  469.97599870713685
    x1883  r283  8.082731966893038e-07
    x1883  r653  0.009214466725193361
    x1884  OBJ  0.9025762232012167
    x1884  r267  -0.0018414706904052302
    x1884  r693  0.017932686880354716
    x1884  r1199  2337.1163327492204
    x1885  OBJ  -0.0036290963935151524
    x1885  r339  2.3082592342829504
    x1885  r539  0.006504970852940855
    x1885  r548  -18.91209816181181
    x1885  r803  272.1979962935515
    x1885  r887  0.42617079179386724
    x1886  OBJ  -0.05932214341529014
    x1886  r270  -0.0010850190614726854
    x1886  r271  -3.6509745548654844e-06
    x1886  r1047  -9.956843831501458e-06
    x1886  r1083  0.000437214495393919
    x1886  r1163  0.001108606437216988
    x1887  OBJ  -0.13373640426171463
    x1887  r324  4.520458166265686
    x1887  r540  -0.7776285684675304
    x1887  r541  -1.3216046274200608
    x1887  r664  241322.20423503703
    x1888  OBJ  50.00398728069728
    x1888  r23  3.342482811368597
    x1889  OBJ  -3.9771293303125685
    x1889  r44  0.13612195700122037
    x1889  r1020  -84.57857646817395
    x1889  r1021  -0.00012826034899017258
    x1889  r1184  0.005112184829458375
    x1890  OBJ  -0.02457900497343092
    x1890  r453  -1.0713695458684465
    x1890  r605  -0.00040640031342910175
    x1890  r606  -11.55337326559978
    x1890  r924  79.72947848004938
    x1890  r948  0.00012486378888833689
    x1890  r1059  -368.76248520939424
    x1890  r1168  0.17955570571913496
    x1891  OBJ  -0.10298277538364839
    x1891  r369  20.628646058042737
    x1892  OBJ  -41.53600035295869
    x1892  r24  -0.00020712261562799684
    x1892  r162  0.002542019722095384
    x1892  r532  1.6687977719439862e-05
    x1892  r573  -171.89462259008081
    x1892  r797  0.23362711967448258
    x1892  r1120  12.432135395332134
    x1892  r1121  0.08900789589526346
    x1892  r1184  0.01554956794383004
    x1893  OBJ  -77.74198859811258
    x1893  r49  0.00035134401181107796
    x1893  r303  0.0006289631165532176
    x1893  r1168  0.9760478689585562
    x1894  OBJ  -0.001477457101824583
    x1894  r287  -100026.54155881896
    x1894  r829  33.43740345758527
    x1894  r1185  -0.07128224865641031
    x1894  r1186  -0.001739409767453957
    x1894  r1192  0.0051665134239219585
    x1895  OBJ  -0.9682047638306157
    x1895  r47  0.43559684244708374
    x1895  r112  -4.425640343290913e-05
    x1895  r337  0.0011715451021050934
    x1895  r868  1.0254757167813466
    x1896  OBJ  -0.0011521979182294911
    x1897  OBJ  -0.6919425194419088
    x1897  r680  -257.6851256421882
    x1897  r681  -0.03532812276151519
    x1897  r773  15.110709020525231
    x1897  r805  0.11743798849567132
    x1897  r806  0.012896281070927903
    x1898  OBJ  -0.03541681155532299
    x1898  r25  0.0019841260388163764
    x1898  r26  4.594229645965108
    x1898  r250  -0.006049599326559626
    x1898  r251  -0.09761447263368535
    x1898  r583  -0.0014761227398577507
    x1898  r589  -255.58141201706326
    x1898  r787  6.84077666443822
    x1899  OBJ  -335.1587017171588
    x1899  r669  -1.4679732953894075e-06
    x1899  r1129  -0.20823209678419122
    x1900  OBJ  0.010265540848144091
    x1900  r223  2.0611137675775355
    x1900  r305  -29.150636774684074
    x1900  r306  -0.012440145367810145
    x1900  r358  373.1073980769496
    x1900  r382  103.41678802649056
    x1900  r625  0.0320105382354747
    x1900  r626  6149.2054797555775
    x1900  r838  -20.531403453904737
    x1901  OBJ  19048.745014230575
    x1901  r49  2.795253949076176e-07
    x1901  r485  -0.7309452482627178
    x1901  r486  -1.414604451909592e-05
    x1901  r602  2.7939420597604597e-06
    x1901  r997  -1.2341933369437933e-05
    x1902  OBJ  0.285389040478128
    x1902  r657  122.58976322613272
    x1902  r733  -7.081602357558224
    x1903  OBJ  0.0011816284299775504
    x1903  r102  3.304604671537395
    x1903  r124  -0.005087130493718659
    x1903  r567  0.1152396285377852
    x1903  r1128  0.2792928667618082
    x1903  r1153  41.22090866942299
    x1904  OBJ  0.6636079178304282
    x1904  r13  -9.291943630889035
    x1904  r303  0.042304646821169536
    x1904  r375  -11.669271002402692
    x1904  r376  -0.09399602731361971
    x1905  OBJ  0.010362452899700161
    x1905  r410  -20.615966966100167
    x1905  r411  -26.462917068535873
    x1905  r495  1.7517874710030892
    x1905  r496  840.8421080556469
    x1906  OBJ  -0.004302991512044044
    x1906  r337  9.055822492395453
    x1906  r478  -2487996.3597848346
    x1906  r555  -1736264.5197395447
    x1906  r556  -183.13607867603935
    x1906  r673  -4.1839306833931635
    x1906  r678  -35675.692485529755
    x1906  r968  42113.899411273815
    x1906  r982  -0.019949694441035518
    x1906  r1110  1.6642007180575138
    x1906  r1111  1800.940417023
    x1907  OBJ  -19.324975228673733
    x1907  r508  -0.16050321109426352
    x1907  r645  1.2684623927756782e-07
    x1907  r646  3.71329845270411e-05
    x1907  r1187  -4.256961599153859e-06
    x1908  OBJ  0.0007651385817012998
    x1908  r529  44364.834279819865
    x1909  OBJ  -9.561840654954908
    x1909  r112  -0.00012546134221961072
    x1909  r274  6.657913289805476e-05
    x1909  r367  82.26725428020342
    x1910  OBJ  3759.364738698604
    x1910  r28  6.83327958924504e-06
    x1910  r659  -3.958354050273627e-05
    x1910  r674  0.00012844044364427261
    x1910  r862  3.6647475190602114e-05
    x1910  r970  0.013711792551129703
    x1910  r971  0.005618479849407987
    x1911  OBJ  0.9481054369487094
    x1911  r287  -10.612502009437566
    x1911  r490  85.15585812958705
    x1911  r491  0.22153609173324795
    x1911  r589  -0.69026417327489
    x1911  r640  1.9848753252192588
    x1911  r641  0.0002809986016730032
    x1911  r1012  0.03369328066626096
    x1912  OBJ  -57.99365545331014
    x1912  r107  -9.723071704742034e-08
    x1912  r267  0.00012075589197204609
    x1912  r384  0.01179088491310324
    x1912  r523  1.0125053658128504
    x1913  OBJ  -8.894308394784723
    x1913  r285  -0.34387787071349546
    x1913  r286  -0.00031687501880997093
    x1913  r940  0.17170653667255117
    x1913  r941  142.67796314412215
    x1913  r1087  1.7486385009176861
    x1914  OBJ  0.04609617118580671
    x1914  r263  0.005138045428854689
    x1914  r405  -2.2816546119849943
    x1914  r406  -0.004076336598235816
    x1914  r1039  0.00034661726670849493
    x1914  r1065  -0.19892391142598972
    x1914  r1066  -6.809187588508788
    x1915  OBJ  16.432013925822574
    x1915  r89  0.2348798352447105
    x1915  r578  0.011396645743818368
    x1915  r743  -2615.0901754490146
    x1915  r1108  1406.2925234968734
    x1916  OBJ  -13.1157070195911
    x1916  r194  2.8000165260551425e-05
    x1916  r248  0.005039417542264981
    x1917  OBJ  8.403507442054309
    x1917  r252  0.0014253959001921518
    x1917  r742  -0.9750784723785846
    x1917  r880  56.73324332631738
    x1917  r881  5.566259236500004
    x1917  r1049  0.00022841602261837294
    x1918  OBJ  -12.210574669881252
    x1918  r349  1.3059024833567511e-07
    x1918  r828  -3.9119580336199434e-05
    x1918  r874  2.6479546633783724e-05
    x1919  OBJ  525.6427783050107
    x1919  r255  0.00018043616120435763
    x1919  r256  0.023321158126671227
    x1919  r355  -0.02857689469089515
    x1919  r356  -0.005712914466404377
    x1919  r472  -5.6430905294906685e-06
    x1919  r497  0.15561640424470138
    x1919  r553  -0.03813434181130412
    x1919  r562  41.92875074681858
    x1920  OBJ  -0.0002837632286615905
    x1920  r149  0.07185626432117803
    x1920  r174  4.532410564444045
    x1920  r239  404271.56384243927
    x1921  OBJ  67.80602506215982
    x1921  r227  3.400666970103642
    x1922  OBJ  -1.5082504708712408
    x1922  r173  119.50598566512484
    x1922  r309  -0.00010006710062491898
    x1922  r535  1.0978557392575923
    x1922  r536  35.1917676389647
    x1923  OBJ  0.03127093033584392
    x1923  r448  0.22178748687924982
    x1923  r870  -45.0901205147864
    x1923  r871  -0.6209642087202828
    x1923  r1173  86.34874206813011
    x1923  r1177  288569.7843795841
    x1924  OBJ  0.8400710190826827
    x1924  r595  4.482853856755089
    x1924  r596  38.37373745969548
    x1924  r602  -0.0003307768194757057
    x1925  OBJ  -746.5126859649423
    x1925  r150  0.5262833532066369
    x1925  r151  0.000695683325726213
    x1925  r155  0.014292716120847381
    x1925  r156  2.411439555061384e-05
    x1925  r233  0.16258754285572474
    x1925  r407  -5.653404968279756e-06
    x1925  r448  -4.910048157119221e-06
    x1925  r1038  47.22170755287534
    x1925  r1097  -0.018543782476231802
    x1926  OBJ  0.00161662850889997
    x1926  r405  -32.784226447332784
    x1926  r406  -0.05857132863586634
    x1926  r438  0.0575947383155258
    x1926  r519  -1011.2136329757682
    x1926  r632  14.188398947269631
    x1926  r637  587.9075802769121
    x1926  r684  -54063.56643940937
    x1926  r1124  367.19217889854883
    x1926  r1185  0.2032921674430808
    x1926  r1186  0.004960679388802931
    x1927  OBJ  0.7529061666443341
    x1927  r318  -0.0591806056958764
    x1927  r687  0.0019824462135917087
    x1927  r1122  0.0018376024601649147
    x1927  r1145  114.06205723071542
    x1927  r1146  1.2232398227077432e-05
    x1928  OBJ  -0.00022696413800374815
    x1928  r1163  1.5341370497085627
    x1929  OBJ  705.6143141283452
    x1929  r132  -2.877915743706625e-07
    x1929  r182  -0.00010847989237295853
    x1929  r630  -0.0034125908664563703
    x1929  r631  -1.3741577152276974
    x1929  r925  0.003503328128818971
    x1929  r926  1.390271675455022e-05
    x1930  OBJ  48.248372496828225
    x1930  r23  0.11073869972217376
    x1930  r238  -0.0004968727351857171
    x1930  r345  0.00027702202416856676
    x1930  r346  0.8935481130316213
    x1930  r502  0.027893464396105964
    x1930  r1049  -7.220952321683139e-05
    x1930  r1068  3.0487149876487347
    x1931  OBJ  -0.1707286330599211
    x1931  r17  -0.0006298911070628429
    x1931  r895  643.3829115741688
    x1931  r896  0.00014388939987105211
    x1931  r1010  -0.0007120211672877576
    x1931  r1011  -0.0016650408789402776
    x1931  r1114  -7.1797752902081e-06
    x1932  OBJ  -0.6370889702899903
    x1932  r858  1359.6534430688346
    x1932  r1193  1384.0635940386005
    x1933  OBJ  0.017972136152396685
    x1933  r200  -90731.46112872052
    x1933  r201  -0.003072524422736705
    x1933  r373  -0.002856330421083628
    x1933  r615  -0.34521439060621223
    x1933  r616  -7655.165496235422
    x1933  r1015  -0.15124766657381922
    x1933  r1016  -9.90331642843316
    x1934  OBJ  -0.023909145225154544
    x1934  r100  1177.5110737147058
    x1934  r101  0.008281047010811698
    x1935  OBJ  -4.668687090503911
    x1935  r4  -0.00011910200967064784
    x1935  r630  0.02371364314277396
    x1935  r631  9.548840442932079
    x1936  OBJ  0.02613502319798603
    x1936  r105  2.526512096515302
    x1936  r106  0.0024302040198650645
    x1936  r979  -6167.47052577133
    x1937  OBJ  -0.007244556505226906
    x1937  r72  -230.42881006865588
    x1938  OBJ  -0.00037097526176773217
    x1938  r167  -0.6845111907713225
    x1939  OBJ  -1.4066721859017848e-05
    x1939  r4  1.139911289911765
    x1939  r947  -18291.802426843115
    x1940  OBJ  -1.5217008173071331
    x1940  r940  -0.09305501521000034
    x1940  r941  -77.32320672117187
    x1940  r988  0.0004206863916481398
    x1941  OBJ  0.5190461940519258
    x1941  r449  -5.649199341622886e-05
    x1941  r577  -0.32337286998026143
    x1941  r638  -0.0008513832765468626
    x1941  r725  -40.313000952884394
    x1941  r726  -139.11871520108923
    x1942  OBJ  0.0005518688370897574
    x1942  r332  0.05895173308386458
    x1942  r364  37.747433704656615
    x1942  r383  -25.098437888114912
    x1942  r482  6994.899038545915
    x1942  r917  -0.16201802422125014
    x1942  r1005  710.6041571750164
    x1942  r1006  225.91427630138966
    x1942  r1084  -34485.660345844924
    x1943  OBJ  0.022935695160539733
    x1943  r267  -0.04163365220900128
    x1943  r1103  983.6195227996989
    x1944  OBJ  0.007217163299902128
    x1944  r1004  7.718267409601956
    x1945  OBJ  2.4105032548499543
    x1945  r28  1.2919170349893561e-06
    x1945  r153  1.1641405404511127e-05
    x1945  r385  0.009360690752964819
    x1945  r386  0.04568831839246136
    x1945  r683  -5.7227559337113414e-06
    x1945  r784  -2.9206368687800036e-08
    x1946  OBJ  0.020931730881492104
    x1946  r118  -0.013016315317400932
    x1946  r594  31.141896700434266
    x1946  r950  -937.9932593578742
    x1946  r951  -0.67445758900887
    x1946  r987  0.04885871782186184
    x1947  OBJ  -0.00014117345126351272
    x1947  r409  697.5284774321174
    x1947  r665  0.18515579083343778
    x1947  r666  0.006823694923402896
    x1947  r853  -0.0005362714225346066
    x1948  OBJ  -42.87879806260268
    x1948  r197  -0.46158178278626055
    x1948  r967  -0.004583807365142494
    x1948  r1049  0.00045244221946318905
    x1949  OBJ  -294.0108183798946
    x1949  r678  4.411528990720805
    x1950  OBJ  2.3797531982943285
    x1950  r5  -0.2750630528411092
    x1950  r6  -0.010151571680538055
    x1950  r85  -0.00022164041111960169
    x1950  r86  -1430.3328759849517
    x1951  OBJ  -0.1745600581621644
    x1951  r265  0.04477554929324394
    x1951  r266  2.9966884763253417e-07
    x1951  r303  0.00015344704204850367
    x1951  r682  0.10768846104196497
    x1951  r795  0.7177992587033077
    x1951  r796  9.982784782635708
    x1952  OBJ  -6.881219661088712
    x1952  r73  -0.00899551036671309
    x1952  r475  6.105009567662312e-06
    x1952  r476  17.109798623276035
    x1952  r917  -0.00046156648500201463
    x1952  r1075  1.5530514655403602
    x1952  r1076  38.26131811787236
    x1953  OBJ  32.92835741468102
    x1953  r120  -2.764524505718692e-07
    x1953  r121  -0.42918512334609443
    x1953  r482  0.25282538500159907
    x1953  r494  0.016853660463313307
    x1953  r1188  9.894164027204976e-06
    x1954  OBJ  0.02285197466111814
    x1954  r285  -0.5402568587341328
    x1954  r286  -0.0004978334369652581
    x1954  r844  32.338465483676345
    x1955  OBJ  -0.0367805970622825
    x1955  r12  834.7066256981684
    x1955  r332  0.3529470042804939
    x1956  OBJ  -0.00045497130557348734
    x1956  r148  0.14077179374446416
    x1956  r703  -0.2638802153953894
    x1957  OBJ  -0.0289805871244215
    x1957  r215  -46.25397820143192
    x1957  r216  -1.0557106503025875
    x1957  r323  -0.7333852634167223
    x1957  r424  9.57867411647754
    x1957  r437  813.7134519000349
    x1957  r552  1909435.1613348566
    x1958  OBJ  -0.0022710866293461276
    x1958  r33  438.14157599028
    x1958  r337  14.116195717479053
    x1959  OBJ  0.00222516645302599
    x1959  r187  0.413627265768821
    x1959  r295  -172.8796840672797
    x1959  r296  -3.5061972444586877
    x1959  r764  3887.6945242198403
    x1959  r984  86.67569902829943
    x1959  r1194  1317.9272183045337
    x1960  OBJ  132.27866715352792
    x1960  r7  -2.03716844539134
    x1960  r734  -4287.580528824914
    x1961  OBJ  -0.012697849441341644
    x1961  r397  0.000301430242949943
    x1961  r499  -0.5370490769459452
    x1961  r597  0.030883078574338533
    x1962  OBJ  0.00010242761380730536
    x1962  r284  -39849.21437462314
    x1962  r520  0.16225069157832292
    x1962  r521  0.3732434595022463
    x1962  r839  -5195.799897595928
    x1962  r885  152.8096675464932
    x1962  r886  428.11655916026837
    x1962  r982  -0.001969628526966106
    x1963  OBJ  19.561877978644056
    x1963  r502  0.050567528617688595
    x1963  r525  0.02666972354910944
    x1963  r526  0.23213227307780676
    x1963  r833  -1.4156389567179126
    x1964  OBJ  -0.35999342321632904
    x1964  r498  0.0035113405393531207
    x1964  r653  51.08793395268126
    x1964  r849  -137.71138584514935
    x1965  OBJ  470.676110927425
    x1965  r623  40.523817712931276
    x1965  r737  -10.13734916016932
    x1966  OBJ  -0.0007990306293127799
    x1966  r12  613.0633898968305
    x1966  r822  19.26290503639279
    x1967  OBJ  0.01860096038173603
    x1967  r954  5897.845104360883
    x1967  r1067  -9.151803288524311
    x1967  r1074  0.00100790669657908
    x1968  OBJ  5.9575422270788944e-06
    x1968  r204  -1.8194125246815067
    x1968  r602  0.7240201793831853
    x1968  r938  -389.4638087015207
    x1968  r1188  -3.320236583860933
    x1969  OBJ  0.08470155416058121
    x1969  r97  -810.2496008509396
    x1970  OBJ  295.8202002599976
    x1970  r158  2.879344371895391e-06
    x1970  r523  -0.48639806810776903
    x1970  r525  -0.046529822567579635
    x1970  r526  -0.40499382974968867
    x1970  r750  0.4199845025848161
    x1970  r751  1.40706812733325e-05
    x1970  r950  -0.03283897987172403
    x1970  r951  -2.3612642168618662e-05
    x1970  r1008  -0.6763511322891017
    x1970  r1014  -1.210428595589403
    x1970  r1172  -7.447440003736509
    x1971  OBJ  -0.0054886243114428
    x1971  r390  708747.0528405061
    x1971  r391  10486.94992847616
    x1971  r834  427964.6443250269
    x1971  r843  -0.11334004509916586
    x1971  r1015  -1.5402751099710983
    x1971  r1016  -100.85333642776271
    x1972  OBJ  -4.1982163060677894e-05
    x1972  r39  -40066.61068353974
    x1972  r145  0.5384388469068643
    x1972  r146  975.3216300226459
    x1972  r548  113.12600146125217
    x1973  OBJ  -9.627833909227172e-05
    x1973  r33  -136.73027421255452
    x1973  r54  -287.3073233865983
    x1973  r678  -11136.575565649086
    x1973  r1048  -2.2714713403891045
    x1973  r1150  302580.36845913256
    x1973  r1151  6.93633298182853
    x1974  OBJ  0.013806218543714421
    x1974  r310  -21.000717439978228
    x1974  r311  -5610.334763959442
    x1974  r1084  1866076.9830324326
    x1975  OBJ  0.009722692228285212
    x1975  r838  17.4077576879451
    x1975  r1135  -0.31210225118310314
    x1975  r1136  -1.8363043300476227
    x1976  OBJ  -1.7330688993027963
    x1976  r657  71.28078461033506
    x1976  r795  -15.845980028593853
    x1976  r796  -220.37778163933774
    x1976  r908  -242.08724866841504
    x1976  r994  -2940.14129333241
    x1976  r1070  0.014643702502500392
    x1976  r1071  0.00013677405627838943
    x1977  OBJ  2869.4173574538145
    x1977  r219  7.045790365419811e-05
    x1977  r302  0.11236562923422674
    x1977  r630  -0.008420025738825264
    x1977  r631  -3.390515823374181
    x1978  OBJ  0.007966958895022516
    x1978  r138  34332.279171390124
    x1978  r424  -0.13265964727435678
    x1978  r992  -0.27016777509092454
    x1979  OBJ  291.4528193539515
    x1979  r237  494.332294423984
    x1979  r1199  29.774100115408544
    x1980  OBJ  0.35157980691722696
    x1980  r832  -0.18455725399203915
    x1980  r962  -9.468670760444146
    x1981  OBJ  -2040.2029158911314
    x1981  r119  -0.02249273557962335
    x1981  r242  0.33313058996778444
    x1981  r325  4.4286235864173165
    x1981  r326  0.028982932639139914
    x1981  r473  7.782465324875373e-05
    x1981  r527  0.00036861832691816455
    x1982  OBJ  0.03327257084292511
    x1982  r220  11572.26753064519
    x1982  r221  2071.398778382938
    x1982  r559  1.0481875446454965
    x1983  OBJ  0.0006889029734645424
    x1983  r252  -0.08008261322241571
    x1983  r317  116.21343573006583
    x1983  r405  3.6473695724659905
    x1983  r406  0.006516282524724483
    x1983  r1137  0.019289450226072324
    x1984  OBJ  -8418.87294107413
    x1984  r63  0.00012372073283975287
    x1984  r192  0.00047911791986789305
    x1984  r522  3.5076784448605114e-07
    x1984  r975  -0.0007700353740571256
    x1984  r976  -0.029777964431334517
    x1985  OBJ  -2.997554876446981
    x1985  r124  -9.657026667846433e-06
    x1985  r144  3.6907191634690075e-05
    x1985  r280  -0.006864334801127519
    x1985  r281  -1.3752605851085414e-05
    x1985  r380  -0.491282672701363
    x1985  r381  -0.3054313514153768
    x1985  r520  -1.2324260870133655e-05
    x1985  r521  -2.835087923650745e-05
    x1985  r878  -0.020477427699407486
    x1985  r1069  4.995204727223131
    x1985  r1135  -0.000356901786273967
    x1985  r1136  -0.002099889677348467
    x1986  OBJ  -0.7329048176299285
    x1986  r729  14.565886772815947
    x1987  OBJ  -0.019484664572055225
    x1987  r59  -9.422123897295009
    x1987  r183  -350.90138059414517
    x1987  r614  204.67544791318016
    x1987  r799  0.0007130267807337836
    x1987  r1103  -31.00838645261837
    x1987  r1137  -5.511966081726934e-05
    x1988  OBJ  -0.0006579528810409588
    x1988  r590  4.12646180276794
    x1988  r591  33.06479182353551
    x1988  r603  -0.010107797033374898
    x1988  r725  178225.6561509261
    x1988  r726  615050.3240521939
    x1988  r987  0.529330888655644
    x1989  OBJ  -0.006530529267968379
    x1989  r105  -1.7796009889651132
    x1989  r106  -0.001711764405602429
    x1989  r330  -531.6485492212998
    x1989  r331  -0.0050209242905967675
    x1989  r649  -0.0753832462677327
    x1989  r777  8.439901396193803e-05
    x1990  OBJ  0.4867440301912491
    x1990  r774  -0.00016349206705475641
    x1990  r830  4.447178689605889
    x1990  r831  1.3474976017953606
    x1990  r853  1.3139279834420954e-05
    x1991  OBJ  2.7031777746378673
    x1991  r355  0.30829349705722736
    x1991  r356  0.061632112176197386
    x1991  r648  -1.811269405905364e-06
    x1991  r780  0.3207970120425204
    x1991  r781  16.504724277177278
    x1992  OBJ  0.02830011880895255
    x1992  r100  1288.5205077491544
    x1992  r101  0.009061739746874745
    x1992  r824  -111566.83123909344
    x1992  r835  -2371.1185912144347
    x1992  r836  -100670.73053461495
    x1993  OBJ  0.004006154371090562
    x1993  r673  -0.024655408487358702
    x1993  r843  0.012955822574320795
    x1994  OBJ  -0.001607128988460995
    x1994  r184  31447.183948942326
    x1994  r677  -0.025228409670640325
    x1994  r874  0.23805667551650103
    x1995  OBJ  2342.6216845661843
    x1995  r252  -8.34286258768059e-05
    x1996  OBJ  7.25157211944579e-05
    x1996  r134  55.00195725802248
    x1996  r343  78450.58001336665
    x1996  r447  -411477.63017620076
    x1996  r453  1310.136137567356
    x1996  r794  87.59216567973785
    x1996  r1019  7166.4918475354625
    x1997  OBJ  4974.692899451998
    x1997  r49  9.055830257316008e-07
    x1998  OBJ  -0.0001141823694170507
    x1998  r230  10.32161254368719
    x1998  r231  911655.2035688424
    x1998  r478  1006707.8064037504
    x1999  OBJ  73.33376797759452
    x1999  r404  0.000919646665629223
    x1999  r408  -0.018118523068261366
    x1999  r464  5.5864759602771246e-05
RHS
    RHS  r0  0.7340898742643944
    RHS  r1  0.005568717906936385
    RHS  r2  -563.0894370799734
    RHS  r3  342.9946121650955
    RHS  r4  0.0023865392108716847
    RHS  r5  -0.09638270646598779
    RHS  r6  -0.003210994023082529
    RHS  r7  -0.9479048717548412
    RHS  r8  3331.097314692063
    RHS  r9  -149.11327468294846
    RHS  r10  35.93780319771513
    RHS  r11  7.463992678630898e-05
    RHS  r12  28.230749729919555
    RHS  r13  1.9873814117719064
    RHS  r14  -0.009595723316750635
    RHS  r15  185.47568365240284
    RHS  r16  35.75563593318318
    RHS  r17  -0.0034495101087758887
    RHS  r18  0.00022314078110823157
    RHS  r19  -36.33236311545608
    RHS  r20  0.0012027110221127743
    RHS  r21  23.764085565862487
    RHS  r22  0.0049178404477762715
    RHS  r23  34.365998652081196
    RHS  r24  -0.023679445188450794
    RHS  r25  0.0005231006561980327
    RHS  r26  1.2112358723576238
    RHS  r27  0.1722920315751609
    RHS  r28  0.00038604039240933575
    RHS  r29  1927.0719363799694
    RHS  r30  62.762812512699014
    RHS  r31  4820.205783696724
    RHS  r32  620.8085811599392
    RHS  r33  2.2838719270604377
    RHS  r34  0.00018785316907372662
    RHS  r35  4.074785711428484
    RHS  r36  1.1835184267397318
    RHS  r37  0.0013694531402934484
    RHS  r38  112.55978007169314
    RHS  r39  148.54649787994794
    RHS  r40  0.4498253376675897
    RHS  r41  237.60094375605178
    RHS  r42  0.001300208176867975
    RHS  r43  -2.033167951390233e-05
    RHS  r44  1.946917215100754
    RHS  r45  2003.0228790156889
    RHS  r46  0.0003083536974150376
    RHS  r47  2.5523247818746633
    RHS  r48  2853.8863928191286
    RHS  r49  0.0005437030105227839
    RHS  r50  -0.024833379443738344
    RHS  r51  -6026.451259091009
    RHS  r52  -10777.698535698379
    RHS  r53  448.73961881950544
    RHS  r54  4.350459754100689
    RHS  r55  13.006678535194155
    RHS  r56  21.96742302629709
    RHS  r57  0.3278817090305902
    RHS  r58  78.36826271339204
    RHS  r59  4730.755509959917
    RHS  r60  139.47284691766345
    RHS  r61  3.4419243665844657
    RHS  r62  -96.98254548914997
    RHS  r63  0.011349234929681606
    RHS  r64  0.002289211339441714
    RHS  r65  66.19420968947504
    RHS  r66  0.0030072382561583213
    RHS  r67  1.9113841838658494
    RHS  r68  167.6591481783736
    RHS  r69  483.56281262519866
    RHS  r70  0.07677654853098026
    RHS  r71  0.004551787233193517
    RHS  r72  -0.9153253396399588
    RHS  r73  0.08061976671890417
    RHS  r74  5.172080089765914
    RHS  r75  0.010621961824167801
    RHS  r76  2282.378804552404
    RHS  r77  1.2934290188940802
    RHS  r78  -0.17782485792499927
    RHS  r79  0.15639960072132253
    RHS  r80  0.006383997626667239
    RHS  r81  19.272757529375724
    RHS  r82  2124.9484102095116
    RHS  r83  -3.4986840016583667
    RHS  r84  1069.2409805976058
    RHS  r85  -0.00018189785761488393
    RHS  r86  -1060.2760634929607
    RHS  r87  0.00880863086660922
    RHS  r88  -2.9478926153081946
    RHS  r89  0.4246815744265695
    RHS  r90  -2.1383279264484147
    RHS  r91  -0.005522155178933963
    RHS  r92  200.08150327540875
    RHS  r93  0.016219471119663913
    RHS  r94  -0.013910177678316635
    RHS  r95  90.06223953771864
    RHS  r96  0.00038616595477303857
    RHS  r97  198.10790767129276
    RHS  r98  8.925692781876622
    RHS  r99  0.3375550639759258
    RHS  r100  87.50370009694224
    RHS  r101  0.0006810938088340163
    RHS  r102  0.32044947994911943
    RHS  r103  0.3756178352623195
    RHS  r104  319.4170197472071
    RHS  r105  -0.42349962642091216
    RHS  r106  -0.00036745847232983424
    RHS  r107  0.00040674664845347244
    RHS  r108  8.143468516437524
    RHS  r109  0.0017336554368396525
    RHS  r110  0.08734412128149764
    RHS  r111  0.0643268489355837
    RHS  r112  -8.031108009439342e-05
    RHS  r113  0.14566134129554825
    RHS  r114  -93.39539609582012
    RHS  r115  14.388663672943814
    RHS  r116  0.10212132730395586
    RHS  r117  948.3669581553527
    RHS  r118  0.0003402871646714242
    RHS  r119  0.2142354834425475
    RHS  r120  -0.00020632940386182462
    RHS  r121  -320.3209374764861
    RHS  r122  14.540103295550196
    RHS  r123  -1.6954381145787472
    RHS  r124  0.0018148054945014871
    RHS  r125  494.6003654219716
    RHS  r126  0.013518952849751633
    RHS  r127  0.01802762439388137
    RHS  r128  0.1258874524598761
    RHS  r129  1.2407101539629508
    RHS  r130  -4.976001548714472
    RHS  r131  -2.940683428269294
    RHS  r132  -0.00010667191367334949
    RHS  r133  3048.8115806847995
    RHS  r134  1.1009971896899051
    RHS  r135  0.47051461706890024
    RHS  r136  0.4310792499775129
    RHS  r137  -0.00034821592978121515
    RHS  r138  4128.000385054945
    RHS  r139  56.306811620593805
    RHS  r140  7855.6014775153
    RHS  r141  16.780697431475797
    RHS  r142  0.13976578384320953
    RHS  r143  -8.920235569307662
    RHS  r144  0.0021382538521317056
    RHS  r145  1.90319894257522e-05
    RHS  r146  0.021764964074281884
    RHS  r147  -0.3937774285655208
    RHS  r148  -0.008258045124658189
    RHS  r149  0.0018629377574612427
    RHS  r150  42.403441425748234
    RHS  r151  0.05605225262074459
    RHS  r152  0.22700090853753252
    RHS  r153  0.0050041741307150405
    RHS  r154  231.58818084250876
    RHS  r155  3.4203614424398134
    RHS  r156  0.006384212282822081
    RHS  r157  127.58790167303461
    RHS  r158  0.0013332515718881624
    RHS  r159  -50.19135209854577
    RHS  r160  7.918940490890884
    RHS  r161  521.660757556764
    RHS  r162  0.04639755184031449
    RHS  r163  -0.04298727498050033
    RHS  r164  34.694646220684604
    RHS  r165  -0.0014296649280260327
    RHS  r166  -0.2240048976790105
    RHS  r167  0.006278908690975694
    RHS  r168  11.462923666108155
    RHS  r169  0.5091301625050484
    RHS  r170  -0.0023215850685127585
    RHS  r171  -0.010702118980382003
    RHS  r172  1.091735673194903
    RHS  r173  288.49233093066806
    RHS  r174  0.08750829885592477
    RHS  r175  0.0001231161938369691
    RHS  r176  3.5095490474053985
    RHS  r177  0.007764917633196231
    RHS  r178  18.906625844776993
    RHS  r179  16.874873747806273
    RHS  r180  0.006655005863443765
    RHS  r181  0.0002925851374039923
    RHS  r182  -0.008611825554772136
    RHS  r183  -513.9296751162326
    RHS  r184  2688.9198502786544
    RHS  r185  698.1772313005195
    RHS  r186  0.002682514347873318
    RHS  r187  0.024469198378371273
    RHS  r188  0.0042182412408334116
    RHS  r189  -1.958327899591508
    RHS  r190  69.23467205876496
    RHS  r191  2.94057557163265
    RHS  r192  0.11478433422994323
    RHS  r193  0.008277447897579667
    RHS  r194  0.001065911151725724
    RHS  r195  54.600637572908504
    RHS  r196  8.183090189543584e-05
    RHS  r197  -9.598075546735142
    RHS  r198  3.5993959743369324
    RHS  r199  180.08859205269587
    RHS  r200  2260.30506136783
    RHS  r201  6.903624179564887e-05
    RHS  r202  4.970710523576962
    RHS  r203  7.8544759401385535
    RHS  r204  0.0009397724460426293
    RHS  r205  3494.251456728114
    RHS  r206  296.8106825211629
    RHS  r207  0.027167383238023625
    RHS  r208  0.015729533511198508
    RHS  r209  1.6417358505223738
    RHS  r210  -0.08137985378693458
    RHS  r211  -1.3752864287940363e-05
    RHS  r212  0.0023300043392709907
    RHS  r213  13.58105529450664
    RHS  r214  0.04414196961303448
    RHS  r215  -0.049639722865234936
    RHS  r216  -0.0011329877244491545
    RHS  r217  0.0012100537569824082
    RHS  r218  -4.597939032390517e-05
    RHS  r219  0.00663669359532306
    RHS  r220  91.44353595997013
    RHS  r221  16.368100448996096
    RHS  r222  0.9865497583942681
    RHS  r223  0.4941903928403246
    RHS  r224  403.6835254078497
    RHS  r225  16.676160708277763
    RHS  r226  2998.7095036730807
    RHS  r227  323.5771205680788
    RHS  r228  -1.3703833464710802
    RHS  r229  0.027929902377939405
    RHS  r230  0.04360583859839825
    RHS  r231  3479.052586806216
    RHS  r232  -20.90358467316516
    RHS  r233  19.31529314204732
    RHS  r234  0.286448031033118
    RHS  r235  0.42433192081938076
    RHS  r236  5.0642226079896755
    RHS  r237  2300.6790872051183
    RHS  r238  0.46732003353786905
    RHS  r239  4662.908614618619
    RHS  r240  -17.0252248585517
    RHS  r241  -73.8971445289832
    RHS  r242  -3.6853157805048915
    RHS  r243  184.8805396838328
    RHS  r244  0.003905421635086783
    RHS  r245  -0.08711684101371864
    RHS  r246  -3.659733312930796
    RHS  r247  861.9733215189663
    RHS  r248  -0.4058727329928217
    RHS  r249  0.00026587251330593764
    RHS  r250  -0.000521730046325162
    RHS  r251  -0.009321664341640213
    RHS  r252  0.26315054263818377
    RHS  r253  0.13950367835503086
    RHS  r254  497.35649068904604
    RHS  r255  -0.09200902162315315
    RHS  r256  -11.892055964995922
    RHS  r257  -0.12726424654366927
    RHS  r258  0.3255276419814483
    RHS  r259  131.74927265843405
    RHS  r260  0.0002464352375855468
    RHS  r261  0.9037657014411372
    RHS  r262  -405.0406672573726
    RHS  r263  -0.01782518611655979
    RHS  r264  5.534235449027969
    RHS  r265  52.115470232312305
    RHS  r266  0.00031501640467642875
    RHS  r267  -0.010748125311790207
    RHS  r268  0.00819109738227931
    RHS  r269  10.539984599578439
    RHS  r270  0.13536051752126893
    RHS  r271  0.0004115225264806901
    RHS  r272  2.4734226064417766
    RHS  r273  0.005441504413033049
    RHS  r274  0.00016805107903306515
    RHS  r275  0.28340482015973767
    RHS  r276  0.09568462274601469
    RHS  r277  0.024113690122497325
    RHS  r278  0.0007003184865359351
    RHS  r279  129.7593612284783
    RHS  r280  1.470627730372435
    RHS  r281  0.0029463836011294616
    RHS  r282  -0.00020995084443906068
    RHS  r283  0.00045972852598447235
    RHS  r284  380.2510346819125
    RHS  r285  0.43290319053958776
    RHS  r286  0.0003597889610216248
    RHS  r287  -506.5900321586661
    RHS  r288  516.901477989339
    RHS  r289  5.042197513531063
    RHS  r290  0.0018421335862040995
    RHS  r291  0.00018088834147116182
    RHS  r292  0.013953788669020317
    RHS  r293  16.965126309908296
    RHS  r294  -0.03199508850086464
    RHS  r295  0.2435355023243139
    RHS  r296  0.004939177057228143
    RHS  r297  0.0003813850539587527
    RHS  r298  0.00019160863284611697
    RHS  r299  44.84969766297961
    RHS  r300  0.016254223804000694
    RHS  r301  0.032155733572347384
    RHS  r302  14.705936438557103
    RHS  r303  0.001545598871766602
    RHS  r304  129.45938795231595
    RHS  r305  9.870601766258597
    RHS  r306  0.0042123170807138715
    RHS  r307  -16.692895054094535
    RHS  r308  0.011045130149513723
    RHS  r309  -0.0021735074143597946
    RHS  r310  0.16873927973946495
    RHS  r311  45.078642386094074
    RHS  r312  9.357623708610266
    RHS  r313  8.291224086537426
    RHS  r314  -2.6848413765527083e-06
    RHS  r315  69.25796662124912
    RHS  r316  6.886572136118137
    RHS  r317  -23.587356985025423
    RHS  r318  -0.22091647987195742
    RHS  r319  4343.4776292675
    RHS  r320  620.2265304263037
    RHS  r321  0.0003734824711003256
    RHS  r322  -5.2307121274546855
    RHS  r323  0.00043735718991030594
    RHS  r324  0.07081499956755917
    RHS  r325  640.7654996802005
    RHS  r326  4.193461667513274
    RHS  r327  -0.012944182341992004
    RHS  r328  13.823801155037447
    RHS  r329  0.11456534258172886
    RHS  r330  -415.5506890958391
    RHS  r331  -0.003924488449572021
    RHS  r332  0.00464046351676458
    RHS  r333  -14.417325622162195
    RHS  r334  0.0006634486234193619
    RHS  r335  0.04257920862059385
    RHS  r336  0.00033473002594653316
    RHS  r337  0.04555588021320312
    RHS  r338  6.392027934889976
    RHS  r339  0.7679301487796842
    RHS  r340  659.479089309149
    RHS  r341  0.24106079870928496
    RHS  r342  0.7042322592865545
    RHS  r343  189.41719810029247
    RHS  r344  5069.562696878145
    RHS  r345  0.03323596455630648
    RHS  r346  107.20423600028937
    RHS  r347  -9.032139199263081e-05
    RHS  r348  0.006330550671179939
    RHS  r349  0.0001680185848585316
    RHS  r350  1507.639560670129
    RHS  r351  153.76547588009132
    RHS  r352  0.24936029267468288
    RHS  r353  0.00017846317023076253
    RHS  r354  0.029400963726536982
    RHS  r355  16.886227851195756
    RHS  r356  3.73649396337972
    RHS  r357  536.6486164152326
    RHS  r358  211.21093591462375
    RHS  r359  1713.880438533178
    RHS  r360  0.00499815347928656
    RHS  r361  9618.660529391113
    RHS  r362  0.0009575886639019255
    RHS  r363  18330.21498938679
    RHS  r364  -1.1192698155068987
    RHS  r365  0.00011317654545072235
    RHS  r366  3.2487149639330273
    RHS  r367  -6.386254643287311
    RHS  r368  140.20806308863033
    RHS  r369  0.11115593528804493
    RHS  r370  0.0001773053787824784
    RHS  r371  0.028811526133765045
    RHS  r372  0.042493589211150866
    RHS  r373  2.8930930623403964e-05
    RHS  r374  -119.38879454964356
    RHS  r375  0.8728305751151793
    RHS  r376  0.007781882833255062
    RHS  r377  -0.0010400274128541714
    RHS  r378  0.0004011844252630325
    RHS  r379  88.21689134882767
    RHS  r380  -107.11517689050524
    RHS  r381  -66.59370764490995
    RHS  r382  48.10454203441052
    RHS  r383  3.1933445462965184
    RHS  r384  -0.7030238454837614
    RHS  r385  14.863738873146257
    RHS  r386  72.547983309177
    RHS  r387  -2.104018599096903e-05
    RHS  r388  4353.195132786771
    RHS  r389  -1955.871398204225
    RHS  r390  8004.093892130699
    RHS  r391  118.43228288089732
    RHS  r392  17.379291939791973
    RHS  r393  6.69818339087006
    RHS  r394  3667.1497697946356
    RHS  r395  -0.0073572430616423694
    RHS  r396  -4.1876624121669055
    RHS  r397  0.0017706248177627034
    RHS  r398  -7.479604751724477e-05
    RHS  r399  469.7297804503286
    RHS  r400  0.05132701058612335
    RHS  r401  1.4452491283878035
    RHS  r402  -92.41193172503931
    RHS  r403  0.1126605391750233
    RHS  r404  0.10917675798483117
    RHS  r405  -2.6650445936239993
    RHS  r406  -0.004761289813348266
    RHS  r407  0.004905321536078676
    RHS  r408  -2.205397026296899
    RHS  r409  382.4492919470338
    RHS  r410  -19.09547185913669
    RHS  r411  -24.51119012069482
    RHS  r412  0.0008135919404629892
    RHS  r413  0.10505863817149395
    RHS  r414  1.4514086060528368
    RHS  r415  0.019323875516859157
    RHS  r416  0.011811305546777125
    RHS  r417  -0.00017808576063340137
    RHS  r418  0.16356796389294603
    RHS  r419  123.97686880335182
    RHS  r420  0.01580824259292033
    RHS  r421  0.001944653883596341
    RHS  r422  -1351.8757348302343
    RHS  r423  -0.24345556225509582
    RHS  r424  -0.005656432171743569
    RHS  r425  0.04167202990909867
    RHS  r426  565.9887273073805
    RHS  r427  1.8232392604497716
    RHS  r428  -964.8797315703458
    RHS  r429  -207.56115962653843
    RHS  r430  0.0013119184976253706
    RHS  r431  2523.7903867598307
    RHS  r432  -0.03675958933251775
    RHS  r433  1394.5867771822757
    RHS  r434  0.2770841294925009
    RHS  r435  -6.297443969428436
    RHS  r436  -45.79746527200313
    RHS  r437  0.35026042403729135
    RHS  r438  0.022720460516079934
    RHS  r439  0.23614256031776984
    RHS  r440  -0.973794630623179
    RHS  r441  -0.14791178303617922
    RHS  r442  -0.04205911044895618
    RHS  r443  1.0495297085781142e-05
    RHS  r444  30.92116258558871
    RHS  r445  0.09669170160069808
    RHS  r446  8.747418722304483
    RHS  r447  -1155.2102010287472
    RHS  r448  0.0028261451155697443
    RHS  r449  0.0008236514647088891
    RHS  r450  -1.4385226103203868
    RHS  r451  -7.76733741290303
    RHS  r452  4.3257132311061754e-05
    RHS  r453  7.900592123138579
    RHS  r454  1.4096933834449978
    RHS  r455  -0.08050166266139674
    RHS  r456  -208.56729875275929
    RHS  r457  2078.0375467128456
    RHS  r458  -140.79742625933832
    RHS  r459  20.257632114399872
    RHS  r460  0.11422488382999604
    RHS  r461  0.0009170121394232142
    RHS  r462  -16.579862838014066
    RHS  r463  -0.1096844399369587
    RHS  r464  0.01022354213777021
    RHS  r465  4.5207205605976615
    RHS  r466  0.050369795865897384
    RHS  r467  306.8540169716323
    RHS  r468  15.172800521839129
    RHS  r469  0.0014153368153702209
    RHS  r470  0.0005330417322248312
    RHS  r471  5105.283833624095
    RHS  r472  0.0014883378785545442
    RHS  r473  0.055470883440692904
    RHS  r474  0.08664958481812274
    RHS  r475  2.7977350691217473e-05
    RHS  r476  70.15775384624459
    RHS  r477  -0.03655214316430253
    RHS  r478  9317.933094304766
    RHS  r479  -0.00545725162711055
    RHS  r480  -0.0013297119016251466
    RHS  r481  -1778.1298929990119
    RHS  r482  620.9666346711704
    RHS  r483  28.682512125298064
    RHS  r484  5.8922874505859474e-05
    RHS  r485  6031.508141557499
    RHS  r486  0.12922856561795681
    RHS  r487  2070.7018554345727
    RHS  r488  4.135653566365807
    RHS  r489  -1.3797417358505872
    RHS  r490  209.07985647351327
    RHS  r491  0.4827439150502705
    RHS  r492  0.30704379945483773
    RHS  r493  3.6909531131375597
    RHS  r494  31.69164649854703
    RHS  r495  1.8073056165495671
    RHS  r496  960.2002898055961
    RHS  r497  29.06644574196716
    RHS  r498  0.0004719933102331512
    RHS  r499  0.4188106167412943
    RHS  r500  -49.513094860422854
    RHS  r501  -0.005705414635967831
    RHS  r502  -9.033059869982083
    RHS  r503  0.00016532662533922383
    RHS  r504  -0.003394173279516523
    RHS  r505  0.0008432366439910708
    RHS  r506  4.861451042837742
    RHS  r507  -5.375093582700407e-05
    RHS  r508  -164.62340491890092
    RHS  r509  173.74156274399422
    RHS  r510  0.00808889655909897
    RHS  r511  0.4323232087661239
    RHS  r512  9.919850687160088e-05
    RHS  r513  25.92204260876267
    RHS  r514  98.31270790378747
    RHS  r515  308.55582800657015
    RHS  r516  0.014603646512705513
    RHS  r517  462.6073704415893
    RHS  r518  127.67520355652215
    RHS  r519  -3.468554389354679
    RHS  r520  0.0035107911768953322
    RHS  r521  0.008934722360458601
    RHS  r522  -0.00010102154841068792
    RHS  r523  168.83902197999956
    RHS  r524  567.6205944713996
    RHS  r525  -23.090235088603926
    RHS  r526  -200.97652653127804
    RHS  r527  0.0573300864680273
    RHS  r528  0.007418294975990655
    RHS  r529  428.1141385438481
    RHS  r530  0.000499611952349152
    RHS  r531  0.0902010095467668
    RHS  r532  0.000501678845604321
    RHS  r533  0.0030356118403675426
    RHS  r534  4627.443065384831
    RHS  r535  11.48650328254277
    RHS  r536  332.51157441478745
    RHS  r537  -4.540315862737146
    RHS  r538  0.33598447651019325
    RHS  r539  -0.0005476479116075152
    RHS  r540  0.004822557100323673
    RHS  r541  0.00819609064503838
    RHS  r542  3.075726369884062
    RHS  r543  0.00017892431483899397
    RHS  r544  0.013916974400185042
    RHS  r545  0.00010834351891520112
    RHS  r546  0.8919206982988845
    RHS  r547  2863.587200090662
    RHS  r548  -8.37464573317836
    RHS  r549  0.1453328835404145
    RHS  r550  0.00012018775950641626
    RHS  r551  8.565410514217671
    RHS  r552  5088.2897867084
    RHS  r553  6.36084626723572
    RHS  r554  117.17854039540445
    RHS  r555  -2249.5893649933137
    RHS  r556  -0.23728009651231147
    RHS  r557  -0.01384942867535442
    RHS  r558  2.494703351583311
    RHS  r559  0.008202941280805027
    RHS  r560  2130.5737213891907
    RHS  r561  713.3827041072134
    RHS  r562  9092.309136085061
    RHS  r563  -2.713061105634928
    RHS  r564  45.55344569636718
    RHS  r565  16.355270579295155
    RHS  r566  0.012543404721576654
    RHS  r567  0.02005708413252206
    RHS  r568  -0.004830871352728722
    RHS  r569  1278.1602343873944
    RHS  r570  0.8738775475330889
    RHS  r571  0.017073561931198557
    RHS  r572  13598.496776359285
    RHS  r573  2721.883832078741
    RHS  r574  0.0011313112478492549
    RHS  r575  0.04966033657917055
    RHS  r576  0.04644733324062577
    RHS  r577  8.854727156170354
    RHS  r578  0.01291048583814983
    RHS  r579  13.06758983163192
    RHS  r580  2.3790190316485784
    RHS  r581  150.8999967366942
    RHS  r582  0.33523311826156793
    RHS  r583  0.0068638041183553804
    RHS  r584  0.011109761476047385
    RHS  r585  0.006044758014233998
    RHS  r586  0.0003508806672179362
    RHS  r587  82.36826883039677
    RHS  r588  0.0002755559691068167
    RHS  r589  46.695210762361505
    RHS  r590  0.03685765910641515
    RHS  r591  0.295335554569289
    RHS  r592  -690.3958159435682
    RHS  r593  -0.11878917372247125
    RHS  r594  0.7459839294098473
    RHS  r595  69.29700634204048
    RHS  r596  593.1902536756883
    RHS  r597  0.002632156719600442
    RHS  r598  0.0014124514830969762
    RHS  r599  11372.269171709919
    RHS  r600  0.0007075998843734604
    RHS  r601  0.26643025469696935
    RHS  r602  0.0032660734158322124
    RHS  r603  0.0002304102249467487
    RHS  r604  0.046663067811978834
    RHS  r605  -0.0003202281554873739
    RHS  r606  -9.103623188209996
    RHS  r607  -0.007304187303692587
    RHS  r608  65.83187785274869
    RHS  r609  703.9883200332272
    RHS  r610  0.8235187807848142
    RHS  r611  0.25949327064042066
    RHS  r612  -0.00878312712264651
    RHS  r613  19.80252791903219
    RHS  r614  -1881.0876727590896
    RHS  r615  0.021382915811891143
    RHS  r616  474.1684238313107
    RHS  r617  -49.97311767939818
    RHS  r618  1768.4374564494171
    RHS  r619  -228.78398697682618
    RHS  r620  -0.13454868618777652
    RHS  r621  -2.569670174638589e-05
    RHS  r622  45.5331138741285
    RHS  r623  -11870.72732638683
    RHS  r624  -195.0007465585744
    RHS  r625  -0.0036368187097916855
    RHS  r626  -698.6307864618084
    RHS  r627  791.7588068091143
    RHS  r628  1738.3597947746769
    RHS  r629  0.0010576847298958247
    RHS  r630  1.026482330838341
    RHS  r631  413.33658246603227
    RHS  r632  2.0852403034734057
    RHS  r633  0.1308410872423536
    RHS  r634  633.6020067096904
    RHS  r635  -0.00020672603214011797
    RHS  r636  -82.97925739202286
    RHS  r637  3.823283028008814
    RHS  r638  -0.007687414851665303
    RHS  r639  -711.2840851763606
    RHS  r640  72.8098555808707
    RHS  r641  0.010307684069810566
    RHS  r642  1.2632591717232446
    RHS  r643  0.00037657854846262457
    RHS  r644  2426.2620278203963
    RHS  r645  0.00017699167351919965
    RHS  r646  0.051812565369324486
    RHS  r647  46.95007149784533
    RHS  r648  -0.0070203024456272
    RHS  r649  0.007709816239608284
    RHS  r650  3.363409472837612
    RHS  r651  0.037337093759828036
    RHS  r652  0.016202478670673447
    RHS  r653  -1.052487519392126
    RHS  r654  2941.7922309486385
    RHS  r655  0.007485078856885205
    RHS  r656  21.914174752165245
    RHS  r657  42.343630456754305
    RHS  r658  0.3484240554490994
    RHS  r659  -0.00015639517845039263
    RHS  r660  0.14386995152056214
    RHS  r661  0.12485796499183051
    RHS  r662  0.018509721325799533
    RHS  r663  -0.07353994197752685
    RHS  r664  2991.2590088080606
    RHS  r665  0.056278303240301086
    RHS  r666  0.0020740694841685225
    RHS  r667  0.00025964113206837795
    RHS  r668  0.011153855380698128
    RHS  r669  0.00023666753308918535
    RHS  r670  2504.7848402310465
    RHS  r671  0.007508638537167469
    RHS  r672  0.8749163793370741
    RHS  r673  0.004219710133117613
    RHS  r674  0.0017005746945828236
    RHS  r675  1098.0387389279663
    RHS  r676  0.00026126163283873854
    RHS  r677  -0.0006210023591246052
    RHS  r678  4.896612704887479
    RHS  r679  1.752619235710898
    RHS  r680  7274.898272738286
    RHS  r681  1.1037853695720792
    RHS  r682  2.1497899344230613
    RHS  r683  0.013371550242206454
    RHS  r684  -7561.677046528962
    RHS  r685  1.719863354771135
    RHS  r686  0.7203999291042417
    RHS  r687  0.031203328346995473
    RHS  r688  5.961120922118472
    RHS  r689  -10.66031792261814
    RHS  r690  -1002.0380274329805
    RHS  r691  -11.25963266414459
    RHS  r692  0.6941692221858797
    RHS  r693  0.0034257767992841672
    RHS  r694  -192.54044558218627
    RHS  r695  0.004739898446774431
    RHS  r696  0.6019657983460313
    RHS  r697  0.4417708073360807
    RHS  r698  -0.05491465054108868
    RHS  r699  -1.771434987136172
    RHS  r700  26.91612458323469
    RHS  r701  0.025664716733253302
    RHS  r702  -6.983178676946007
    RHS  r703  -0.02114073370804463
    RHS  r704  0.006014252104526208
    RHS  r705  6113.856881700298
    RHS  r706  0.0037104306179625793
    RHS  r707  -0.0008923349695060143
    RHS  r708  0.0016745923959040178
    RHS  r709  43.46485119659065
    RHS  r710  4570.862405998273
    RHS  r711  76.2184306583925
    RHS  r712  39.162770751594906
    RHS  r713  0.005366246126409095
    RHS  r714  1264.613378912993
    RHS  r715  0.9840852395039046
    RHS  r716  0.6822799645016657
    RHS  r717  1.5567396359238754
    RHS  r718  -0.0011789949422558624
    RHS  r719  0.002443539415996277
    RHS  r720  1157.5189819714317
    RHS  r721  0.019501050811840802
    RHS  r722  1283.6060534894907
    RHS  r723  -1.7953425222031139
    RHS  r724  73.85758895143154
    RHS  r725  1629.9568101153973
    RHS  r726  5624.922618072123
    RHS  r727  0.007902003192183977
    RHS  r728  0.041784545216782994
    RHS  r729  137.11395147631532
    RHS  r730  0.28271777617641836
    RHS  r731  0.0126134307405512
    RHS  r732  2.7512932929401
    RHS  r733  0.5869151348449505
    RHS  r734  -2043.436769203805
    RHS  r735  -0.07362300755283804
    RHS  r736  -1226.4343288954929
    RHS  r737  2285.1404604944846
    RHS  r738  0.0018068090101703055
    RHS  r739  1354.655162969489
    RHS  r740  6.0829544320656395e-05
    RHS  r741  0.01692497986315383
    RHS  r742  -62.89306465098707
    RHS  r743  1902.2725094618745
    RHS  r744  0.16458512466303937
    RHS  r745  493.7086389543452
    RHS  r746  0.6638535056539412
    RHS  r747  164.2399521460787
    RHS  r748  10.462679169498713
    RHS  r749  -37.666184655552286
    RHS  r750  288.7863149132685
    RHS  r751  0.010703809813910045
    RHS  r752  0.00348830835678104
    RHS  r753  313.3116785223742
    RHS  r754  1.0810067975467308
    RHS  r755  206.10517025366056
    RHS  r756  2.818383155631316e-05
    RHS  r757  -9.447807496761573
    RHS  r758  -0.0022663013421788058
    RHS  r759  -0.0038718437930225767
    RHS  r760  -0.020090678744867658
    RHS  r761  -0.0008255615095325284
    RHS  r762  5.589246652047559
    RHS  r763  0.08428586855545428
    RHS  r764  2.595876736576643
    RHS  r765  0.3268436974642446
    RHS  r766  0.022141842093500886
    RHS  r767  6621.618084392054
    RHS  r768  0.00037890024949726415
    RHS  r769  4853.200595280022
    RHS  r770  1490.0920573952753
    RHS  r771  380.12394518317655
    RHS  r772  0.002618171969054729
    RHS  r773  4.243573767832435
    RHS  r774  -0.005218692315801911
    RHS  r775  9602.91281320398
    RHS  r776  0.012585589363626384
    RHS  r777  0.00014278133499019457
    RHS  r778  2.4672411576487278e-05
    RHS  r779  4230.05398185025
    RHS  r780  8.919110500028204
    RHS  r781  508.6180698241695
    RHS  r782  2127.7713249979683
    RHS  r783  1.9788472989189436
    RHS  r784  0.0002544708729764721
    RHS  r785  44.99451240392006
    RHS  r786  0.003151563102050643
    RHS  r787  1.3951921935185028
    RHS  r788  3.5315105993509386
    RHS  r789  177.81897024487498
    RHS  r790  -0.00014494067860666726
    RHS  r791  -1.3122463735301138
    RHS  r792  -0.24520914165880558
    RHS  r793  -0.03456526389113846
    RHS  r794  0.23631556832224113
    RHS  r795  7.1068139311728
    RHS  r796  98.83793627720779
    RHS  r797  0.2156627755620644
    RHS  r798  0.3336152334059004
    RHS  r799  0.004586409715063267
    RHS  r800  11.42128859167316
    RHS  r801  1965.0727834561833
    RHS  r802  19.097446076332584
    RHS  r803  25.516792309796536
    RHS  r804  4.451753612471253
    RHS  r805  -0.18905780889162246
    RHS  r806  -0.02076110833377735
    RHS  r807  0.837129710527384
    RHS  r808  -0.0005858399039896521
    RHS  r809  -221.14862808107367
    RHS  r810  0.01934393214041319
    RHS  r811  0.13861027026654144
    RHS  r812  0.00022984866323099128
    RHS  r813  0.19865987643533023
    RHS  r814  -24.15177635877732
    RHS  r815  -0.00016527718076047687
    RHS  r816  -0.003129082654519599
    RHS  r817  0.021615932467940815
    RHS  r818  -0.3844311636713514
    RHS  r819  20.029314836160697
    RHS  r820  123.57752138618817
    RHS  r821  0.0010425493142952884
    RHS  r822  -27.188432345441658
    RHS  r823  0.0003142830698770239
    RHS  r824  -484.3349908606448
    RHS  r825  425.49490968607057
    RHS  r826  0.22785555752064915
    RHS  r827  -0.03637166410066268
    RHS  r828  -0.004034049407633142
    RHS  r829  0.3178867669252239
    RHS  r830  101.9167542975124
    RHS  r831  27.856893042443755
    RHS  r832  129.84965703870859
    RHS  r833  325.94461841248125
    RHS  r834  -258.9365107437008
    RHS  r835  30.584111281199736
    RHS  r836  1298.5115475874688
    RHS  r837  73.18555472670084
    RHS  r838  -2.74014676048099
    RHS  r839  13.684005851801347
    RHS  r840  -6.452015578092021
    RHS  r841  -0.004220533679057455
    RHS  r842  1.1990973415082644
    RHS  r843  -6.113453671177569e-05
    RHS  r844  9.532051243604785
    RHS  r845  120.52920446389024
    RHS  r846  0.01858559938865899
    RHS  r847  0.11644699765845515
    RHS  r848  -0.026507573004568095
    RHS  r849  0.16856942670564679
    RHS  r850  0.006932903707336698
    RHS  r851  2.1289988666923776
    RHS  r852  0.009895233308189597
    RHS  r853  0.0005592694456445475
    RHS  r854  -137.17930114493745
    RHS  r855  -24.078918977069417
    RHS  r856  -0.0005022981589429194
    RHS  r857  3683.6007814806294
    RHS  r858  179.5228518075641
    RHS  r859  -0.007444483944686145
    RHS  r860  0.0011960889713847258
    RHS  r861  1375.2588922712098
    RHS  r862  0.0016610207218408588
    RHS  r863  -8.52852175345394
    RHS  r864  16.729950810863905
    RHS  r865  1734.1644408555314
    RHS  r866  0.004664070008188209
    RHS  r867  -15.208841260842329
    RHS  r868  -3.0694851066377553
    RHS  r869  1679.899600895567
    RHS  r870  0.41608710050844067
    RHS  r871  0.005730195327147095
    RHS  r872  4.3219642076946085
    RHS  r873  1.6684678629837353
    RHS  r874  0.004437735581613173
    RHS  r875  0.004635660215018908
    RHS  r876  10.204375233295671
    RHS  r877  249.31884689210256
    RHS  r878  -2.9096290317970888
    RHS  r879  0.26511148427869735
    RHS  r880  7955.009384667166
    RHS  r881  705.2605561114003
    RHS  r882  23.720807123223523
    RHS  r883  -504.2144104419124
    RHS  r884  26.8219678844347
    RHS  r885  4.21655622817082
    RHS  r886  10.674552565674471
    RHS  r887  0.13923424540699633
    RHS  r888  0.0038600391848984195
    RHS  r889  2.234645608421212e-06
    RHS  r890  35.57645734093799
    RHS  r891  3044.2360545404536
    RHS  r892  -363.45189797336235
    RHS  r893  0.0025757541346444366
    RHS  r894  0.014561425455487175
    RHS  r895  875.5831789118351
    RHS  r896  0.00019581984332681842
    RHS  r897  7.886689801631865
    RHS  r898  -851.0844403999022
    RHS  r899  0.6169340228605638
    RHS  r900  0.4839503213441178
    RHS  r901  1370.6771714139443
    RHS  r902  -0.05839953608980024
    RHS  r903  1.3372569966987295e-06
    RHS  r904  548.0602050695196
    RHS  r905  0.01579005328599391
    RHS  r906  19.83709870624349
    RHS  r907  1.5584821003914746
    RHS  r908  361.48609399642726
    RHS  r909  2.4883817369382642e-05
    RHS  r910  0.004563097716963897
    RHS  r911  2.977276303786243
    RHS  r912  0.4541510367211639
    RHS  r913  0.2835748531681094
    RHS  r914  -0.0002452053220698331
    RHS  r915  -11.142357386345367
    RHS  r916  -1115.739298511054
    RHS  r917  0.0017393935700610707
    RHS  r918  1061.9831076059886
    RHS  r919  3.6628762159586556
    RHS  r920  10.597200406680232
    RHS  r921  5744.560509357747
    RHS  r922  3.2320315114838083
    RHS  r923  0.835193535725358
    RHS  r924  282.0376226613418
    RHS  r925  0.571364211883157
    RHS  r926  0.002267419731997634
    RHS  r927  430.4006511274487
    RHS  r928  -0.0018217368608028348
    RHS  r929  27.41770136137941
    RHS  r930  3114.9127481072933
    RHS  r931  0.7406052692839089
    RHS  r932  15.88795186475525
    RHS  r933  -0.004833768859837982
    RHS  r934  -119.76337415994729
    RHS  r935  2664.243701728254
    RHS  r936  9.347311991801821e-05
    RHS  r937  0.001127546885247111
    RHS  r938  0.6130848990512577
    RHS  r939  0.0002919722529697545
    RHS  r940  0.3631903168708446
    RHS  r941  272.5676828662205
    RHS  r942  -296.8973405247757
    RHS  r943  9.050476071826111
    RHS  r944  0.001179772087680907
    RHS  r945  3.551255360046973
    RHS  r946  0.09606801191376066
    RHS  r947  -11.205602173827458
    RHS  r948  0.00026637262381188064
    RHS  r949  2790.0616788805337
    RHS  r950  350.8648315313296
    RHS  r951  0.2522869457651702
    RHS  r952  -0.00011534633860209981
    RHS  r953  1.2782774082360582
    RHS  r954  10314.223376198726
    RHS  r955  0.014678886771698386
    RHS  r956  0.030224905961723645
    RHS  r957  0.17834942296745704
    RHS  r958  -10.551118597083104
    RHS  r959  0.0009834488114763582
    RHS  r960  0.00039899743162788166
    RHS  r961  0.014304742498336048
    RHS  r962  0.032151779699029666
    RHS  r963  0.004594024323546566
    RHS  r964  -6082.85378190058
    RHS  r965  18.60698234551739
    RHS  r966  1.9749117669637328
    RHS  r967  0.0034171931828846825
    RHS  r968  -75.43172732669764
    RHS  r969  2619.36199684572
    RHS  r970  0.7162638716135943
    RHS  r971  0.26503484866146726
    RHS  r972  0.016664781824651503
    RHS  r973  0.038776021988893156
    RHS  r974  0.031297221788403884
    RHS  r975  -0.18219424035923446
    RHS  r976  -7.045616299440909
    RHS  r977  2948.634072697395
    RHS  r978  5.673015969395597
    RHS  r979  -1835.4649385342311
    RHS  r980  -0.04366935418478201
    RHS  r981  -5.685802272433515e-05
    RHS  r982  0.00010088080602100018
    RHS  r983  43.76766530043654
    RHS  r984  0.2335382006982111
    RHS  r985  0.5006181732932881
    RHS  r986  1014.6730721065665
    RHS  r987  -0.0030645365578731965
    RHS  r988  0.0010750685150646517
    RHS  r989  167.15134865761215
    RHS  r990  0.00022719166991173187
    RHS  r991  0.0057055086026569415
    RHS  r992  0.9974409003512233
    RHS  r993  7.382239166905544
    RHS  r994  5963.679691445454
    RHS  r995  0.0001113909477982921
    RHS  r996  38.81591203058653
    RHS  r997  -0.02033062102628133
    RHS  r998  10.452940151932273
    RHS  r999  -1371.9336993493348
    RHS  r1000  -0.052528091820238494
    RHS  r1001  -3.251971905896046
    RHS  r1002  0.03399971241430731
    RHS  r1003  -6.906389522714203
    RHS  r1004  0.7218160773406577
    RHS  r1005  1.3340964038479612
    RHS  r1006  0.5140971515562378
    RHS  r1007  3.457379125639363
    RHS  r1008  -167.44396541593454
    RHS  r1009  13.159581873317974
    RHS  r1010  -0.00012798729573841372
    RHS  r1011  -0.000299294545463127
    RHS  r1012  0.861049390013864
    RHS  r1013  213.73384782817908
    RHS  r1014  -524.415363456816
    RHS  r1015  -0.003448240842961354
    RHS  r1016  -0.225782136964843
    RHS  r1017  -75.28628674406743
    RHS  r1018  1656.5629028948442
    RHS  r1019  28.705860468143353
    RHS  r1020  -22.6456121479149
    RHS  r1021  -3.4341305634816015e-05
    RHS  r1022  0.00158499348744671
    RHS  r1023  0.005539814783010439
    RHS  r1024  -0.10806191889347101
    RHS  r1025  0.0001081869093990177
    RHS  r1026  0.0025748944844602695
    RHS  r1027  -0.9436001873734384
    RHS  r1028  -5.651259670133151e-05
    RHS  r1029  -0.0001504725410729723
    RHS  r1030  0.00027563879158098374
    RHS  r1031  66.17229985163219
    RHS  r1032  -646.6568459598617
    RHS  r1033  513.7924450003424
    RHS  r1034  3.0328163814222815e-05
    RHS  r1035  0.00010390720472033993
    RHS  r1036  33.36631820324925
    RHS  r1037  27.142808133112077
    RHS  r1038  -32.08480726505144
    RHS  r1039  0.00018535843073277643
    RHS  r1040  9.698731032147563
    RHS  r1041  0.09798617675734264
    RHS  r1042  0.007798953354542461
    RHS  r1043  0.0003732357270034363
    RHS  r1044  29.220398239774287
    RHS  r1045  375.8701287890595
    RHS  r1046  201.95213546729957
    RHS  r1047  0.0009164076894654268
    RHS  r1048  0.009130088951212883
    RHS  r1049  0.024740353191306394
    RHS  r1050  -0.5667336191350999
    RHS  r1051  -9.814925702535305e-05
    RHS  r1052  5422.750727907629
    RHS  r1053  0.0002764904207224132
    RHS  r1054  -4.048596656675278
    RHS  r1055  0.10131414827158632
    RHS  r1056  0.02778435896733455
    RHS  r1057  0.02253502135383424
    RHS  r1058  0.003925231969323579
    RHS  r1059  -48.962271447430524
    RHS  r1060  0.0008251247459969378
    RHS  r1061  0.4880547309419816
    RHS  r1062  3.53897954986656
    RHS  r1063  186.22893203921285
    RHS  r1064  0.09408213446613133
    RHS  r1065  0.0677079619803519
    RHS  r1066  2.317651122834981
    RHS  r1067  9.811233139066278
    RHS  r1068  1617.8801221092058
    RHS  r1069  1197.9036558698806
    RHS  r1070  0.03257852239547643
    RHS  r1071  0.0002750589606634798
    RHS  r1072  5.885309964130128
    RHS  r1073  0.009769474115393985
    RHS  r1074  0.000508814875716332
    RHS  r1075  1.7174320449019396
    RHS  r1076  42.31102584499034
    RHS  r1077  -0.1843137460178823
    RHS  r1078  0.9161824514819352
    RHS  r1079  112.39555398000495
    RHS  r1080  -12.259087303533146
    RHS  r1081  -0.00764441134940734
    RHS  r1082  -59.71044627377569
    RHS  r1083  0.003037109072916691
    RHS  r1084  3017.989725740115
    RHS  r1085  1217.2503375659749
    RHS  r1086  884.5324208704482
    RHS  r1087  0.5230059599673279
    RHS  r1088  -0.01452361546792057
    RHS  r1089  0.0013882705871103578
    RHS  r1090  55.25496873900662
    RHS  r1091  696.3060414519149
    RHS  r1092  710.9780079443137
    RHS  r1093  1.2097586279031234
    RHS  r1094  0.012623820963900547
    RHS  r1095  -0.003813819452518609
    RHS  r1096  -16.70194550473966
    RHS  r1097  -1.5579920133958614
    RHS  r1098  -0.004068486256056543
    RHS  r1099  0.9269118407340101
    RHS  r1100  0.48744364598648904
    RHS  r1101  0.0007926359186846405
    RHS  r1102  0.12406028096406303
    RHS  r1103  -118.92681929469398
    RHS  r1104  119.49856980947493
    RHS  r1105  -36.396142231087076
    RHS  r1106  -489.76339865486494
    RHS  r1107  0.020101095480031278
    RHS  r1108  535.9433127693953
    RHS  r1109  0.010912039502791513
    RHS  r1110  0.0034895480148575448
    RHS  r1111  4.180090381305624
    RHS  r1112  -0.0058901544984048156
    RHS  r1113  -0.32433968478915437
    RHS  r1114  -0.0015009341093279408
    RHS  r1115  285.2273798116064
    RHS  r1116  29.495860062656487
    RHS  r1117  0.005391815463926803
    RHS  r1118  22.254491859922563
    RHS  r1119  0.010776818481004102
    RHS  r1120  5163.876652684062
    RHS  r1121  36.97078476543449
    RHS  r1122  0.009721433320002986
    RHS  r1123  -0.0001504099343206388
    RHS  r1124  1.7335921868090145
    RHS  r1125  435.53895131159936
    RHS  r1126  0.8780212514618098
    RHS  r1127  -6.960695801370516e-05
    RHS  r1128  0.005933012998303765
    RHS  r1129  3.8167237699804097
    RHS  r1130  -21.41903042488427
    RHS  r1131  -2.620221876907484
    RHS  r1132  -0.17792185861056667
    RHS  r1133  368.46360152914013
    RHS  r1134  -0.02589753755128272
    RHS  r1135  0.2593456457974983
    RHS  r1136  1.374605318032302
    RHS  r1137  -0.0011694667352543128
    RHS  r1138  -0.07571558073242617
    RHS  r1139  0.0003366619461407746
    RHS  r1140  5.692698310251983
    RHS  r1141  1413.775005836068
    RHS  r1142  7.8977900282205855
    RHS  r1143  0.0007395546988886596
    RHS  r1144  9.548102113140294
    RHS  r1145  1220.3271210005005
    RHS  r1146  0.00013087198504052274
    RHS  r1147  105.83974020379375
    RHS  r1148  0.0007593005369426053
    RHS  r1149  -4555.616501339878
    RHS  r1150  1827.097089345631
    RHS  r1151  0.041884257304920305
    RHS  r1152  0.033462383580576786
    RHS  r1153  0.6437138692681748
    RHS  r1154  0.7138442575637151
    RHS  r1155  0.08382672636286222
    RHS  r1156  0.0538629964173266
    RHS  r1157  0.19502224089359269
    RHS  r1158  14.399464884391639
    RHS  r1159  0.012642725323841851
    RHS  r1160  0.0699019428045158
    RHS  r1161  0.0005192200537153313
    RHS  r1162  0.5547608904588268
    RHS  r1163  0.1166540609941568
    RHS  r1164  314.65226093005947
    RHS  r1165  0.000924304205218133
    RHS  r1166  0.001994347766239366
    RHS  r1167  261.779527771216
    RHS  r1168  -0.7222164402732373
    RHS  r1169  6406.4953386659
    RHS  r1170  -99.09462428360939
    RHS  r1171  -3.152498360620147e-05
    RHS  r1172  5704.7812874757865
    RHS  r1173  0.43042717661969726
    RHS  r1174  -434.1203517936563
    RHS  r1175  0.00015253226613571832
    RHS  r1176  0.07641440470550237
    RHS  r1177  679.1723869884095
    RHS  r1178  0.0052225670305524295
    RHS  r1179  0.046605987192245714
    RHS  r1180  0.0011733521429278613
    RHS  r1181  11.674576807419616
    RHS  r1182  0.0010708131360875482
    RHS  r1183  925.7166864930603
    RHS  r1184  0.26163837323700373
    RHS  r1185  -0.0041722092538553695
    RHS  r1186  -0.00010180910086725525
    RHS  r1187  0.006108319768927395
    RHS  r1188  -0.0011521785741320611
    RHS  r1189  -0.08729474346757833
    RHS  r1190  12.700134046119475
    RHS  r1191  0.08990102574721434
    RHS  r1192  0.0002533867026688074
    RHS  r1193  -102.16871749458491
    RHS  r1194  25.304910010369554
    RHS  r1195  1479.68937798936
    RHS  r1196  3.2573274623260517
    RHS  r1197  -0.0035362667013237813
    RHS  r1198  -196.97311748767527
    RHS  r1199  688.0058846765654
RANGES
    RNG  r0  0.07849527683470847
    RNG  r1  0.0005954557730240076
    RNG  r8  355.22464236219275
    RNG  r9  15.01954795970147
    RNG  r15  19.799993723732484
    RNG  r16  3.817003677132604
    RNG  r17  0.0003322095571766442
    RNG  r26  0.1290526069443807
    RNG  r33  0.24252349089588066
    RNG  r38  11.934729153412917
    RNG  r39  16.148015013011616
    RNG  r47  0.2743359434789152
    RNG  r49  5.919484929475132e-05
    RNG  r50  0.0023944617129408943
    RNG  r51  581.077047173414
    RNG  r56  2.3526876643787062
    RNG  r61  0.3667929696138206
    RNG  r63  0.0012651994280489173
    RNG  r67  0.22577257552950747
    RNG  r68  20.07593349925918
    RNG  r69  51.57154690252577
    RNG  r71  0.0005450728990777486
    RNG  r72  0.09060123370816164
    RNG  r75  0.0011330132307338751
    RNG  r77  0.13790850382813247
    RNG  r79  0.016853776223971495
    RNG  r84  114.80404123480321
    RNG  r87  0.000940704137749479
    RNG  r90  0.21319384829049604
    RNG  r93  0.0019954722954172582
    RNG  r94  0.00137327935322034
    RNG  r97  21.492815698556285
    RNG  r98  0.9881042821489352
    RNG  r100  9.343416378720008
    RNG  r105  0.041478911403723395
    RNG  r107  4.387254304574653e-05
    RNG  r109  0.00018457240631384675
    RNG  r123  0.16355737969263107
    RNG  r129  0.1322195111625919
    RNG  r131  0.2918582631300852
    RNG  r132  1.0469320754825652e-05
    RNG  r133  340.95475903964234
    RNG  r134  0.125103944100164
    RNG  r135  0.05052082913032835
    RNG  r136  0.04628651339153722
    RNG  r138  446.0699388363373
    RNG  r141  1.7822873035196238
    RNG  r147  0.03895646966318611
    RNG  r148  0.0008178941455187815
    RNG  r149  0.00019945093250864983
    RNG  r151  0.006162849979816823
    RNG  r152  0.025031445086388993
    RNG  r159  4.871055408459043
    RNG  r162  0.0056037258263612055
    RNG  r164  3.69305809087723
    RNG  r165  0.00013797840174892316
    RNG  r168  1.2560320791641004
    RNG  r170  0.0002259104300776577
    RNG  r175  1.3365411621174908e-05
    RNG  r177  0.0008333916499024645
    RNG  r178  2.0138516965423534
    RNG  r179  1.8157557023229955
    RNG  r184  286.1781011073863
    RNG  r186  0.00028974088775346636
    RNG  r190  7.406184541563448
    RNG  r191  0.31455981098056185
    RNG  r192  0.012320104365349568
    RNG  r194  0.00011506896832221957
    RNG  r202  0.5381875858576208
    RNG  r203  0.8694241162499425
    RNG  r206  31.7357310306395
    RNG  r208  0.0016673998612665303
    RNG  r210  0.059465721407253376
    RNG  r217  0.00012869007667040949
    RNG  r220  9.734944355469736
    RNG  r221  1.7425239009067397
    RNG  r224  42.81098087475914
    RNG  r225  1.7988418383436482
    RNG  r228  0.14395672823719874
    RNG  r229  0.0029952430563739904
    RNG  r236  0.5942694385011578
    RNG  r238  0.05059518520404788
    RNG  r247  97.4815525159047
    RNG  r252  0.027920032840223596
    RNG  r254  52.93214370617807
    RNG  r255  0.009047619450668648
    RNG  r256  1.1693939896678849
    RNG  r258  0.03469434679389993
    RNG  r261  0.1140902909913345
    RNG  r263  0.0017121810317594216
    RNG  r264  0.5962095856706657
    RNG  r266  3.377625901962737e-05
    RNG  r268  0.0008703030525589565
    RNG  r272  0.26552299439003146
    RNG  r277  0.0025605657439854435
    RNG  r284  41.48873212068668
    RNG  r286  3.912074251318453e-05
    RNG  r289  0.5415336518049596
    RNG  r290  0.0002054662873615346
    RNG  r291  2.0175765927699454e-05
    RNG  r299  4.779096041054558
    RNG  r300  0.0017488397093127703
    RNG  r306  0.0004509009972840719
    RNG  r308  0.0014125545797320817
    RNG  r309  0.00022047239965441827
    RNG  r312  1.0278824951278942
    RNG  r313  0.8861525921323405
    RNG  r318  0.02192032104652253
    RNG  r320  68.26762745321321
    RNG  r321  4.1108789799074435e-05
    RNG  r329  0.012428182565574195
    RNG  r330  39.97470602667818
    RNG  r333  1.3980686294193276
    RNG  r337  0.004884985219090296
    RNG  r345  0.00361012560822338
    RNG  r351  16.587403261635416
    RNG  r352  0.026602391926032948
    RNG  r353  1.9252794193873302e-05
    RNG  r355  1.8043002715852907
    RNG  r360  0.0005345724230580544
    RNG  r362  0.00010171028555469586
    RNG  r363  1946.692086236806
    RNG  r364  0.10943978684091649
    RNG  r365  1.3094892786143374e-05
    RNG  r370  1.9146914710380786e-05
    RNG  r371  0.003111309068121494
    RNG  r372  0.0045151099166272635
    RNG  r374  29.147017893493796
    RNG  r388  465.69439614633666
    RNG  r389  189.38283133127334
    RNG  r393  0.7604811955512645
    RNG  r395  0.0007151523510348489
    RNG  r398  1.3061083762179568e-05
    RNG  r402  8.944685355222788
    RNG  r409  40.66334572890548
    RNG  r410  1.8522517509262357
    RNG  r411  2.377573864480233
    RNG  r413  0.012395614766415958
    RNG  r414  0.15544854215675707
    RNG  r415  0.0020481510409545017
    RNG  r418  0.017482285423677912
    RNG  r430  0.00014743047765821294
    RNG  r431  283.6179375789379
    RNG  r437  0.04195997207419111
    RNG  r440  0.09889519757999632
    RNG  r441  0.015021406491106948
    RNG  r442  0.004405958783106387
    RNG  r443  2.129392490261567e-06
    RNG  r444  3.3134662177565417
    RNG  r452  6.942128609181412e-06
    RNG  r454  0.1875718440004861
    RNG  r456  21.57563628498235
    RNG  r457  224.30310981064304
    RNG  r458  26.470566483078798
    RNG  r459  2.1582183448185077
    RNG  r462  1.673647557687472
    RNG  r463  0.010710821383760949
    RNG  r464  0.0010915174278305767
    RNG  r465  0.491095861706242
    RNG  r472  0.0001644367326403451
    RNG  r476  8.251105463306573
    RNG  r478  1001.2518110580058
    RNG  r479  0.0005590796124013472
    RNG  r480  0.00013229735543232243
    RNG  r482  65.77982391940623
    RNG  r483  3.055336615906228
    RNG  r484  6.853326471043874e-06
    RNG  r485  645.9067841850265
    RNG  r489  0.1492553763706317
    RNG  r492  0.032653026193061985
    RNG  r493  0.3973083534508972
    RNG  r495  0.1931494629663597
    RNG  r501  0.0005583024928281048
    RNG  r505  9.09908763512175e-05
    RNG  r506  0.5245830972097618
    RNG  r510  0.0008622915934264064
    RNG  r511  0.046086467496753936
    RNG  r514  10.477866620406473
    RNG  r515  32.901821472387496
    RNG  r517  49.47276603330545
    RNG  r519  0.42224336238915505
    RNG  r529  45.59906008513542
    RNG  r530  5.408715867401357e-05
    RNG  r531  0.009765011192599538
    RNG  r532  5.383177425273794e-05
    RNG  r533  0.0003254161225442675
    RNG  r536  35.68830193408951
    RNG  r537  0.4441198651777878
    RNG  r538  0.037439477096980256
    RNG  r543  1.9272629200258926e-05
    RNG  r544  0.0015040098129570946
    RNG  r548  0.8080585726314924
    RNG  r551  0.9298579882058959
    RNG  r552  541.6676731998068
    RNG  r557  0.001358368330937016
    RNG  r558  0.2688788144917744
    RNG  r559  0.0008930670290236975
    RNG  r560  232.81460693221197
    RNG  r561  77.95361043415005
    RNG  r564  4.843171823510531
    RNG  r571  0.0018128077775653381
    RNG  r576  0.00498388242411392
    RNG  r583  0.0007545066360951976
    RNG  r589  5.2136581554011485
    RNG  r598  0.0001556201111864255
    RNG  r600  8.032773473563674e-05
    RNG  r605  3.25249819888388e-05
    RNG  r606  0.9246381856875807
    RNG  r609  75.96057734149326
    RNG  r610  0.08755120349877732
    RNG  r612  0.0009067993095956337
    RNG  r619  22.32689065486983
    RNG  r622  4.8939439231860575
    RNG  r635  2.4723276330976642e-05
    RNG  r636  9.923855351135416
    RNG  r639  69.8817790181381
    RNG  r646  0.005516275332738227
    RNG  r648  0.0006879229893758752
    RNG  r650  0.37861347938785617
    RNG  r651  0.0042029752631223966
    RNG  r653  0.11361923771452753
    RNG  r655  0.0008011987727007041
    RNG  r662  0.0023285018219640075
    RNG  r663  0.007305488797071991
    RNG  r668  0.001180785149987363
    RNG  r672  0.09283329625195802
    RNG  r674  0.00020300191202218343
    RNG  r675  120.07325103590256
    RNG  r677  6.210833935891484e-05
    RNG  r678  0.6399361081542914
    RNG  r679  0.24451151270854332
    RNG  r684  733.3075968732301
    RNG  r686  0.07817021636090571
    RNG  r687  0.0033147027324327734
    RNG  r688  0.6422972092768457
    RNG  r691  1.0858794747055676
    RNG  r694  19.058156451982256
    RNG  r695  0.0005040193445248649
    RNG  r702  0.6938535875540452
    RNG  r706  0.0003990585594382083
    RNG  r707  9.958744064743428e-05
    RNG  r709  4.658920157709275
    RNG  r713  0.0005839102331689165
    RNG  r714  135.61633838021226
    RNG  r716  0.07440085259748241
    RNG  r719  0.0002621537554653398
    RNG  r720  122.72494131936355
    RNG  r722  139.74238355511898
    RNG  r723  0.17618136373771343
    RNG  r736  127.03258705331791
    RNG  r737  244.87123912852712
    RNG  r739  146.83384534322704
    RNG  r741  0.002139150236078295
    RNG  r743  205.64596516419624
    RNG  r744  0.0177950927372037
    RNG  r746  0.07057792993497669
    RNG  r752  0.0003790223999567783
    RNG  r755  25.618137578862047
    RNG  r756  3.50314955274201e-06
    RNG  r757  0.9234572817363187
    RNG  r758  0.00024161452960710147
    RNG  r759  0.00037644910404950084
    RNG  r760  0.0019725244091189156
    RNG  r761  8.105451507006223e-05
    RNG  r762  0.6224510777218111
    RNG  r764  0.6992474550556125
    RNG  r766  0.0024315120446649977
    RNG  r770  158.90232907496784
    RNG  r771  40.53613998130197
    RNG  r772  0.0002800796312725498
    RNG  r773  0.4758983048842431
    RNG  r774  0.0005096357708304789
    RNG  r779  452.62270636821813
    RNG  r780  0.9667347802880855
    RNG  r789  20.881092038870747
    RNG  r794  0.025390324792997326
    RNG  r795  0.7795046764789202
    RNG  r799  0.0004896530467533161
    RNG  r808  8.114255325144745e-05
    RNG  r815  2.42290424589661e-05
    RNG  r816  0.00045871224849863487
    RNG  r819  2.149800214841676
    RNG  r823  3.417618226528513e-05
    RNG  r824  58.124815498124235
    RNG  r827  0.015227291227193476
    RNG  r829  0.03410330336788969
    RNG  r834  28.568204232451222
    RNG  r835  3.406444538744669
    RNG  r843  6.9069873853586875e-06
    RNG  r845  15.623839181197411
    RNG  r847  0.012748483540133748
    RNG  r852  0.0010575076727660192
    RNG  r853  5.945879755216827e-05
    RNG  r857  400.92345405714786
    RNG  r861  147.99455940434427
    RNG  r863  0.867270698955867
    RNG  r864  1.7741171911565061
    RNG  r865  186.7646746398027
    RNG  r867  1.6281719764153912
    RNG  r868  0.30673892063396746
    RNG  r875  0.0004971422818532446
    RNG  r877  26.781970165955613
    RNG  r878  0.2822447859038455
    RNG  r882  2.60976490028267
    RNG  r884  4.152426248003607
    RNG  r886  1.1386897646564407
    RNG  r888  0.00042202452633001257
    RNG  r890  3.7928039549064607
    RNG  r891  324.54582081615627
    RNG  r898  82.63185548855427
    RNG  r899  0.06699769445365655
    RNG  r900  0.05318289458696396
    RNG  r902  0.005650076177277544
    RNG  r903  3.7579448596185935e-07
    RNG  r907  0.16703129922069815
    RNG  r909  3.4578600632880827e-06
    RNG  r911  0.32055473020449554
    RNG  r912  0.05729965502149831
    RNG  r914  2.4225741106944157e-05
    RNG  r921  616.2496021616353
    RNG  r923  0.08929699444628825
    RNG  r924  30.090804770087402
    RNG  r929  3.080903418980121
    RNG  r932  1.985777212166818
    RNG  r941  29.221955122239024
    RNG  r944  0.00018540050749448617
    RNG  r948  2.8596272148994077e-05
    RNG  r950  37.31863918099873
    RNG  r951  0.026833711020404882
    RNG  r953  0.13684661041239954
    RNG  r954  1100.1478925792471
    RNG  r962  0.030772105329610493
    RNG  r965  1.975913823482955
    RNG  r967  0.0006855409673659145
    RNG  r968  7.548187142491855
    RNG  r976  0.6836390807426742
    RNG  r979  177.48786093970057
    RNG  r982  1.1018159132370484e-05
    RNG  r983  6.430255069247991
    RNG  r986  107.67495904786756
    RNG  r989  18.42261737542225
    RNG  r990  2.477475060008941e-05
    RNG  r991  0.0006221731300356092
    RNG  r992  0.10813105541395351
    RNG  r999  138.38808034637077
    RNG  r1002  0.0036580939727530737
    RNG  r1004  0.08035166336695254
    RNG  r1007  0.37286417438230046
    RNG  r1009  1.4022081751906263
    RNG  r1014  50.974050638635845
    RNG  r1017  8.160502471952924
    RNG  r1019  3.0628310725893826
    RNG  r1022  0.00017039531236938844
    RNG  r1030  3.016331158183568e-05
    RNG  r1032  63.86931623950909
    RNG  r1033  55.383351006909834
    RNG  r1036  3.617857622330831
    RNG  r1037  2.9442787302867686
    RNG  r1038  17.09565103520242
    RNG  r1039  2.0953223391876274e-05
    RNG  r1042  0.0008290428598797068
    RNG  r1044  3.357890487723875
    RNG  r1045  41.8634786336778
    RNG  r1047  9.932108545986887e-05
    RNG  r1048  0.0009924304771733623
    RNG  r1055  0.01081017264373138
    RNG  r1060  8.86947189233842e-05
    RNG  r1065  0.007313746382149655
    RNG  r1066  0.2503503577332076
    RNG  r1067  1.0587630262916505
    RNG  r1069  127.55148156196901
    RNG  r1072  0.6340107323628885
    RNG  r1075  0.1970284462380798
    RNG  r1078  0.09956568421307743
    RNG  r1080  7.77469160714795
    RNG  r1083  0.0003975707757119225
    RNG  r1086  93.853917424374
    RNG  r1088  0.0014627748822215042
    RNG  r1089  0.00014975785452363624
    RNG  r1091  74.51110147145573
    RNG  r1092  75.81316173107166
    RNG  r1097  0.15230261174131332
    RNG  r1100  0.05435097804821165
    RNG  r1101  8.838055035944822e-05
    RNG  r1102  0.013310902357659263
    RNG  r1103  11.847026687777998
    RNG  r1105  3.714024446706887
    RNG  r1109  0.0011608754037766462
    RNG  r1115  30.49620279367514
    RNG  r1117  0.000573232591023742
    RNG  r1118  2.3717176370526545
    RNG  r1120  556.350760377587
    RNG  r1121  3.983194331099412
    RNG  r1123  1.4954248250060827e-05
    RNG  r1124  0.22310097522385464
    RNG  r1126  0.09347488822024452
    RNG  r1127  6.869439279962806e-06
    RNG  r1129  0.4077138839038117
    RNG  r1131  0.25487673167401326
    RNG  r1136  0.15129683365071722
    RNG  r1141  150.2841672021773
    RNG  r1142  0.8610862634247987
    RNG  r1145  131.4168250303619
    RNG  r1146  1.4093582326863774e-05
    RNG  r1150  194.0167054094054
    RNG  r1151  0.004447626596887133
    RNG  r1152  0.003594069496480945
    RNG  r1155  0.009159795372120194
    RNG  r1157  0.021256386186750797
    RNG  r1158  1.5587644345658092
    RNG  r1159  0.0013483742209880883
    RNG  r1162  0.061030225984761266
    RNG  r1164  49.369197925539765
    RNG  r1166  0.000212447568024696
    RNG  r1175  1.6788840768944973e-05
    RNG  r1177  73.36937748696255
    RNG  r1179  0.005007165682429801
    RNG  r1182  0.00012007924055977386
    RNG  r1184  0.0307079425825183
    RNG  r1185  0.0004185249274763943
    RNG  r1187  0.0006652757984381193
    RNG  r1188  0.0001235448557778693
    RNG  r1191  0.009647539629875246
    RNG  r1195  160.87968914019666
    RNG  r1197  0.0003642421248252854
BOUNDS
 UP BND  x0  0.06808945603669186
 UP BND  x1  352.97083384236504
 UP BND  x2  1.6938323309746015
 UP BND  x3  159.91145881277518
 UP BND  x4  0.10359288592192735
 UP BND  x5  0.2319516006018716
 UP BND  x6  11.163893943765125
 UP BND  x7  0.5535049806595461
 UP BND  x8  193.94918468709625
 UP BND  x9  12.664941700636634
 UP BND  x10  1.7774385035506948
 UP BND  x11  0.0034644815848977
 UP BND  x12  0.8288784668555161
 UP BND  x13  11.835811839449516
 UP BND  x14  0.002644647208912515
 UP BND  x15  914.3004904814167
 UP BND  x16  37.969307079267544
 UP BND  x17  0.05650047835738138
 UP BND  x18  20.08049187979771
 UP BND  x19  62.46254145977624
 UP BND  x20  13.005833943729316
 UP BND  x21  142.0097451973644
 UP BND  x22  0.007337561426763055
 UP BND  x23  0.03436197195084797
 UP BND  x24  495.43853288337016
 UP BND  x25  21.724644435871678
 UP BND  x26  89.32941321910293
 UP BND  x27  8.300468717038292
 UP BND  x28  0.047089366829858606
 UP BND  x29  0.004630845757528614
 UP BND  x30  0.9195290633996267
 UP BND  x31  48.4867035540915
 UP BND  x32  0.013800481837138593
 UP BND  x33  0.007097354751400809
 UP BND  x34  513.4990339001982
 UP BND  x35  0.14689218804146256
 UP BND  x36  387.5242350819271
 UP BND  x37  2.6820114982447674
 UP BND  x38  0.14123161878821625
 UP BND  x39  1.0740034072679208
 UP BND  x40  0.0088567389350828
 UP BND  x41  1.403309547974699
 UP BND  x42  792.3093299295447
 UP BND  x43  0.23770863033388184
 UP BND  x44  0.004557154007777713
 UP BND  x45  0.08119011046633517
 UP BND  x46  10.551322899892062
 UP BND  x47  54.79940354120546
 UP BND  x48  1.544066118086978
 UP BND  x49  4.81055931657734
 UP BND  x50  0.011755242062774495
 UP BND  x51  0.14627080901538983
 UP BND  x52  0.09773951297016575
 UP BND  x53  0.024367026576082775
 UP BND  x54  0.011443553604586348
 UP BND  x55  0.25060289262669766
 UP BND  x56  0.01088046621840554
 UP BND  x57  36.441047255540305
 UP BND  x58  0.09206027588769253
 UP BND  x59  193.3355403184698
 UP BND  x60  0.014670921507970947
 UP BND  x61  1.0464331263637643
 UP BND  x62  23.948349990204306
 UP BND  x63  0.014870168296981616
 UP BND  x64  0.0055810918076594496
 UP BND  x65  0.18641024821052016
 UP BND  x66  0.40383517740851993
 UP BND  x67  0.2565554511926648
 UP BND  x68  1.4483609219811233
 UP BND  x69  0.1378511795808472
 UP BND  x70  0.015310950931978073
 UP BND  x71  1533.9720055765804
 UP BND  x72  1889.2908684974566
 UP BND  x73  474.5010171637139
 UP BND  x74  455.73606066034654
 UP BND  x75  119.2991992529327
 UP BND  x76  12.255510272775709
 UP BND  x77  0.0034696926563450936
 UP BND  x78  6.992834146949031
 UP BND  x79  0.004440002665004208
 UP BND  x80  26.043822441270084
 UP BND  x81  1486.2549702393121
 UP BND  x82  0.02491324847226016
 UP BND  x83  205.1544096400592
 UP BND  x84  0.5638775790462959
 UP BND  x85  73.83654715652033
 UP BND  x86  0.006233309118530087
 UP BND  x87  0.10377355535928942
 UP BND  x88  0.34733241915539886
 UP BND  x89  4.844497977960499
 UP BND  x90  0.10700369140655705
 UP BND  x91  0.023771871660313713
 UP BND  x92  0.08690525118316075
 UP BND  x93  617.7141648974061
 UP BND  x94  0.10656484537103737
 UP BND  x95  0.1650332126762892
 UP BND  x96  606.3509383024766
 UP BND  x97  34.421405124908226
 UP BND  x98  0.06468474487683745
 UP BND  x99  0.01579015905506634
 UP BND  x100  59.97833994658646
 UP BND  x101  0.0025922429211199935
 UP BND  x102  0.07557738392248478
 UP BND  x103  256.7852083612505
 UP BND  x104  0.15621397709553497
 UP BND  x105  66.3932700251288
 UP BND  x106  0.01373310901262574
 UP BND  x107  1137.0452046581383
 UP BND  x108  439.3170092143786
 UP BND  x109  6.801844321264103
 UP BND  x110  94.77438256644476
 UP BND  x111  151.01723567563096
 UP BND  x112  0.004815145194753414
 UP BND  x113  19.39207808546921
 UP BND  x114  101.39460073159029
 UP BND  x115  565.4500082199052
 UP BND  x116  0.1311509232664384
 UP BND  x117  0.06282106761082422
 UP BND  x118  0.039776277403015536
 UP BND  x119  5.237433430218373
 UP BND  x120  0.23013035447366095
 UP BND  x121  0.7436828075249211
 UP BND  x122  0.8452560006027103
 UP BND  x123  0.0036827410825156512
 UP BND  x124  1.8784849224466116
 UP BND  x125  719.0945043389501
 UP BND  x126  289.08806520658965
 UP BND  x127  0.12235077329114995
 UP BND  x128  5.833300058263606
 UP BND  x129  29.67706398164493
 UP BND  x130  465.36582364147273
 UP BND  x131  0.5450832595609159
 UP BND  x132  0.05157598571737201
 UP BND  x133  2.322267576384772
 UP BND  x134  648.4009545261401
 UP BND  x135  0.009818785995804052
 UP BND  x136  785.6983073406622
 UP BND  x137  918.1647764768397
 UP BND  x138  0.5729907693533359
 UP BND  x139  11.2822175882643
 UP BND  x140  5.315764993050306
 UP BND  x141  91.3786665334118
 UP BND  x142  0.05882820251427145
 UP BND  x143  14.276457100166171
 UP BND  x144  32.80230786289161
 UP BND  x145  1.276573695002406
 UP BND  x146  297.2984734093959
 UP BND  x147  0.0023061007476841465
 UP BND  x148  0.0913382912768447
 UP BND  x149  0.09451668519592131
 UP BND  x150  989.2578606430372
 UP BND  x151  303.14707718239765
 UP BND  x152  706.4567261308689
 UP BND  x153  218.54823270394255
 UP BND  x154  148.31840328453723
 UP BND  x155  1631.8991418603634
 UP BND  x156  48.849054367400754
 UP BND  x157  0.37494776600641433
 UP BND  x158  0.4109324518404285
 UP BND  x159  0.0033160499130835417
 UP BND  x160  0.003143594757471642
 UP BND  x161  76.68404443653336
 UP BND  x162  138.38200370055105
 UP BND  x163  0.5671311283013907
 UP BND  x164  0.002364031328108791
 UP BND  x165  0.010613974815867651
 UP BND  x166  0.031303122885694125
 UP BND  x167  1.2487290274560294
 UP BND  x168  1.2881477560339167
 UP BND  x169  4.663512667324226
 UP BND  x170  82.27589213827495
 UP BND  x171  5.957531828338842
 UP BND  x172  759.4394740657544
 UP BND  x173  3.227313891194802
 UP BND  x174  287.2562340740693
 UP BND  x175  0.11888958114104382
 UP BND  x176  0.5356486281051314
 UP BND  x177  0.41990751894121947
 UP BND  x178  0.0467413099976271
 UP BND  x179  40.01398086564028
 UP BND  x180  84.41856826045947
 UP BND  x181  281.19714762145014
 UP BND  x182  0.6457959343904768
 UP BND  x183  7.28708259887641
 UP BND  x184  1295.876514643972
 UP BND  x185  8.330221753420334
 UP BND  x186  0.07662132308030897
 UP BND  x187  0.002564932201185232
 UP BND  x188  19.56965893275724
 UP BND  x189  32.71013639604319
 UP BND  x190  0.02140809686440888
 UP BND  x191  0.01680575663142972
 UP BND  x192  76.73664041847084
 UP BND  x193  0.028716423669903495
 UP BND  x194  56.48373565212249
 UP BND  x195  0.0020926082701138056
 UP BND  x196  2.3587966544258703
 UP BND  x197  0.0314985752945627
 UP BND  x198  706.3745509795469
 UP BND  x199  0.4314940879584438
 UP BND  x200  0.12009958082921803
 UP BND  x201  6.320816770582923
 UP BND  x202  0.07976625780484706
 UP BND  x203  333.5243049424724
 UP BND  x204  0.006114130319864335
 UP BND  x205  1.269624400917428
 UP BND  x206  38.83541446176014
 UP BND  x207  0.02564026607766177
 UP BND  x208  0.01687636012606672
 UP BND  x209  4.766477411180467
 UP BND  x210  8.537788964741496
 UP BND  x211  1787.0658936902994
 UP BND  x212  0.02024367537674722
 UP BND  x213  154.0729433749994
 UP BND  x214  0.026233660224076808
 UP BND  x215  0.028908361954865132
 UP BND  x216  42.801529765111276
 UP BND  x217  5.052125397874319
 UP BND  x218  0.07021027098186858
 UP BND  x219  0.4576973871266632
 UP BND  x220  179.2443075528426
 UP BND  x221  882.7394521020476
 UP BND  x222  308.0152925987918
 UP BND  x223  2.6279686991836537
 UP BND  x224  594.0927460680554
 UP BND  x225  960.8850134793665
 UP BND  x226  15.591361988545069
 UP BND  x227  0.03359097416595698
 UP BND  x228  708.2866677812957
 UP BND  x229  9.197219543218457
 UP BND  x230  463.9507667961496
 UP BND  x231  0.006284220140651141
 UP BND  x232  1.6675202394098336
 UP BND  x233  7.89499642178499
 UP BND  x234  0.194939659600224
 UP BND  x235  766.9289386954538
 UP BND  x236  157.30816383095166
 UP BND  x237  5.026960140264647
 UP BND  x238  0.17279325507531698
 UP BND  x239  0.6599016258831378
 UP BND  x240  20.90303005295846
 UP BND  x241  53.975162834565076
 UP BND  x242  0.8912482476827293
 UP BND  x243  10.650997956626036
 UP BND  x244  6.9475517437142935
 UP BND  x245  0.00825423836666756
 UP BND  x246  258.67718503905525
 UP BND  x247  0.01079154496973827
 UP BND  x248  0.09297564327715059
 UP BND  x249  301.4600272916368
 UP BND  x250  386.9615930013768
 UP BND  x251  0.0032933248200371487
 UP BND  x252  0.027920217281036816
 UP BND  x253  61.38608206826607
 UP BND  x254  0.03479840609926483
 UP BND  x255  0.03803086444414287
 UP BND  x256  0.01910428365144085
 UP BND  x257  235.20756746292216
 UP BND  x258  46.15234236987651
 UP BND  x259  29.9983299684187
 UP BND  x260  0.2005930273583901
 UP BND  x261  3.246854877456923
 UP BND  x262  36.89388863544084
 UP BND  x263  20.817968603493135
 UP BND  x264  19.400504742480468
 UP BND  x265  0.7650315531737581
 UP BND  x266  33.9137271471264
 UP BND  x267  0.7508833338111476
 UP BND  x268  0.012741711649673934
 UP BND  x269  468.80228797497693
 UP BND  x270  0.5926507609846579
 UP BND  x271  0.0933135684254765
 UP BND  x272  0.09280115492520906
 UP BND  x273  0.018528803881912914
 UP BND  x274  171.19044724980787
 UP BND  x275  0.12582679019174148
 UP BND  x276  0.002379162800311041
 UP BND  x277  57.3481512587139
 UP BND  x278  0.016741813936950796
 UP BND  x279  0.7654353021116224
 UP BND  x280  0.16166755674528882
 UP BND  x281  0.0025293065566920664
 UP BND  x282  0.024880872095199784
 UP BND  x283  1335.8188801850388
 UP BND  x284  0.04685220987021522
 UP BND  x285  0.727737069383117
 UP BND  x286  144.19260353946277
 UP BND  x287  1.461751714579762
 UP BND  x288  25.693690065628942
 UP BND  x289  94.65791546556471
 UP BND  x290  543.8662473175683
 UP BND  x291  8.034357755928292
 UP BND  x292  54.41663006435273
 UP BND  x293  0.45203670730929946
 UP BND  x294  0.009931216536915912
 UP BND  x295  85.03226084281408
 UP BND  x296  0.004573642955348134
 UP BND  x297  303.16332829926216
 UP BND  x298  62.83808879347276
 UP BND  x299  592.7490582971311
 UP BND  x300  5.917696509206739
 UP BND  x301  65.43579930143312
 UP BND  x302  576.5454248066671
 UP BND  x303  702.1373916425481
 UP BND  x304  1342.0519163547563
 UP BND  x305  0.34151956678390233
 UP BND  x306  938.6093396677347
 UP BND  x307  0.05119524237880146
 UP BND  x308  142.664156248182
 UP BND  x309  0.025055763964811205
 UP BND  x310  7.655948911761996
 UP BND  x311  22.201306417844147
 UP BND  x312  63.98417864335354
 UP BND  x313  65.36847885306373
 UP BND  x314  6.102105231207024
 UP BND  x315  0.2155309209598939
 UP BND  x316  0.05078945879561432
 UP BND  x317  63.77463848523978
 UP BND  x318  2.3984596952990906
 UP BND  x319  327.58713437530827
 UP BND  x320  2.556938149188106
 UP BND  x321  0.8660740407117005
 UP BND  x322  0.015798564422124354
 UP BND  x323  0.017153872098430376
 UP BND  x324  569.988795181069
 UP BND  x325  8.769062928283548
 UP BND  x326  6.599733814462562
 UP BND  x327  0.016180614602782768
 UP BND  x328  1257.3142457654662
 UP BND  x329  5.776450850742937
 UP BND  x330  0.014971595689619182
 UP BND  x331  1.918285536123271
 UP BND  x332  19.5572398369392
 UP BND  x333  295.87468804218685
 UP BND  x334  0.013461806994611601
 UP BND  x335  214.6252368341338
 UP BND  x336  96.48397306985643
 UP BND  x337  0.00684202531201439
 UP BND  x338  6.876223328776248
 UP BND  x339  0.23279505845830523
 UP BND  x340  0.8992122854943041
 UP BND  x341  75.53789650469867
 UP BND  x342  0.05821423500518215
 UP BND  x343  0.36450694612000234
 UP BND  x344  1.313933954524501
 UP BND  x345  71.79317490763691
 UP BND  x346  0.5397461117811649
 UP BND  x347  0.009931410791849359
 UP BND  x348  4.779353511733946
 UP BND  x349  3.563216792664985
 UP BND  x350  49.76673572566381
 UP BND  x351  0.20788368345698813
 UP BND  x352  0.25100803132466964
 UP BND  x353  0.07421802246198224
 UP BND  x354  37.796243797487634
 UP BND  x355  50.102889979686196
 UP BND  x356  0.003351316654165561
 UP BND  x357  1036.9009732893016
 UP BND  x358  3.384365892042462
 UP BND  x359  245.9597015651709
 UP BND  x360  0.05566124824421665
 UP BND  x361  74.06353797365793
 UP BND  x362  1.6493009134979422
 UP BND  x363  0.11726233524520552
 UP BND  x364  354.7825042170932
 UP BND  x365  0.004163248163579915
 UP BND  x366  0.06627474241297683
 UP BND  x367  8.42384966780779
 UP BND  x368  162.91539268138948
 UP BND  x369  362.1830568855344
 UP BND  x370  7.469394440924337
 UP BND  x371  0.6994918071090215
 UP BND  x372  1425.101126663848
 UP BND  x373  0.5497857583240324
 UP BND  x374  1.1373134828060627
 UP BND  x375  8.487318410578338
 UP BND  x376  0.05737440303077305
 UP BND  x377  390.9001601128448
 UP BND  x378  6.126631839361793
 UP BND  x379  0.011889607828332963
 UP BND  x380  5.967555387657569
 UP BND  x381  11.368717139366971
 UP BND  x382  4.866952356840672
 UP BND  x383  33.097716985127136
 UP BND  x384  0.0020438277265294406
 UP BND  x385  0.020326097680061293
 UP BND  x386  7.173028016533323
 UP BND  x387  3.0759737428271707
 UP BND  x388  8.650029426091313
 UP BND  x389  0.27451763271073765
 UP BND  x390  0.01009656187039441
 UP BND  x391  219.83566322867892
 UP BND  x392  799.6060688665867
 UP BND  x393  28.221825679440023
 UP BND  x394  0.022327881929364985
 UP BND  x395  13.837564026577555
 UP BND  x396  37.064364800775614
 UP BND  x397  229.1405225043488
 UP BND  x398  1.939285017375887
 UP BND  x399  0.24783896750572745
 UP BND  x400  0.018837321901768917
 UP BND  x401  0.36922583082660443
 UP BND  x402  0.0029043598275879916
 UP BND  x403  656.5743635435435
 UP BND  x404  0.11565895486630798
 UP BND  x405  5.365359041058074
 UP BND  x406  2.9698506109854446
 UP BND  x407  17.69090982021926
 UP BND  x408  0.09729487435229885
 UP BND  x409  0.5228666192659714
 UP BND  x410  19.02337112040711
 UP BND  x411  1182.8449966539592
 UP BND  x412  130.49465502568987
 UP BND  x413  10.32012092767137
 UP BND  x414  13.214835726479409
 UP BND  x415  0.008517910069377825
 UP BND  x416  117.19947381257415
 UP BND  x417  1252.8494509482464
 UP BND  x418  0.1537548629459742
 UP BND  x419  0.005589253806276766
 UP BND  x420  46.52283133400291
 UP BND  x421  959.6616434976675
 UP BND  x422  0.007514160426883589
 UP BND  x423  333.88536768593906
 UP BND  x424  46.56961022548546
 UP BND  x425  1227.0830566297873
 UP BND  x426  0.004143409832669257
 UP BND  x427  0.1800431790082253
 UP BND  x428  70.09929816587655
 UP BND  x429  286.88972807611685
 UP BND  x430  2.541072132314194
 UP BND  x431  11.080359592038269
 UP BND  x432  1249.041887976383
 UP BND  x433  4.057611069202191
 UP BND  x434  0.026637961447097704
 UP BND  x435  0.7098919073468691
 UP BND  x436  1026.948712040159
 UP BND  x437  0.00876456700021065
 UP BND  x438  0.874085490250444
 UP BND  x439  0.00761352783980789
 UP BND  x440  0.00384437401299654
 UP BND  x441  107.29229709303155
 UP BND  x442  182.55169315678464
 UP BND  x443  276.47059044162484
 UP BND  x444  186.87147808346526
 UP BND  x445  0.009144783919850477
 UP BND  x446  0.005297086375477139
 UP BND  x447  1.9658298884396037
 UP BND  x448  17.079336048585642
 UP BND  x449  0.023097526153923728
 UP BND  x450  0.07153835015267294
 UP BND  x451  218.91936021082438
 UP BND  x452  102.43178425372979
 UP BND  x453  1.6848285666535117
 UP BND  x454  0.015784347940595484
 UP BND  x455  0.08041175737485344
 UP BND  x456  1.390643942406358
 UP BND  x457  0.5371250373318667
 UP BND  x458  13.54179047397696
 UP BND  x459  0.006181628917316863
 UP BND  x460  2.5243755448349328
 UP BND  x461  228.8576296007558
 UP BND  x462  0.00738299336529164
 UP BND  x463  7.035155122653703
 UP BND  x464  0.08588897558538647
 UP BND  x465  512.1831611592347
 UP BND  x466  2.958589134472268
 UP BND  x467  1956.074446889353
 UP BND  x468  0.02076851993594513
 UP BND  x469  61.77167737967494
 UP BND  x470  200.35910609344538
 UP BND  x471  23.142360386681496
 UP BND  x472  396.86184595235926
 UP BND  x473  21.963165029423845
 UP BND  x474  0.00392862189503447
 UP BND  x475  0.011665129986307546
 UP BND  x476  34.91322661216953
 UP BND  x477  0.011910522743299056
 UP BND  x478  31.07540800506361
 UP BND  x479  24.88691154702469
 UP BND  x480  0.0022739599913303913
 UP BND  x481  0.00489826230757376
 UP BND  x482  0.015555077142959473
 UP BND  x483  0.008994150139703123
 UP BND  x484  525.9279624445669
 UP BND  x485  74.78009154655636
 UP BND  x486  65.62363893976872
 UP BND  x487  0.3171699263619936
 UP BND  x488  86.62363599065239
 UP BND  x489  0.005071103639235761
 UP BND  x490  0.016945330554307608
 UP BND  x491  0.01159978085004096
 UP BND  x492  4.215843651506488
 UP BND  x493  2.363674180738067
 UP BND  x494  0.6151676518567833
 UP BND  x495  0.0037384455959741233
 UP BND  x496  0.004150910252381059
 UP BND  x497  6.42758047024727
 UP BND  x498  0.020683037310539137
 UP BND  x499  17.00958699115571
 UP BND  x500  0.005202005376513479
 UP BND  x501  0.005507104811799397
 UP BND  x502  0.16399756676375885
 UP BND  x503  0.05032119851470901
 UP BND  x504  214.2925540660151
 UP BND  x505  6.047725833873957
 UP BND  x506  0.015005621704292241
 UP BND  x507  16.95174043659473
 UP BND  x508  0.9797584926760573
 UP BND  x509  339.9249802934637
 UP BND  x510  0.19747523234832232
 UP BND  x511  1.6424526683656357
 UP BND  x512  0.022106893182271416
 UP BND  x513  417.8467566241698
 UP BND  x514  0.1648229777740587
 UP BND  x515  204.10007180524528
 UP BND  x516  1632.3159841051836
 UP BND  x517  17.07504970081735
 UP BND  x518  272.25739739144603
 UP BND  x519  0.09515608040097182
 UP BND  x520  0.006017238774231891
 UP BND  x521  0.4408563678052203
 UP BND  x522  0.07632116979167422
 UP BND  x523  656.9310347706082
 UP BND  x524  0.026502775260213447
 UP BND  x525  9.179704851388511
 UP BND  x526  0.14891428337897714
 UP BND  x527  0.02444483244072129
 UP BND  x528  353.70920808871597
 UP BND  x529  0.012742089809425861
 UP BND  x530  0.01184072287502007
 UP BND  x531  0.04357933644735457
 UP BND  x532  0.007337929950519911
 UP BND  x533  1.2711415159023634
 UP BND  x534  0.05492544003632422
 UP BND  x535  462.74309626672147
 UP BND  x536  0.5003715001282318
 UP BND  x537  0.37872277068791704
 UP BND  x538  5.086078658294443
 UP BND  x539  1737.0041584044052
 UP BND  x540  0.1658128520812479
 UP BND  x541  89.51633847587966
 UP BND  x542  0.033929753505042404
 UP BND  x543  6.698098236090178
 UP BND  x544  857.6188017491905
 UP BND  x545  15.044437688247491
 UP BND  x546  3.2605038481860484
 UP BND  x547  1081.9097517129967
 UP BND  x548  224.51013163167346
 UP BND  x549  1.220694771836253
 UP BND  x550  207.18641681392893
 UP BND  x551  0.0038953358759254773
 UP BND  x552  0.007721650686532683
 UP BND  x553  69.44110774513851
 UP BND  x554  0.21647467780632956
 UP BND  x555  124.9056022933256
 UP BND  x556  80.40643525402612
 UP BND  x557  0.005268800015165017
 UP BND  x558  4.031821743429592
 UP BND  x559  384.18235381484465
 UP BND  x560  1485.3706091673682
 UP BND  x561  0.0037263831477391198
 UP BND  x562  62.22494308201132
 UP BND  x563  40.799756293034186
 UP BND  x564  346.0755981370565
 UP BND  x565  0.03218787530645107
 UP BND  x566  586.7090728832109
 UP BND  x567  11.284013875750416
 UP BND  x568  0.0021890827005245964
 UP BND  x569  0.02051119542610695
 UP BND  x570  0.005306606030618853
 UP BND  x571  0.019499774326424604
 UP BND  x572  0.054048527643170564
 UP BND  x573  128.29141475665853
 UP BND  x574  152.72060491997323
 UP BND  x575  0.059569591067180676
 UP BND  x576  0.01615938625025921
 UP BND  x577  0.04416622176546375
 UP BND  x578  4.110143199927851
 UP BND  x579  2.3696972661049007
 UP BND  x580  148.7684933823546
 UP BND  x581  4.019019491744129
 UP BND  x582  0.003426113315442981
 UP BND  x583  11.778822579849557
 UP BND  x584  614.1300567154303
 UP BND  x585  32.093291205394195
 UP BND  x586  0.004732816537258466
 UP BND  x587  0.022681339092382544
 UP BND  x588  657.3792502625869
 UP BND  x589  0.6582917746043399
 UP BND  x590  0.03021087776131499
 UP BND  x591  0.29627898793565244
 UP BND  x592  0.005699555627053522
 UP BND  x593  328.9012200764874
 UP BND  x594  27.596229487270318
 UP BND  x595  23.76482691514559
 UP BND  x596  0.9494800514976577
 UP BND  x597  2.6944147696780036
 UP BND  x598  1798.0404576769881
 UP BND  x599  1.539006503364583
 UP BND  x600  117.72277044043773
 UP BND  x601  321.7975934013313
 UP BND  x602  191.93026916696206
 UP BND  x603  0.014545304277653237
 UP BND  x604  200.45844981263994
 UP BND  x605  16.35737883423919
 UP BND  x606  1239.9569923465763
 UP BND  x607  0.015354111013281645
 UP BND  x608  95.14117562383257
 UP BND  x609  0.06799289143712318
 UP BND  x610  183.64960841209046
 UP BND  x611  0.05264718197210394
 UP BND  x612  0.004432507366137658
 UP BND  x613  13.749843787781122
 UP BND  x614  0.0412336963542651
 UP BND  x615  681.2983329867529
 UP BND  x616  0.6182934329110533
 UP BND  x617  7.074278813057704
 UP BND  x618  0.0042032131126547734
 UP BND  x619  4.2445272612416876
 UP BND  x620  956.1651700627484
 UP BND  x621  2.0826506388440387
 UP BND  x622  0.22629262582103246
 UP BND  x623  22.525225711407067
 UP BND  x624  64.59049078455502
 UP BND  x625  0.4089613515698154
 UP BND  x626  1.9606354246370459
 UP BND  x627  0.008840031948778792
 UP BND  x628  28.777991594322334
 UP BND  x629  0.19098921984520748
 UP BND  x630  11.655516311487961
 UP BND  x631  0.013254584535592409
 UP BND  x632  0.014155350748817191
 UP BND  x633  0.008325206519019456
 UP BND  x634  0.5975778340297941
 UP BND  x635  0.5780613950056286
 UP BND  x636  190.62097493831135
 UP BND  x637  0.011818859223183188
 UP BND  x638  0.0028920627975036824
 UP BND  x639  0.015404919495552392
 UP BND  x640  0.08217503817946437
 UP BND  x641  321.5249165393164
 UP BND  x642  555.0393614523828
 UP BND  x643  8.290647075354642
 UP BND  x644  0.41766697739951375
 UP BND  x645  135.72770042606834
 UP BND  x646  0.0020003214109245294
 UP BND  x647  0.44213925348499566
 UP BND  x648  3.6101885130230005
 UP BND  x649  2.736986107907105
 UP BND  x650  275.2614426741309
 UP BND  x651  0.05267714826443397
 UP BND  x652  14.236370233363814
 UP BND  x653  2.6650693488599737
 UP BND  x654  0.05545218527776243
 UP BND  x655  0.12418699084869253
 UP BND  x656  0.09891941302584978
 UP BND  x657  3.641649833101349
 UP BND  x658  0.08895715941292148
 UP BND  x659  9.78352806129981
 UP BND  x660  0.018306673499441824
 UP BND  x661  0.6181794814178918
 UP BND  x662  24.691676326041318
 UP BND  x663  717.1844009780209
 UP BND  x664  7.793790160973507
 UP BND  x665  10.313169020130658
 UP BND  x666  1286.6052813009137
 UP BND  x667  25.63918949336327
 UP BND  x668  351.19472929385563
 UP BND  x669  0.27022305798455654
 UP BND  x670  6.918218553798034
 UP BND  x671  0.9911046200201579
 UP BND  x672  1148.4883527133939
 UP BND  x673  0.18464889427931283
 UP BND  x674  0.03126573388997261
 UP BND  x675  60.47674214259767
 UP BND  x676  2.83261284873467
 UP BND  x677  180.27262142457735
 UP BND  x678  472.4928807374918
 UP BND  x679  62.329914387906925
 UP BND  x680  7.577637193920946
 UP BND  x681  740.2030868099906
 UP BND  x682  13.155904346480652
 UP BND  x683  933.1115331948213
 UP BND  x684  13.644553127689527
 UP BND  x685  0.45218829827649154
 UP BND  x686  55.92551383018529
 UP BND  x687  0.016523067443922554
 UP BND  x688  72.4614582811592
 UP BND  x689  0.00251802588394973
 UP BND  x690  0.05495724204135512
 UP BND  x691  5.918351591766869
 UP BND  x692  0.27678701231170855
 UP BND  x693  0.09403972444358585
 UP BND  x694  0.016566818060676138
 UP BND  x695  0.23998869422810562
 UP BND  x696  0.36726934652451887
 UP BND  x697  952.6169094737103
 UP BND  x698  1145.9489652961556
 UP BND  x699  954.5028755460849
 UP BND  x700  193.4469136642738
 UP BND  x701  5.210434439863516
 UP BND  x702  0.018314764877928106
 UP BND  x703  297.4712069684343
 UP BND  x704  101.03746403452033
 UP BND  x705  1.855437724992477
 UP BND  x706  98.4089688720934
 UP BND  x707  0.012217757236063179
 UP BND  x708  0.1318572633964639
 UP BND  x709  8.493414604673921
 UP BND  x710  29.286290373254428
 UP BND  x711  0.019174035237227032
 UP BND  x712  5.613211891161523
 UP BND  x713  0.12347218300921958
 UP BND  x714  0.1827818712340525
 UP BND  x715  1.9620903722942915
 UP BND  x716  0.3072927155675817
 UP BND  x717  641.2427436101322
 UP BND  x718  1127.4355936448733
 UP BND  x719  0.0070291964710627874
 UP BND  x720  68.57003748861462
 UP BND  x721  0.21972665812308148
 UP BND  x722  0.0335831291944004
 UP BND  x723  2.085897119820616
 UP BND  x724  452.10126948189674
 UP BND  x725  0.011131524013302667
 UP BND  x726  401.82727613508246
 UP BND  x727  0.005092430870110572
 UP BND  x728  0.38376613488305517
 UP BND  x729  247.12867124293714
 UP BND  x730  0.012415894739350964
 UP BND  x731  8.042963114100733
 UP BND  x732  1416.081128094013
 UP BND  x733  0.013794151883100842
 UP BND  x734  1.027202601168815
 UP BND  x735  1342.0690913449976
 UP BND  x736  18.02420297922064
 UP BND  x737  20.125034458087573
 UP BND  x738  0.002462959415530118
 UP BND  x739  914.7627821602406
 UP BND  x740  0.01596833561291076
 UP BND  x741  0.05315485871201609
 UP BND  x742  32.39802845430768
 UP BND  x743  0.03447691496783976
 UP BND  x744  0.015871862575732316
 UP BND  x745  1043.1561887154928
 UP BND  x746  244.50923771316116
 UP BND  x747  0.019778999155018212
 UP BND  x748  0.6010002783028993
 UP BND  x749  56.545267148124886
 UP BND  x750  0.008039311685602261
 UP BND  x751  11.080849637467427
 UP BND  x752  62.006975688467854
 UP BND  x753  30.127560976097204
 UP BND  x754  985.8920904800292
 UP BND  x755  12.841555398355382
 UP BND  x756  0.6918894932095807
 UP BND  x757  0.4952281046687328
 UP BND  x758  37.18120175529688
 UP BND  x759  0.30039368915270825
 UP BND  x760  40.92271897384586
 UP BND  x761  60.54037086815363
 UP BND  x762  1064.4281766266006
 UP BND  x763  0.08938352267081955
 UP BND  x764  0.005021065478820969
 UP BND  x765  0.47752899780599506
 UP BND  x766  97.66272258903803
 UP BND  x767  1352.7209416099613
 UP BND  x768  0.10599289111247034
 UP BND  x769  187.3503286024846
 UP BND  x770  0.04510745703331605
 UP BND  x771  1.9412674985705773
 UP BND  x772  0.6028641800817577
 UP BND  x773  24.964822647456884
 UP BND  x774  0.01470860763968226
 UP BND  x775  0.0051692413173907706
 UP BND  x776  23.39210797036386
 UP BND  x777  0.01816216531687599
 UP BND  x778  1975.7862054023403
 UP BND  x779  0.12471777250201867
 UP BND  x780  1933.1206799604456
 UP BND  x781  0.0101825283988196
 UP BND  x782  205.47232437645297
 UP BND  x783  0.482575755092981
 UP BND  x784  1.9750386364691004
 UP BND  x785  4.999372136045141
 UP BND  x786  949.06722255863
 UP BND  x787  5.893064519246162
 UP BND  x788  38.744448646216306
 UP BND  x789  0.16970453290580054
 UP BND  x790  0.020630009374213866
 UP BND  x791  0.4445295284630829
 UP BND  x792  2.865513677091425
 UP BND  x793  4.034691774258431
 UP BND  x794  1013.7632828765468
 UP BND  x795  1163.1099984467357
 UP BND  x796  0.3410153536862301
 UP BND  x797  0.08562491180316018
 UP BND  x798  0.013956138570233133
 UP BND  x799  0.024873295621449982
 UP BND  x800  0.2511880134218832
 UP BND  x801  3.9348373357967907
 UP BND  x802  0.20029868819785876
 UP BND  x803  43.76101598623564
 UP BND  x804  1.315601242594356
 UP BND  x805  0.0033080877630731658
 UP BND  x806  231.65850609606753
 UP BND  x807  8.253941335300462
 UP BND  x808  10.174069961620209
 UP BND  x809  0.17809247438463893
 UP BND  x810  0.023566423640474954
 UP BND  x811  2.060901486602706
 UP BND  x812  15.763253774224019
 UP BND  x813  944.9184036862437
 UP BND  x814  0.005112388093417532
 UP BND  x815  87.02236478544727
 UP BND  x816  0.005188630270861923
 UP BND  x817  2.686317034740184
 UP BND  x818  33.2634199956716
 UP BND  x819  72.00963630215278
 UP BND  x820  843.6619234603539
 UP BND  x821  73.6410577708555
 UP BND  x822  0.002341231853367904
 UP BND  x823  0.002840778146982841
 UP BND  x824  0.08426505100979875
 UP BND  x825  413.8727753879377
 UP BND  x826  0.04797160589579832
 UP BND  x827  251.19088605912023
 UP BND  x828  0.019155508127813727
 UP BND  x829  0.04959013416612679
 UP BND  x830  0.11919900090310732
 UP BND  x831  54.98845285532485
 UP BND  x832  1215.5044315620453
 UP BND  x833  112.00766696517609
 UP BND  x834  7.5631778680939545
 UP BND  x835  1.381164968789731
 UP BND  x836  729.2952807920913
 UP BND  x837  434.70400985527226
 UP BND  x838  4.552215313648948
 UP BND  x839  561.6871242553624
 UP BND  x840  45.02687644368136
 UP BND  x841  50.20682500896069
 UP BND  x842  379.08165671402526
 UP BND  x843  42.56064166502456
 UP BND  x844  0.11234025509223762
 UP BND  x845  0.8239949135871346
 UP BND  x846  806.1506196991913
 UP BND  x847  0.04170722965744037
 UP BND  x848  0.47770290978199265
 UP BND  x849  86.0453221339022
 UP BND  x850  6.507338300093968
 UP BND  x851  1725.227137849101
 UP BND  x852  0.007700005653153018
 UP BND  x853  51.04455959831586
 UP BND  x854  2.4537305622040706
 UP BND  x855  0.1287177102793079
 UP BND  x856  371.0523926650452
 UP BND  x857  82.59489311682488
 UP BND  x858  422.26924572586086
 UP BND  x859  4.861815561024954
 UP BND  x860  689.7003801587459
 UP BND  x861  14.839903385022179
 UP BND  x862  0.35179719102601076
 UP BND  x863  0.0034582836469563604
 UP BND  x864  33.41959193724205
 UP BND  x865  0.0029509934918324765
 UP BND  x866  1.7651556339964962
 UP BND  x867  1414.8736725773401
 UP BND  x868  117.297110854469
 UP BND  x869  17.875543181069276
 UP BND  x870  0.021341218546516997
 UP BND  x871  0.9508899464203192
 UP BND  x872  0.036382368657330064
 UP BND  x873  0.2964805701533763
 UP BND  x874  65.60821366671598
 UP BND  x875  0.3265231876980835
 UP BND  x876  0.024645206449188755
 UP BND  x877  2.258378035099062
 UP BND  x878  437.82871315680114
 UP BND  x879  0.44832024320333363
 UP BND  x880  0.02036454623263912
 UP BND  x881  974.8398903388874
 UP BND  x882  1.6842871220832782
 UP BND  x883  0.009882120014428586
 UP BND  x884  67.65541812449769
 UP BND  x885  1.6060250022319504
 UP BND  x886  0.01741875655421258
 UP BND  x887  1.7562751414917461
 UP BND  x888  0.583248535916772
 UP BND  x889  0.8661112146092904
 UP BND  x890  64.24498569201162
 UP BND  x891  0.0020976649740017247
 UP BND  x892  473.69783408459557
 UP BND  x893  4.457985441388552
 UP BND  x894  0.2523609597274788
 UP BND  x895  2.7766566766351035
 UP BND  x896  0.01733168668710124
 UP BND  x897  1461.458519473567
 UP BND  x898  618.1000195953256
 UP BND  x899  67.40427311660284
 UP BND  x900  0.002155268418580162
 UP BND  x901  4.159715368085644
 UP BND  x902  0.671091263462325
 UP BND  x903  31.551639317110048
 UP BND  x904  1150.0589134258673
 UP BND  x905  0.023256540825311967
 UP BND  x906  0.0025783157081623524
 UP BND  x907  93.48238173264977
 UP BND  x908  1550.5244417556105
 UP BND  x909  0.12627476938297885
 UP BND  x910  402.20934391448105
 UP BND  x911  0.0061520882583434985
 UP BND  x912  0.00910091843895761
 UP BND  x913  0.14161105820513967
 UP BND  x914  39.309825241506864
 UP BND  x915  156.4899966769112
 UP BND  x916  3.4794933607451437
 UP BND  x917  8.964745790216293
 UP BND  x918  29.40631824598814
 UP BND  x919  54.43848577774094
 UP BND  x920  4.975736977540416
 UP BND  x921  0.003976719158940049
 UP BND  x922  1981.2887816735358
 UP BND  x923  1.3833851067613
 UP BND  x924  223.89136626066934
 UP BND  x925  0.016496211473090105
 UP BND  x926  16.964050747114808
 UP BND  x927  0.3302592151099943
 UP BND  x928  13.100804963379405
 UP BND  x929  938.576948404727
 UP BND  x930  0.0032006988395047956
 UP BND  x931  0.011510172549438627
 UP BND  x932  0.01207669394938147
 UP BND  x933  0.05582773439838855
 UP BND  x934  1.0141512789184004
 UP BND  x935  4.680808218035994
 UP BND  x936  0.0022405040559478084
 UP BND  x937  1.3173251974115956
 UP BND  x938  0.11492011428751141
 UP BND  x939  349.85721160983275
 UP BND  x940  0.015941724438388306
 UP BND  x941  0.004501495534765908
 UP BND  x942  30.951684698980294
 UP BND  x943  0.031178540913240804
 UP BND  x944  0.15181642376564616
 UP BND  x945  0.14631863982887575
 UP BND  x946  0.5853004731984945
 UP BND  x947  0.008292646171878092
 UP BND  x948  778.2190818289012
 UP BND  x949  1.753726689515119
 UP BND  x950  0.7064905772147939
 UP BND  x951  176.29416389588096
 UP BND  x952  99.14138745338337
 UP BND  x953  0.12331038394720613
 UP BND  x954  0.053901295187244215
 UP BND  x955  206.7840652386532
 UP BND  x956  4.23648111484248
 UP BND  x957  0.008176138397961203
 UP BND  x958  0.0020126179646384927
 UP BND  x959  1787.0602559532622
 UP BND  x960  4.97315955346809
 UP BND  x961  153.9104000036358
 UP BND  x962  1.3247581413410014
 UP BND  x963  0.01957505444878225
 UP BND  x964  0.4431977877941385
 UP BND  x965  0.1684225136372733
 UP BND  x966  402.22729487461737
 UP BND  x967  0.003481465939013019
 UP BND  x968  0.04386976593145751
 UP BND  x969  0.02923261301962248
 UP BND  x970  1.5965201098010735
 UP BND  x971  0.005484045615646657
 UP BND  x972  0.3404998118374864
 UP BND  x973  0.15012482684258543
 UP BND  x974  0.008410633391361775
 UP BND  x975  0.10275861593014243
 UP BND  x976  0.014329823095450158
 UP BND  x977  822.0665033811355
 UP BND  x978  0.29336514417183956
 UP BND  x979  0.008875284776681735
 UP BND  x980  657.2401782007445
 UP BND  x981  490.31592884065975
 UP BND  x982  847.6725103713444
 UP BND  x983  0.7530698500221852
 UP BND  x984  63.52011830260392
 UP BND  x985  13.843178440247497
 UP BND  x986  0.007417734313305589
 UP BND  x987  135.69582300977947
 UP BND  x988  0.025898272080082982
 UP BND  x989  1.7073176072815899
 UP BND  x990  0.3166842144367466
 UP BND  x991  0.005536897761822751
 UP BND  x992  0.14146987367300856
 UP BND  x993  0.11549384736936386
 UP BND  x994  714.9352373692641
 UP BND  x995  27.09211497735314
 UP BND  x996  4.150389556321371
 UP BND  x997  0.0033452164896129624
 UP BND  x998  0.006171159450644384
 UP BND  x999  0.030211494486769536
 UP BND  x1000  0.004497457251900689
 UP BND  x1001  0.2943572961072958
 UP BND  x1002  41.34763217768117
 UP BND  x1003  1584.7491465212631
 UP BND  x1004  5.167139638446898
 UP BND  x1005  0.15228650356863246
 UP BND  x1006  0.008563385004446082
 UP BND  x1007  0.0780005194832375
 UP BND  x1008  8.716908431294973
 UP BND  x1009  453.72203102409213
 UP BND  x1010  0.1735909703603004
 UP BND  x1011  0.004075530081210825
 UP BND  x1012  0.025548910529512848
 UP BND  x1013  0.004723393047798498
 UP BND  x1014  40.58808175016269
 UP BND  x1015  0.45329108548888364
 UP BND  x1016  0.42220585256023346
 UP BND  x1017  0.07853288950819062
 UP BND  x1018  1385.4790898541146
 UP BND  x1019  0.01469194499515049
 UP BND  x1020  0.011021062038279917
 UP BND  x1021  136.06050784073466
 UP BND  x1022  0.7921753432026298
 UP BND  x1023  0.7164336600614868
 UP BND  x1024  1.0245534155598284
 UP BND  x1025  0.5902327125960397
 UP BND  x1026  198.25222203354528
 UP BND  x1027  180.3062094011498
 UP BND  x1028  481.47272788120716
 UP BND  x1029  52.330072777573314
 UP BND  x1030  0.12199523505014521
 UP BND  x1031  0.017000093023405834
 UP BND  x1032  0.3980531602614064
 UP BND  x1033  544.4186729758219
 UP BND  x1034  0.24982124727075058
 UP BND  x1035  0.05881723358244719
 UP BND  x1036  25.669433281028915
 UP BND  x1037  132.58968530029165
 UP BND  x1038  0.03593481508201258
 UP BND  x1039  0.7776559053933317
 UP BND  x1040  0.003755851487209183
 UP BND  x1041  0.6036381031522917
 UP BND  x1042  0.005428857707358786
 UP BND  x1043  0.015824277706764228
 UP BND  x1044  1032.8777693682305
 UP BND  x1045  3.1794820208915833
 UP BND  x1046  0.12725221176136167
 UP BND  x1047  0.006079476555029433
 UP BND  x1048  84.03045086967613
 UP BND  x1049  358.5383052348008
 UP BND  x1050  4.494199542225071
 UP BND  x1051  0.13894445106918218
 UP BND  x1052  3.529275687868633
 UP BND  x1053  0.032040811497808734
 UP BND  x1054  0.01749851815155412
 UP BND  x1055  18.301364007678824
 UP BND  x1056  10.218504969246416
 UP BND  x1057  0.021973387827311813
 UP BND  x1058  36.79478297225084
 UP BND  x1059  70.6846162186012
 UP BND  x1060  0.08364202342487086
 UP BND  x1061  46.04712776269761
 UP BND  x1062  0.02723501470867417
 UP BND  x1063  0.10006793174139283
 UP BND  x1064  160.6978637435516
 UP BND  x1065  341.8944254192988
 UP BND  x1066  99.36494739323824
 UP BND  x1067  1.6266013097720464
 UP BND  x1068  3.6670681297902252
 UP BND  x1069  0.046747664384083176
 UP BND  x1070  183.64089194021383
 UP BND  x1071  0.003044280656738207
 UP BND  x1072  1292.4117631662964
 UP BND  x1073  0.12368522757444585
 UP BND  x1074  0.007084246247579291
 UP BND  x1075  1.1794140718264439
 UP BND  x1076  344.8224995005829
 UP BND  x1077  0.009251598988588237
 UP BND  x1078  0.022941324349524384
 UP BND  x1079  3.1162505146080357
 UP BND  x1080  0.011281514763524634
 UP BND  x1081  863.4580084488792
 UP BND  x1082  0.016938731290002725
 UP BND  x1083  0.0035933325103571392
 UP BND  x1084  0.003665419768109663
 UP BND  x1085  0.037827147587021395
 UP BND  x1086  1.1923897504783423
 UP BND  x1087  0.006091824222957742
 UP BND  x1088  0.004814889232874695
 UP BND  x1089  0.0032265956354889996
 UP BND  x1090  10.757040400118072
 UP BND  x1091  22.069801915939586
 UP BND  x1092  53.6431721092278
 UP BND  x1093  61.28940924223896
 UP BND  x1094  1.1162073588993326
 UP BND  x1095  1.4209782272915814
 UP BND  x1096  117.68748629678753
 UP BND  x1097  1120.0763931430918
 UP BND  x1098  0.014988235730410316
 UP BND  x1099  76.7289403978563
 UP BND  x1100  34.98210577678965
 UP BND  x1101  0.7219373757325575
 UP BND  x1102  18.564890313069824
 UP BND  x1103  2.450334448479652
 UP BND  x1104  1459.1869321663248
 UP BND  x1105  722.6019955794765
 UP BND  x1106  0.07027310851550736
 UP BND  x1107  454.83977463898015
 UP BND  x1108  0.7841641410444953
 UP BND  x1109  1806.6107997877025
 UP BND  x1110  0.03392944090607078
 UP BND  x1111  2.506280362650221
 UP BND  x1112  0.18608441121744868
 UP BND  x1113  0.00457952580762856
 UP BND  x1114  0.012218187454147378
 UP BND  x1115  0.1841280226657097
 UP BND  x1116  10.548539085715747
 UP BND  x1117  135.11390750993883
 UP BND  x1118  0.12687728898035303
 UP BND  x1119  6.958107843201878
 UP BND  x1120  43.592136202215215
 UP BND  x1121  4.195874271461394
 UP BND  x1122  1305.478564774973
 UP BND  x1123  0.021266509293050483
 UP BND  x1124  109.98796037520505
 UP BND  x1125  10.06648046363717
 UP BND  x1126  335.66216644631396
 UP BND  x1127  0.6719819352994428
 UP BND  x1128  0.003474769681394319
 UP BND  x1129  10.208000179176883
 UP BND  x1130  0.0030583109746524163
 UP BND  x1131  27.69398164023623
 UP BND  x1132  0.008180554950145085
 UP BND  x1133  315.26197213019447
 UP BND  x1134  646.8860755692588
 UP BND  x1135  40.49920149527112
 UP BND  x1136  1.4423469594974778
 UP BND  x1137  0.006055720104697953
 UP BND  x1138  0.8622428481430261
 UP BND  x1139  0.02596803622806806
 UP BND  x1140  278.9135972309737
 UP BND  x1141  2.195281275528455
 UP BND  x1142  0.044190775592962174
 UP BND  x1143  14.802428738788388
 UP BND  x1144  36.33206770900853
 UP BND  x1145  0.21552438157912426
 UP BND  x1146  34.92414203541606
 UP BND  x1147  0.031736320285455935
 UP BND  x1148  0.0042550015007452695
 UP BND  x1149  239.36702362938
 UP BND  x1150  145.63986939561715
 UP BND  x1151  2.9385440061607877
 UP BND  x1152  65.13573329902368
 UP BND  x1153  2.108570399690187
 UP BND  x1154  0.002958621421829412
 UP BND  x1155  406.82926045332124
 UP BND  x1156  1043.6042902402987
 UP BND  x1157  0.004994579858311153
 UP BND  x1158  1.9065180864398636
 UP BND  x1159  1707.6802444966388
 UP BND  x1160  0.24900732493617375
 UP BND  x1161  120.47982632926885
 UP BND  x1162  4.167999767025818
 UP BND  x1163  0.00413912876702474
 UP BND  x1164  10.389604248886046
 UP BND  x1165  963.945658625447
 UP BND  x1166  193.25960472117137
 UP BND  x1167  657.1256183411776
 UP BND  x1168  0.0024719131945789598
 UP BND  x1169  48.12614672223987
 UP BND  x1170  0.002662304848365832
 UP BND  x1171  7.685110633902555
 UP BND  x1172  0.0029015007559788724
 UP BND  x1173  0.007464912421411392
 UP BND  x1174  0.08566478324227046
 UP BND  x1175  51.5658680322784
 UP BND  x1176  0.06120736385707729
 UP BND  x1177  224.8304851356131
 UP BND  x1178  5.063630408002634
 UP BND  x1179  0.3716962672975958
 UP BND  x1180  0.1764764564242408
 UP BND  x1181  3.897477846586249
 UP BND  x1182  61.24449056892112
 UP BND  x1183  1.4660580137931705
 UP BND  x1184  1.888460447012615
 UP BND  x1185  1138.9207242901168
 UP BND  x1186  705.7743414861733
 UP BND  x1187  820.8337924545314
 UP BND  x1188  0.011550272960687986
 UP BND  x1189  0.8113132505336722
 UP BND  x1190  3.0449040974691077
 UP BND  x1191  0.02959369668829338
 UP BND  x1192  6.113728729021259
 UP BND  x1193  1.4567372139256318
 UP BND  x1194  0.14387549793750204
 UP BND  x1195  209.69179067236067
 UP BND  x1196  1564.730131764211
 UP BND  x1197  0.0020103061985147883
 UP BND  x1198  38.62262775357405
 UP BND  x1199  0.06619169745332729
 UP BND  x1200  0.024086911967177254
 UP BND  x1201  0.005077024138503932
 UP BND  x1202  37.75268884383102
 UP BND  x1203  54.40117672080136
 UP BND  x1204  95.49581990632036
 UP BND  x1205  125.43732529287414
 UP BND  x1206  4.857502748146818
 UP BND  x1207  58.69664057984925
 UP BND  x1208  247.76811096911686
 UP BND  x1209  3.65141964697983
 UP BND  x1210  1.1316173038242632
 UP BND  x1211  14.74922957472257
 UP BND  x1212  166.3133312166194
 UP BND  x1213  22.41440889894218
 UP BND  x1214  0.05274445217115648
 UP BND  x1215  0.12204253161050453
 UP BND  x1216  0.01579073480213895
 UP BND  x1217  39.52245752618602
 UP BND  x1218  32.93322990598108
 UP BND  x1219  0.10425772574765087
 UP BND  x1220  64.58618989813098
 UP BND  x1221  11.780825462248744
 UP BND  x1222  0.3564482526456853
 UP BND  x1223  0.010151311074475233
 UP BND  x1224  1405.645500671992
 UP BND  x1225  130.54527849588825
 UP BND  x1226  0.5108932188526252
 UP BND  x1227  44.92272620582572
 UP BND  x1228  0.009758976468580878
 UP BND  x1229  0.8851779598093275
 UP BND  x1230  0.13570838991463907
 UP BND  x1231  0.004933142049299244
 UP BND  x1232  503.1691592285229
 UP BND  x1233  0.007787836831460249
 UP BND  x1234  64.7161042977017
 UP BND  x1235  195.34591756479273
 UP BND  x1236  0.3387343130168579
 UP BND  x1237  755.1548897494024
 UP BND  x1238  0.025034898026139486
 UP BND  x1239  3.40914310410485
 UP BND  x1240  257.2263104305668
 UP BND  x1241  28.823776643951607
 UP BND  x1242  0.5509687415230035
 UP BND  x1243  9.36361677489361
 UP BND  x1244  0.14075664244971367
 UP BND  x1245  0.004633809792323116
 UP BND  x1246  491.569683523504
 UP BND  x1247  4.386646565875093
 UP BND  x1248  2.2803671737968187
 UP BND  x1249  0.003129643858213382
 UP BND  x1250  1592.8426674222878
 UP BND  x1251  1.4402886292116974
 UP BND  x1252  304.57005905960216
 UP BND  x1253  0.006235449125902114
 UP BND  x1254  0.9088076841755989
 UP BND  x1255  0.5166916406192065
 UP BND  x1256  54.894122988637925
 UP BND  x1257  0.18194905905126485
 UP BND  x1258  0.02247096458404146
 UP BND  x1259  2.0100994514787263
 UP BND  x1260  0.010453032922927277
 UP BND  x1261  0.011348395299394506
 UP BND  x1262  10.12992841729012
 UP BND  x1263  21.035802246646895
 UP BND  x1264  68.16300076127732
 UP BND  x1265  1.004412529482617
 UP BND  x1266  487.6125987510173
 UP BND  x1267  6.319650090942965
 UP BND  x1268  3.2112839805010283
 UP BND  x1269  0.008384160885204352
 UP BND  x1270  251.0140298406197
 UP BND  x1271  0.06555272018488492
 UP BND  x1272  0.0027309983357562775
 UP BND  x1273  0.02521857039826444
 UP BND  x1274  0.03341407661164388
 UP BND  x1275  0.16759484636658334
 UP BND  x1276  0.17064938683915984
 UP BND  x1277  24.10035292154121
 UP BND  x1278  1.0698680932032256
 UP BND  x1279  0.10643120177507355
 UP BND  x1280  0.00522629997903261
 UP BND  x1281  0.0030666102372876257
 UP BND  x1282  22.89531676073372
 UP BND  x1283  8.220905132015474
 UP BND  x1284  0.008869105201166978
 UP BND  x1285  490.43211297114664
 UP BND  x1286  0.008182224188036
 UP BND  x1287  0.09147662801255435
 UP BND  x1288  178.81279888487393
 UP BND  x1289  0.2779503406275571
 UP BND  x1290  117.89519440932192
 UP BND  x1291  6.288311999829717
 UP BND  x1292  321.772525653787
 UP BND  x1293  0.008093378074291791
 UP BND  x1294  0.0045123212691793625
 UP BND  x1295  8.075054701671709
 UP BND  x1296  0.01935254862887063
 UP BND  x1297  0.03430321438504674
 UP BND  x1298  0.27138824001604517
 UP BND  x1299  0.5337081436777953
 UP BND  x1300  0.005702577329694967
 UP BND  x1301  1.498252377831808
 UP BND  x1302  6.169701492244473
 UP BND  x1303  6.239082523864454
 UP BND  x1304  0.07286219452462181
 UP BND  x1305  1.7253834335876734
 UP BND  x1306  3.102482532002239
 UP BND  x1307  0.012577282497408563
 UP BND  x1308  261.219867943664
 UP BND  x1309  0.038384909090113266
 UP BND  x1310  0.1062373577731786
 UP BND  x1311  200.15005424907937
 UP BND  x1312  1.6281707537401948
 UP BND  x1313  0.19601186925938385
 UP BND  x1314  0.007598725486293028
 UP BND  x1315  0.0988493016616744
 UP BND  x1316  0.0031334672417663695
 UP BND  x1317  0.007021468801167568
 UP BND  x1318  30.836841897817372
 UP BND  x1319  24.93760443183537
 UP BND  x1320  1480.5247945029548
 UP BND  x1321  11.144505742201254
 UP BND  x1322  264.09773914554813
 UP BND  x1323  0.005230391813489069
 UP BND  x1324  18.838942898746783
 UP BND  x1325  3.3722719317709284
 UP BND  x1326  0.023024736082348413
 UP BND  x1327  183.4866846635687
 UP BND  x1328  0.0029696494259566567
 UP BND  x1329  12.472798517641577
 UP BND  x1330  106.25832174832205
 UP BND  x1331  12.135265734151885
 UP BND  x1332  0.01173041885206326
 UP BND  x1333  0.15479424290392987
 UP BND  x1334  0.0724715833737685
 UP BND  x1335  0.14450384889193513
 UP BND  x1336  4.16670496272329
 UP BND  x1337  15.2017354227787
 UP BND  x1338  0.13031089897125436
 UP BND  x1339  0.01937397252997939
 UP BND  x1340  164.71443975219387
 UP BND  x1341  124.20933315914569
 UP BND  x1342  1175.608485444497
 UP BND  x1343  0.025961072109542425
 UP BND  x1344  0.5408614150966695
 UP BND  x1345  0.0026679134161556413
 UP BND  x1346  8.517654596286972
 UP BND  x1347  165.40440355109965
 UP BND  x1348  0.3070251730380278
 UP BND  x1349  0.013050368059591018
 UP BND  x1350  820.5154984607988
 UP BND  x1351  0.9090599837891905
 UP BND  x1352  2.4750495412460447
 UP BND  x1353  293.07921303521346
 UP BND  x1354  7.635646723864777
 UP BND  x1355  0.07465979719568168
 UP BND  x1356  28.14392828346176
 UP BND  x1357  0.01247827160891553
 UP BND  x1358  28.42247133465897
 UP BND  x1359  24.477186200797778
 UP BND  x1360  0.0043321279490466675
 UP BND  x1361  0.19062916200452576
 UP BND  x1362  353.3060913560907
 UP BND  x1363  0.0022848724873511424
 UP BND  x1364  0.7164265369068877
 UP BND  x1365  0.0031694934349987976
 UP BND  x1366  853.0185403363706
 UP BND  x1367  5.855644853606704
 UP BND  x1368  0.10681660172504505
 UP BND  x1369  0.11410867404693746
 UP BND  x1370  0.5161085817075963
 UP BND  x1371  0.0020969714863927837
 UP BND  x1372  0.002595367865466627
 UP BND  x1373  1.573500303912592
 UP BND  x1374  0.09744973420658454
 UP BND  x1375  152.63161705033414
 UP BND  x1376  548.1843667316276
 UP BND  x1377  0.003867935834794691
 UP BND  x1378  0.06941879256221253
 UP BND  x1379  23.307708594033247
 UP BND  x1380  12.35729773322599
 UP BND  x1381  0.0895467507647861
 UP BND  x1382  0.00276602943343459
 UP BND  x1383  0.003909279382466984
 UP BND  x1384  368.49867284335704
 UP BND  x1385  491.09197043498284
 UP BND  x1386  0.6439044278417836
 UP BND  x1387  395.43092274561894
 UP BND  x1388  224.59134765344805
 UP BND  x1389  0.12209426186578431
 UP BND  x1390  112.39079196598055
 UP BND  x1391  4.5354199052928434
 UP BND  x1392  84.642275975792
 UP BND  x1393  69.21483844011567
 UP BND  x1394  0.007658750596234248
 UP BND  x1395  215.92960259994422
 UP BND  x1396  1.1998908671545871
 UP BND  x1397  0.07023919728644838
 UP BND  x1398  1.4140804696647287
 UP BND  x1399  19.78702832111957
 UP BND  x1400  0.1259686400510769
 UP BND  x1401  291.5901068700287
 UP BND  x1402  64.1144302720227
 UP BND  x1403  351.49012953760877
 UP BND  x1404  1.819220391416038
 UP BND  x1405  0.06555276986538265
 UP BND  x1406  0.13927146166550755
 UP BND  x1407  0.007546242605725448
 UP BND  x1408  341.7038356939433
 UP BND  x1409  1.3165735238547769
 UP BND  x1410  417.09674869231196
 UP BND  x1411  5.9266483778697125
 UP BND  x1412  156.8921211176134
 UP BND  x1413  0.012714636777509484
 UP BND  x1414  0.00312015577775558
 UP BND  x1415  476.88615042235415
 UP BND  x1416  403.5677597544965
 UP BND  x1417  0.3647346770696006
 UP BND  x1418  3.5034480543485205
 UP BND  x1419  2.86889318146598
 UP BND  x1420  4.593238286024156
 UP BND  x1421  1.8036486150889062
 UP BND  x1422  2.3211111344235857
 UP BND  x1423  42.233280228607086
 UP BND  x1424  368.0588266667245
 UP BND  x1425  0.5982565041163681
 UP BND  x1426  3.556951461037004
 UP BND  x1427  0.9339320719719523
 UP BND  x1428  1.864642524560557
 UP BND  x1429  0.008691654220146483
 UP BND  x1430  0.004934780359149141
 UP BND  x1431  0.1561587003512138
 UP BND  x1432  0.23813376078622067
 UP BND  x1433  222.97616740133802
 UP BND  x1434  0.6636608194325387
 UP BND  x1435  0.028941471094617248
 UP BND  x1436  0.003263254802998849
 UP BND  x1437  1671.3097253747492
 UP BND  x1438  0.11103538457915339
 UP BND  x1439  502.855760259568
 UP BND  x1440  39.34282913315187
 UP BND  x1441  0.05793595442701775
 UP BND  x1442  0.024685515473603876
 UP BND  x1443  46.116704387064225
 UP BND  x1444  75.1782467303361
 UP BND  x1445  0.00590425167402019
 UP BND  x1446  1.7617810387171755
 UP BND  x1447  24.66671488880202
 UP BND  x1448  0.0034447613016040683
 UP BND  x1449  0.00482542435726396
 UP BND  x1450  47.58483465181374
 UP BND  x1451  198.41333055890792
 UP BND  x1452  142.61260312399924
 UP BND  x1453  850.3030433938943
 UP BND  x1454  0.13275815717596565
 UP BND  x1455  630.181354374048
 UP BND  x1456  27.557717570904895
 UP BND  x1457  170.3764282751222
 UP BND  x1458  1.2589411092661067
 UP BND  x1459  39.901492680812076
 UP BND  x1460  0.4764520291969399
 UP BND  x1461  313.9597484432646
 UP BND  x1462  961.779059675455
 UP BND  x1463  128.7484014930706
 UP BND  x1464  7.136470815752943
 UP BND  x1465  0.7120558533568508
 UP BND  x1466  42.359113664604344
 UP BND  x1467  0.006602832088080998
 UP BND  x1468  57.68745899239597
 UP BND  x1469  0.01599726830017421
 UP BND  x1470  0.006545311423417986
 UP BND  x1471  51.95055502334496
 UP BND  x1472  1315.0240504704416
 UP BND  x1473  0.009729697739260775
 UP BND  x1474  4.971676703272787
 UP BND  x1475  74.53946134288881
 UP BND  x1476  3.567649914840919
 UP BND  x1477  0.3633040253068139
 UP BND  x1478  7.809645049426166
 UP BND  x1479  22.642205934838753
 UP BND  x1480  0.007070134058294147
 UP BND  x1481  0.5209327551433336
 UP BND  x1482  212.08410035044486
 UP BND  x1483  0.17405606759583842
 UP BND  x1484  0.7669648538160325
 UP BND  x1485  0.007602602481240344
 UP BND  x1486  106.08785269544575
 UP BND  x1487  0.029038580074416086
 UP BND  x1488  212.90224539125498
 UP BND  x1489  0.0028297998869040147
 UP BND  x1490  0.013836083815799516
 UP BND  x1491  115.76127991351044
 UP BND  x1492  34.945827872455574
 UP BND  x1493  0.003788022557001772
 UP BND  x1494  674.2071009689984
 UP BND  x1495  0.020152443147530157
 UP BND  x1496  1153.0004431222865
 UP BND  x1497  85.9258820762854
 UP BND  x1498  56.49172829979392
 UP BND  x1499  36.46899207312446
 UP BND  x1500  0.008362174347856424
 UP BND  x1501  22.177433105878045
 UP BND  x1502  11.164567868429435
 UP BND  x1503  11.162386394491206
 UP BND  x1504  0.015305224866386673
 UP BND  x1505  1.2975275914818354
 UP BND  x1506  199.40904563724123
 UP BND  x1507  1229.2383336666503
 UP BND  x1508  0.02805873881299012
 UP BND  x1509  6.6052171939907955
 UP BND  x1510  35.46075997156939
 UP BND  x1511  0.0025986117033153003
 UP BND  x1512  0.529522959273142
 UP BND  x1513  4.076592911203476
 UP BND  x1514  3.621392254254422
 UP BND  x1515  2.27537105901657
 UP BND  x1516  50.50538141461105
 UP BND  x1517  69.95875246866578
 UP BND  x1518  11.025616588354556
 UP BND  x1519  1.4518786242537636
 UP BND  x1520  0.0021941919462931817
 UP BND  x1521  256.8971931562689
 UP BND  x1522  0.009586506264154934
 UP BND  x1523  0.07555339523876374
 UP BND  x1524  0.0708291894013536
 UP BND  x1525  0.04181241809415273
 UP BND  x1526  0.08213782300745003
 UP BND  x1527  0.014447999069622032
 UP BND  x1528  46.678534898742576
 UP BND  x1529  259.97682793923207
 UP BND  x1530  30.78393536397444
 UP BND  x1531  255.25175633544194
 UP BND  x1532  0.005025148833144032
 UP BND  x1533  0.18032952418791248
 UP BND  x1534  22.45478915326539
 UP BND  x1535  1627.9651538086566
 UP BND  x1536  0.06254914900506602
 UP BND  x1537  843.2525480082966
 UP BND  x1538  115.93420468028171
 UP BND  x1539  140.41821313693615
 UP BND  x1540  0.0037152435348741944
 UP BND  x1541  981.8396038505533
 UP BND  x1542  0.018244033766060923
 UP BND  x1543  30.08627550239157
 UP BND  x1544  47.325220381198356
 UP BND  x1545  800.7537131377728
 UP BND  x1546  0.5676732358128835
 UP BND  x1547  17.515653952166584
 UP BND  x1548  0.010769322445827465
 UP BND  x1549  108.95144808541562
 UP BND  x1550  0.12185676563033267
 UP BND  x1551  4.734620291043563
 UP BND  x1552  307.48933191231566
 UP BND  x1553  1526.984704908932
 UP BND  x1554  1.2791638770687455
 UP BND  x1555  0.14101084438336156
 UP BND  x1556  0.995258878986099
 UP BND  x1557  2.1965810401278016
 UP BND  x1558  161.06333889678803
 UP BND  x1559  0.01773713260488478
 UP BND  x1560  15.592870225135549
 UP BND  x1561  0.7647138370453207
 UP BND  x1562  65.66349203389468
 UP BND  x1563  2.5868205469336476
 UP BND  x1564  375.4421807549698
 UP BND  x1565  0.2045877806542182
 UP BND  x1566  0.0775532120883884
 UP BND  x1567  0.011222102401013921
 UP BND  x1568  0.017163876856176388
 UP BND  x1569  13.211971310112501
 UP BND  x1570  1.6872897600289687
 UP BND  x1571  9.422182717234458
 UP BND  x1572  53.080379203423206
 UP BND  x1573  38.74771041046633
 UP BND  x1574  0.12685746938677986
 UP BND  x1575  1.4970490626869413
 UP BND  x1576  0.268487604086758
 UP BND  x1577  0.0034090824638058712
 UP BND  x1578  889.971632897198
 UP BND  x1579  2.233577452383621
 UP BND  x1580  0.05707975441014015
 UP BND  x1581  9.982440156948702
 UP BND  x1582  0.021834154378809627
 UP BND  x1583  3.7428515343987394
 UP BND  x1584  1165.014569331712
 UP BND  x1585  0.5818152625461538
 UP BND  x1586  135.0782888488697
 UP BND  x1587  2.7342018640190595
 UP BND  x1588  0.1375112791142789
 UP BND  x1589  535.2861984035001
 UP BND  x1590  87.10185039135064
 UP BND  x1591  0.090013093474638
 UP BND  x1592  1139.46439631982
 UP BND  x1593  601.0465419454769
 UP BND  x1594  0.015579118210816497
 UP BND  x1595  0.0508426201275286
 UP BND  x1596  0.164939017423114
 UP BND  x1597  57.75478159193911
 UP BND  x1598  0.0039969201281310545
 UP BND  x1599  529.0798192909007
 UP BND  x1600  0.6507617722838245
 UP BND  x1601  14.233191571965753
 UP BND  x1602  0.03259903929116461
 UP BND  x1603  57.48234494840057
 UP BND  x1604  0.4758074558349411
 UP BND  x1605  3.307749832407837
 UP BND  x1606  0.0054883720505897035
 UP BND  x1607  0.2324377073233295
 UP BND  x1608  314.63407067641424
 UP BND  x1609  0.18670832009791266
 UP BND  x1610  105.71864653908278
 UP BND  x1611  0.7551645062540071
 UP BND  x1612  10.972061626134433
 UP BND  x1613  86.7137946314962
 UP BND  x1614  1.1341798895631419
 UP BND  x1615  0.34730048270245567
 UP BND  x1616  1093.206409125097
 UP BND  x1617  3.6177688223134608
 UP BND  x1618  349.6029028342505
 UP BND  x1619  0.08329269737848259
 UP BND  x1620  0.016232515006825904
 UP BND  x1621  0.0021495044919939074
 UP BND  x1622  640.3638488734105
 UP BND  x1623  148.2283215491711
 UP BND  x1624  0.6197845486011648
 UP BND  x1625  24.543766996376625
 UP BND  x1626  15.785223581826063
 UP BND  x1627  0.013528450506905765
 UP BND  x1628  453.5817064624174
 UP BND  x1629  13.685370456415349
 UP BND  x1630  0.004034975570792303
 UP BND  x1631  25.521946865694243
 UP BND  x1632  564.2156337371571
 UP BND  x1633  39.35283614243414
 UP BND  x1634  153.4887599128835
 UP BND  x1635  557.364641251836
 UP BND  x1636  1.0515256398483925
 UP BND  x1637  0.024451094251062424
 UP BND  x1638  116.89735638906573
 UP BND  x1639  10.894878618920334
 UP BND  x1640  0.0025700890118169604
 UP BND  x1641  1.6521672422457918
 UP BND  x1642  0.1027322647478489
 UP BND  x1643  28.68429322609966
 UP BND  x1644  0.0025375262329411378
 UP BND  x1645  0.00870901721139128
 UP BND  x1646  0.0027644790336395723
 UP BND  x1647  1.6011576490572412
 UP BND  x1648  1.3731988501266157
 UP BND  x1649  0.0033854966119196014
 UP BND  x1650  1.0319341116460068
 UP BND  x1651  0.3699518238486886
 UP BND  x1652  10.138743894035212
 UP BND  x1653  474.603905714411
 UP BND  x1654  0.003747461381704558
 UP BND  x1655  154.31196800829628
 UP BND  x1656  799.1062209869694
 UP BND  x1657  0.005351910285395002
 UP BND  x1658  757.0272486980643
 UP BND  x1659  194.71217707569832
 UP BND  x1660  0.006515377291823425
 UP BND  x1661  0.07899610539712729
 UP BND  x1662  48.86832529625271
 UP BND  x1663  0.047429441882610376
 UP BND  x1664  1.8043377651769472
 UP BND  x1665  213.5146391025547
 UP BND  x1666  20.20553006332506
 UP BND  x1667  28.59207966398755
 UP BND  x1668  0.5522678954200512
 UP BND  x1669  138.98544818518488
 UP BND  x1670  1268.7121331818757
 UP BND  x1671  917.1695808741811
 UP BND  x1672  1.5526664493160023
 UP BND  x1673  26.74176164310378
 UP BND  x1674  6.559120984285928
 UP BND  x1675  1.5387029210569607
 UP BND  x1676  0.006036565724577744
 UP BND  x1677  0.07190416042036993
 UP BND  x1678  100.23688666246329
 UP BND  x1679  55.13835883328352
 UP BND  x1680  0.9874627527381074
 UP BND  x1681  0.020319467935960754
 UP BND  x1682  0.10757239865178103
 UP BND  x1683  0.46426504184450873
 UP BND  x1684  0.12070195462276184
 UP BND  x1685  73.8314122132974
 UP BND  x1686  0.36803537728499874
 UP BND  x1687  3.994416047257307
 UP BND  x1688  0.011334355175429195
 UP BND  x1689  61.28080861527225
 UP BND  x1690  588.6768552690678
 UP BND  x1691  426.46105485162764
 UP BND  x1692  476.14811654365633
 UP BND  x1693  1.0863877314678185
 UP BND  x1694  0.17638652826108525
 UP BND  x1695  6.996096915498801
 UP BND  x1696  0.0026978778823251127
 UP BND  x1697  0.021353109564284465
 UP BND  x1698  0.0030035011386625446
 UP BND  x1699  79.34939117426698
 UP BND  x1700  79.92471853965101
 UP BND  x1701  74.07554927176332
 UP BND  x1702  287.0256948395655
 UP BND  x1703  322.6741458603292
 UP BND  x1704  0.04375960552092729
 UP BND  x1705  6.140410806207161
 UP BND  x1706  161.09434238399265
 UP BND  x1707  46.543115920120755
 UP BND  x1708  0.003666549481490803
 UP BND  x1709  286.3327352015349
 UP BND  x1710  541.2994662957786
 UP BND  x1711  308.62164691090845
 UP BND  x1712  0.002074223850924907
 UP BND  x1713  0.5292909079665621
 UP BND  x1714  3.0023896449669425
 UP BND  x1715  90.71789318678096
 UP BND  x1716  28.59152996157116
 UP BND  x1717  3.5991043378058607
 UP BND  x1718  0.07919605793558622
 UP BND  x1719  25.24242986216405
 UP BND  x1720  24.749691728055396
 UP BND  x1721  0.2673643717061258
 UP BND  x1722  0.12672505586687396
 UP BND  x1723  0.2933944614641718
 UP BND  x1724  602.4101398189518
 UP BND  x1725  0.7298916687383975
 UP BND  x1726  332.64571405519723
 UP BND  x1727  0.00543282135747758
 UP BND  x1728  0.020336655592927327
 UP BND  x1729  0.01955728874466173
 UP BND  x1730  7.502760367868596
 UP BND  x1731  28.833663360760504
 UP BND  x1732  0.6135510274598273
 UP BND  x1733  0.002643992098246361
 UP BND  x1734  49.26312107669032
 UP BND  x1735  3.2733370630862577
 UP BND  x1736  0.6243282277911519
 UP BND  x1737  0.005894896541143339
 UP BND  x1738  66.55935320079745
 UP BND  x1739  1526.0854262617518
 UP BND  x1740  0.30569759458957835
 UP BND  x1741  178.52542265358636
 UP BND  x1742  1.475394424176535
 UP BND  x1743  419.79689157071925
 UP BND  x1744  0.0037812428284327818
 UP BND  x1745  0.1761970048401186
 UP BND  x1746  46.06583221200487
 UP BND  x1747  0.008820450418920503
 UP BND  x1748  102.2347080370627
 UP BND  x1749  197.085682034092
 UP BND  x1750  0.16374937292603262
 UP BND  x1751  444.39172495779235
 UP BND  x1752  0.01392589502871829
 UP BND  x1753  0.20871011275048104
 UP BND  x1754  0.8934219080235258
 UP BND  x1755  0.04171996648162587
 UP BND  x1756  55.11325775519822
 UP BND  x1757  1.9705135867212316
 UP BND  x1758  13.908145004494555
 UP BND  x1759  0.0723723465455944
 UP BND  x1760  0.30447350561688236
 UP BND  x1761  259.918077215165
 UP BND  x1762  0.7560773563000394
 UP BND  x1763  0.014858568411327381
 UP BND  x1764  574.6933607018688
 UP BND  x1765  54.7706292739171
 UP BND  x1766  0.6967228683945282
 UP BND  x1767  0.3668158245089907
 UP BND  x1768  0.0098621618762192
 UP BND  x1769  0.19875930931095329
 UP BND  x1770  198.1157960589273
 UP BND  x1771  30.102228649275357
 UP BND  x1772  444.50941443022134
 UP BND  x1773  0.25139954647799034
 UP BND  x1774  0.03506958804729682
 UP BND  x1775  0.013298460356257995
 UP BND  x1776  0.01166280554240333
 UP BND  x1777  261.14906668337096
 UP BND  x1778  0.10151990690298257
 UP BND  x1779  0.019594023298817015
 UP BND  x1780  0.05067138588141403
 UP BND  x1781  12.183422019067626
 UP BND  x1782  166.89887774535376
 UP BND  x1783  450.6518778708232
 UP BND  x1784  0.022077110090182716
 UP BND  x1785  0.002487619827677097
 UP BND  x1786  0.3073697566349002
 UP BND  x1787  0.1493044541867067
 UP BND  x1788  11.362760181871167
 UP BND  x1789  0.14906261570437734
 UP BND  x1790  0.018489587793236412
 UP BND  x1791  864.8007604641316
 UP BND  x1792  0.01953033304205573
 UP BND  x1793  0.03480213542238027
 UP BND  x1794  290.8386242199388
 UP BND  x1795  0.057121049628271255
 UP BND  x1796  95.87791256022953
 UP BND  x1797  239.7644799014164
 UP BND  x1798  1653.819822687121
 UP BND  x1799  0.3231573588245605
 UP BND  x1800  32.48009437887003
 UP BND  x1801  1465.034905364303
 UP BND  x1802  0.012755735681370978
 UP BND  x1803  9.985953628188943
 UP BND  x1804  84.0116731807235
 UP BND  x1805  0.32378678208729533
 UP BND  x1806  8.491850346269228
 UP BND  x1807  73.63770875946108
 UP BND  x1808  0.012989623121457594
 UP BND  x1809  211.3985016367011
 UP BND  x1810  0.5526332835254235
 UP BND  x1811  0.007055216689722284
 UP BND  x1812  174.21044739690402
 UP BND  x1813  0.0024444609718325292
 UP BND  x1814  111.87272224079985
 UP BND  x1815  57.989378849724865
 UP BND  x1816  0.2212310394044153
 UP BND  x1817  0.4352262005419351
 UP BND  x1818  0.08442743410520384
 UP BND  x1819  0.012104445000715886
 UP BND  x1820  35.06130318190645
 UP BND  x1821  25.736239710166327
 UP BND  x1822  2.4208637792621324
 UP BND  x1823  531.8840782624817
 UP BND  x1824  0.04411533049561696
 UP BND  x1825  0.015420591370483745
 UP BND  x1826  0.9798940588772743
 UP BND  x1827  0.11809741509597198
 UP BND  x1828  61.87035315740601
 UP BND  x1829  18.831311115028793
 UP BND  x1830  0.03072118057026491
 UP BND  x1831  72.34245899385193
 UP BND  x1832  595.7631541302779
 UP BND  x1833  0.006050120658281213
 UP BND  x1834  0.9269263944649511
 UP BND  x1835  233.1606805458091
 UP BND  x1836  0.00211884505285552
 UP BND  x1837  95.99816004715044
 UP BND  x1838  216.47296473550065
 UP BND  x1839  1748.8651575920576
 UP BND  x1840  0.020520120243922302
 UP BND  x1841  0.0177291327085659
 UP BND  x1842  1890.6935465687845
 UP BND  x1843  3.3512352523962896
 UP BND  x1844  1.6737317554884512
 UP BND  x1845  2.6862756185126195
 UP BND  x1846  0.1319000876497326
 UP BND  x1847  0.012187873286176317
 UP BND  x1848  2.698989721560566
 UP BND  x1849  0.6594734016638042
 UP BND  x1850  949.4533474802038
 UP BND  x1851  971.7285485982504
 UP BND  x1852  4.492316784897973
 UP BND  x1853  1686.1438573356238
 UP BND  x1854  0.05385989544863724
 UP BND  x1855  675.8912976066072
 UP BND  x1856  21.15727610569234
 UP BND  x1857  0.029741373932964
 UP BND  x1858  0.032390130206703185
 UP BND  x1859  0.8539243512746428
 UP BND  x1860  3.654143582411918
 UP BND  x1861  0.013205634861863859
 UP BND  x1862  0.005685963135323552
 UP BND  x1863  0.009122781856530305
 UP BND  x1864  1197.0232198213266
 UP BND  x1865  1276.954828611077
 UP BND  x1866  0.0028530310970022216
 UP BND  x1867  2.363132033036901
 UP BND  x1868  20.935126452011005
 UP BND  x1869  114.09131314581103
 UP BND  x1870  11.652194014273356
 UP BND  x1871  0.0445452260128579
 UP BND  x1872  1.0705969544490224
 UP BND  x1873  1131.9529895642618
 UP BND  x1874  96.75618952904115
 UP BND  x1875  1413.0418131599677
 UP BND  x1876  1422.6510506974137
 UP BND  x1877  0.09222202979918107
 UP BND  x1878  18.339427870710836
 UP BND  x1879  0.07396094260344689
 UP BND  x1880  0.003227970809679804
 UP BND  x1881  0.025266241819207384
 UP BND  x1882  114.37471537916782
 UP BND  x1883  1187.068825611617
 UP BND  x1884  0.2958367926403822
 UP BND  x1885  0.19996631080841482
 UP BND  x1886  106.74331424075913
 UP BND  x1887  0.012511987249186863
 UP BND  x1888  7.457466617221994
 UP BND  x1889  9.022702821257807
 UP BND  x1890  3.6142588824343673
 UP BND  x1891  0.024983590648521934
 UP BND  x1892  56.59075176563189
 UP BND  x1893  2.9566150719982067
 UP BND  x1894  0.01403459011877423
 UP BND  x1895  12.00854204181576
 UP BND  x1896  0.3668296677404341
 UP BND  x1897  1.5137941228606293
 UP BND  x1898  0.16320857407716438
 UP BND  x1899  24.959809866823296
 UP BND  x1900  0.41822243655682356
 UP BND  x1901  1668.611588252933
 UP BND  x1902  0.5292949585921588
 UP BND  x1903  0.0720519171295402
 UP BND  x1904  0.040707576271643994
 UP BND  x1905  1.4561147173930582
 UP BND  x1906  0.0028807578823912246
 UP BND  x1907  929.8257265497338
 UP BND  x1908  0.010991965770973146
 UP BND  x1909  1.5133607695021674
 UP BND  x1910  79.09993855192182
 UP BND  x1911  44.18247002728493
 UP BND  x1912  419.85746284137815
 UP BND  x1913  3.096394465763575
 UP BND  x1914  0.8245761732759176
 UP BND  x1915  0.9314621659263065
 UP BND  x1916  60.01311831510782
 UP BND  x1917  102.16058127093048
 UP BND  x1918  763.2032734991518
 UP BND  x1919  395.52093266203576
 UP BND  x1920  0.01807933067928198
 UP BND  x1921  81.44973761325716
 UP BND  x1922  6.833197936296287
 UP BND  x1923  0.006096122422451363
 UP BND  x1924  15.461393276962179
 UP BND  x1925  217.60338514332577
 UP BND  x1926  0.08482456352799043
 UP BND  x1927  12.725542916961668
 UP BND  x1928  0.07684812712054973
 UP BND  x1929  338.25570240101354
 UP BND  x1930  356.76741790707774
 UP BND  x1931  2.1552093317823817
 UP BND  x1932  0.12679957843620146
 UP BND  x1933  0.054778840299965215
 UP BND  x1934  0.102978094157292
 UP BND  x1935  39.89510779683332
 UP BND  x1936  0.44361774422035655
 UP BND  x1937  0.014069560867763998
 UP BND  x1938  0.0580322600413829
 UP BND  x1939  0.0020642472316819917
 UP BND  x1940  3.624535927487827
 UP BND  x1941  27.156812589572844
 UP BND  x1942  0.05217211090367668
 UP BND  x1943  0.09155929105307753
 UP BND  x1944  0.4833477355737068
 UP BND  x1945  505.21735071193433
 UP BND  x1946  0.13033059533405755
 UP BND  x1947  0.28630371283522954
 UP BND  x1948  55.931313944203794
 UP BND  x1949  23.784378661312907
 UP BND  x1950  0.3134981249436761
 UP BND  x1951  7.2973218356352945
 UP BND  x1952  6.113029269323411
 UP BND  x1953  1321.0508998930954
 UP BND  x1954  1.1920252936111038
 UP BND  x1955  0.021302618025776078
 UP BND  x1956  0.1899015135661866
 UP BND  x1957  0.0028668575269633722
 UP BND  x1958  0.004046287182120379
 UP BND  x1959  0.012657835173124965
 UP BND  x1960  2.411434051345623
 UP BND  x1961  0.11257477457349062
 UP BND  x1962  0.014166395336012282
 UP BND  x1963  252.01785883560834
 UP BND  x1964  0.07897576446577548
 UP BND  x1965  267.4793760643641
 UP BND  x1966  0.06427988310403841
 UP BND  x1967  1.3201348688135857
 UP BND  x1968  0.002910539866656354
 UP BND  x1969  0.72441338606583
 UP BND  x1970  633.5858721903311
 UP BND  x1971  0.007978980119104603
 UP BND  x1972  0.005486344919677867
 UP BND  x1973  0.003856678682821209
 UP BND  x1974  0.0033289247431840855
 UP BND  x1975  0.7235876004055074
 UP BND  x1976  1.4021978420228658
 UP BND  x1977  104.87048503911188
 UP BND  x1978  0.12571959291897927
 UP BND  x1979  6.771233589858755
 UP BND  x1980  1.8798369694175425
 UP BND  x1981  123.82578860892251
 UP BND  x1982  0.007649873116936529
 UP BND  x1983  0.5766944930476743
 UP BND  x1984  355.9268195757132
 UP BND  x1985  215.88921575710253
 UP BND  x1986  13.427066199715977
 UP BND  x1987  7.7853862026564755
 UP BND  x1988  0.015814235956572668
 UP BND  x1989  0.5894975867239522
 UP BND  x1990  42.251943829201494
 UP BND  x1991  77.25311708224822
 UP BND  x1992  0.06655723647493626
 UP BND  x1993  0.05788643584927283
 UP BND  x1994  0.08516616782385288
 UP BND  x1995  657.2601350375389
 UP BND  x1996  0.005007784419197784
 UP BND  x1997  1209.0016985955194
 UP BND  x1998  0.0052190609501530025
 UP BND  x1999  235.38341339907842
ENDATA
