NAME illcond_300x500
ROWS
 N  OBJ
 G  r0
 L  r1
 G  r2
 G  r3
 G  r4
 G  r5
 G  r6
 L  r7
 L  r8
 G  r9
 G  r10
 L  r11
 G  r12
 G  r13
 G  r14
 G  r15
 G  r16
 G  r17
 G  r18
 G  r19
 G  r20
 L  r21
 G  r22
 G  r23
 L  r24
 L  r25
 G  r26
 G  r27
 G  r28
 G  r29
 G  r30
 L  r31
 G  r32
 G  r33
 L  r34
 G  r35
 L  r36
 L  r37
 L  r38
 G  r39
 L  r40
 G  r41
 G  r42
 G  r43
 G  r44
 G  r45
 L  r46
 G  r47
 G  r48
 L  r49
 G  r50
 G  r51
 G  r52
 G  r53
 G  r54
 L  r55
 G  r56
 L  r57
 G  r58
 G  r59
 G  r60
 L  r61
 L  r62
 G  r63
 G  r64
 G  r65
 G  r66
 L  r67
 G  r68
 G  r69
 G  r70
 L  r71
 G  r72
 L  r73
 G  r74
 L  r75
 L  r76
 G  r77
 G  r78
 L  r79
 G  r80
 L  r81
 G  r82
 G  r83
 L  r84
 L  r85
 G  r86
 G  r87
 G  r88
 G  r89
 G  r90
 G  r91
 G  r92
 G  r93
 G  r94
 L  r95
 G  r96
 G  r97
 L  r98
 L  r99
 L  r100
 L  r101
 G  r102
 G  r103
 L  r104
 G  r105
 G  r106
 G  r107
 G  r108
 L  r109
 L  r110
 G  r111
 G  r112
 G  r113
 L  r114
 G  r115
 G  r116
 L  r117
 G  r118
 G  r119
 L  r120
 G  r121
 G  r122
 G  r123
 G  r124
 G  r125
 G  r126
 G  r127
 G  r128
 G  r129
 L  r130
 L  r131
 G  r132
 G  r133
 G  r134
 G  r135
 G  r136
 G  r137
 G  r138
 G  r139
 G  r140
 G  r141
 G  r142
 G  r143
 G  r144
 G  r145
 G  r146
 L  r147
 G  r148
 L  r149
 G  r150
 L  r151
 G  r152
 G  r153
 G  r154
 G  r155
 G  r156
 G  r157
 L  r158
 G  r159
 G  r160
 L  r161
 L  r162
 G  r163
 G  r164
 G  r165
 G  r166
 L  r167
 L  r168
 G  r169
 L  r170
 G  r171
 G  r172
 L  r173
 G  r174
 G  r175
 G  r176
 G  r177
 G  r178
 G  r179
 G  r180
 G  r181
 G  r182
 G  r183
 G  r184
 G  r185
 G  r186
 L  r187
 L  r188
 G  r189
 L  r190
 L  r191
 L  r192
 G  r193
 G  r194
 G  r195
 G  r196
 G  r197
 G  r198
 G  r199
 L  r200
 G  r201
 G  r202
 L  r203
 L  r204
 G  r205
 L  r206
 G  r207
 G  r208
 G  r209
 L  r210
 G  r211
 G  r212
 G  r213
 G  r214
 G  r215
 G  r216
 G  r217
 L  r218
 G  r219
 L  r220
 L  r221
 G  r222
 L  r223
 L  r224
 G  r225
 L  r226
 L  r227
 G  r228
 L  r229
 G  r230
 G  r231
 G  r232
 G  r233
 L  r234
 G  r235
 G  r236
 G  r237
 G  r238
 G  r239
 G  r240
 L  r241
 G  r242
 G  r243
 G  r244
 G  r245
 L  r246
 G  r247
 G  r248
 G  r249
 G  r250
 L  r251
 L  r252
 G  r253
 G  r254
 G  r255
 L  r256
 G  r257
 G  r258
 G  r259
 G  r260
 G  r261
 L  r262
 G  r263
 L  r264
 G  r265
 G  r266
 G  r267
 G  r268
 L  r269
 G  r270
 L  r271
 L  r272
 L  r273
 G  r274
 L  r275
 L  r276
 L  r277
 G  r278
 L  r279
 G  r280
 L  r281
 G  r282
 L  r283
 L  r284
 G  r285
 L  r286
 G  r287
 G  r288
 G  r289
 L  r290
 G  r291
 G  r292
 L  r293
 G  r294
 G  r295
 G  r296
 G  r297
 G  r298
 G  r299
COLUMNS
    x0  OBJ  5.283778746557627
    x0  r58  -0.010970521308125668
    x0  r175  0.00017768681256054156
    x0  r176  4766.805304429652
    x1  OBJ  0.38061661355223303
    x1  r247  39.53265998223185
    x2  OBJ  6.389698750657012
    x2  r8  -0.1373241307982476
    x2  r180  0.4162716703172802
    x2  r181  1.2919825827498863
    x2  r198  0.009024406787587482
    x2  r265  4855.425462267935
    x2  r266  6.9056431245560725
    x3  OBJ  0.010399147799752121
    x3  r28  0.0024232885369059277
    x3  r90  2.1711159279809245
    x3  r91  0.0356317707869526
    x3  r174  9.26518727752252
    x4  OBJ  611.4530789566855
    x4  r149  -3.3974992542420794e-05
    x4  r182  -0.03455728230839049
    x5  OBJ  -0.004962480688465494
    x5  r0  -1459.5944555062533
    x5  r1  -0.0014569771060925394
    x5  r25  -0.5017491269511227
    x5  r26  -0.05200255714085242
    x5  r52  1.5674499212979316
    x5  r55  0.003869914595725005
    x5  r56  0.00021370198475713318
    x5  r212  -0.004226689366380759
    x5  r227  1706.4676711556194
    x5  r233  -866.940061623579
    x6  OBJ  -81942.67350882273
    x6  r32  -0.00026521752653897523
    x6  r37  -2.6117961006971072e-06
    x6  r110  3.154860216872942e-05
    x6  r111  5.1464578631610156e-05
    x6  r233  0.017257997910544758
    x6  r262  -9.469079230294026
    x7  OBJ  0.00038923802771551877
    x7  r44  -3.930573967516181
    x7  r82  0.5594267066576935
    x8  OBJ  0.056862247901545246
    x8  r80  0.11337449286986792
    x8  r81  2406.1014108273266
    x8  r108  1.0581382051337498
    x8  r135  -77.37342210448179
    x8  r136  -7208.59711113575
    x8  r224  0.001915561634755739
    x8  r254  0.015776762890755285
    x9  OBJ  -0.05730172461084506
    x9  r163  0.002279804962816551
    x10  OBJ  1701.4469092347865
    x10  r104  4.155455735236832e-06
    x10  r174  -0.015165747558077262
    x10  r184  -1.1976659236850944
    x10  r207  0.00017680252749799157
    x11  OBJ  -1.3653021812305899
    x11  r68  0.11980700626936082
    x11  r74  7563.498671226901
    x11  r122  -38.86314899541776
    x11  r247  0.8640089352025608
    x12  OBJ  25.257870100332706
    x12  r25  -0.0011437420676667337
    x12  r26  -0.00011854032839459091
    x12  r65  9.089048033650764
    x12  r66  12.072112061411397
    x12  r180  0.00020118168871991867
    x12  r181  0.0006244076412980754
    x13  OBJ  1.1129429055771103
    x13  r74  378.89416621612247
    x13  r133  47.49960838071115
    x13  r142  0.18689952263966045
    x13  r154  1.7764836531413948e-05
    x13  r160  -0.004850739814356241
    x13  r161  -0.0005117296114792858
    x13  r183  173.00542431696564
    x13  r290  0.10233962639911809
    x13  r291  0.0002215677846047117
    x14  OBJ  0.00021100048323723856
    x14  r45  -79631.82643724205
    x14  r46  -127.09177378229144
    x14  r203  279474.1877880181
    x14  r208  -0.0012026823990512765
    x14  r229  0.24423813163485852
    x14  r269  -0.026470925496973174
    x15  OBJ  0.008500268487396826
    x15  r72  0.0856048175902573
    x15  r123  0.0012089015629070923
    x15  r208  0.00837108599324747
    x15  r273  -3275.5949677635144
    x16  OBJ  0.845065572897573
    x16  r70  -5.060463334572794e-05
    x16  r71  -378.83871365652215
    x16  r194  312.8582084973521
    x17  OBJ  12.51634259071083
    x17  r9  1.8332768880864614e-06
    x17  r124  -0.0011190859893162443
    x17  r190  0.00015223175261824609
    x17  r191  0.09219776466519221
    x18  OBJ  -0.3018433192909694
    x18  r2  19.21409869614268
    x18  r195  -0.4356024147216781
    x18  r196  -0.06738557804390069
    x18  r207  -0.007112236389766208
    x18  r277  6.59117931195668e-05
    x19  OBJ  -15.282726225054558
    x19  r35  1.4503827180849637e-05
    x19  r36  0.0025956142968894254
    x19  r82  1.316532478167895e-05
    x19  r210  -0.00847404732067771
    x19  r211  -3.436627141411875e-07
    x19  r260  -0.43587978298790625
    x19  r261  -12.017751133200422
    x20  OBJ  -25.28253451038961
    x20  r12  0.00023979555404772437
    x20  r18  -0.00045496706107637174
    x20  r188  -0.12246571400265555
    x20  r228  -0.021059404513084794
    x20  r264  6.625468039856817
    x21  OBJ  -6.448760851179118
    x21  r62  -0.000806050517607875
    x21  r137  -0.009635332422221417
    x21  r247  0.14975335784861826
    x21  r248  3.946204851627056e-05
    x22  OBJ  0.04701167723467915
    x22  r15  -464.37702876694755
    x22  r16  -619.2093214596752
    x22  r24  -7.962682975427461
    x22  r245  6038.713439765469
    x22  r246  0.00872593659351624
    x23  OBJ  0.900316735804153
    x23  r15  381.86170643047643
    x23  r16  509.1817420703739
    x23  r83  656.8589364246809
    x23  r280  -16.55017850818063
    x23  r281  -0.0001570046949316828
    x24  OBJ  -20.055357534385458
    x24  r40  10.428070967184942
    x24  r41  3.3503132969053957
    x24  r118  -19.901011593449944
    x24  r132  2.215460092722109e-05
    x24  r190  -3.849057566513552e-05
    x24  r191  -0.023311461775170596
    x24  r273  3.018017905705524
    x25  OBJ  45146.45309219321
    x25  r95  0.8491133775457209
    x25  r96  0.28712497751256527
    x25  r184  0.08355153300430027
    x25  r285  0.1955470824841676
    x25  r286  0.3543855111451308
    x26  OBJ  -228.4158631063525
    x26  r54  -2.245906944992376e-05
    x26  r118  -10.041122851053572
    x26  r153  0.004339141729105281
    x26  r194  -12.475504963172948
    x26  r262  -11.39350440689178
    x26  r270  4.900873356136506e-07
    x26  r271  0.00023588204048400222
    x27  OBJ  6.691258734996013e-05
    x27  r228  9373.322590337399
    x28  OBJ  -684.3160421863179
    x28  r8  0.0001343092026858378
    x28  r30  -0.0016200255268776116
    x28  r31  -1.799301439995211
    x28  r133  -0.08769857175945701
    x28  r247  0.0027930046130735906
    x29  OBJ  0.005070640250710535
    x29  r15  -830.7554525014676
    x29  r16  -1107.745294738459
    x29  r93  0.0004286591876415684
    x30  OBJ  177.75944943920672
    x30  r14  198.66017952590693
    x30  r15  99.99470019322382
    x30  r16  133.33485600882153
    x30  r32  0.06414116481611634
    x30  r77  0.46282694917663303
    x30  r109  -3.1970546641441167
    x31  OBJ  0.4040849764734517
    x31  r40  1143.100398276945
    x31  r41  367.25335808723725
    x32  OBJ  0.19699037093967983
    x32  r207  0.0033297926665268574
    x32  r212  0.00013471669868843084
    x32  r257  -0.6648428841244064
    x32  r269  0.0001589975019100705
    x33  OBJ  0.03680708456544345
    x33  r30  1.484902778723498
    x33  r31  1649.2255192921918
    x33  r57  -0.5189542375630961
    x33  r157  3481.1816688408726
    x34  OBJ  -584.324956338191
    x34  r7  0.009263510212150798
    x34  r88  0.03786629811707847
    x34  r187  0.008796684143191028
    x34  r245  -28.563110138911473
    x34  r246  -4.127366955691408e-05
    x35  OBJ  -0.002009643829037076
    x35  r2  53051.37248827946
    x35  r198  1.4329090578422474
    x35  r222  -80.95638961064353
    x35  r262  -1329091.4632140435
    x36  OBJ  0.011065516752924595
    x36  r39  1561.4414460035935
    x36  r105  0.6461088986293576
    x36  r106  196636.76916504622
    x36  r184  21352.635715229164
    x36  r212  -0.07610686542783333
    x36  r227  41118.236173982696
    x36  r283  178.92562629377304
    x37  OBJ  3.2635933782862923
    x37  r273  104.8061127369311
    x37  r275  0.04006815967305644
    x37  r276  0.0036308873949310806
    x38  OBJ  0.030261596561830483
    x38  r5  -4938.013791065483
    x38  r6  -0.07857070645178407
    x38  r28  0.007654021787201041
    x38  r240  154.08793717601222
    x38  r241  0.01964618923642864
    x39  OBJ  0.007863090387963605
    x39  r29  688.1860807131329
    x39  r200  0.013291991765460908
    x39  r201  240.2568772049545
    x39  r244  0.012781333996174565
    x40  OBJ  0.003829818612111472
    x40  r5  25712.428263762762
    x40  r6  0.40912065796689556
    x40  r112  -16.60849643309898
    x40  r280  -734.4217977535767
    x40  r281  -0.006967154989882239
    x40  r283  -14.628597216880825
    x41  OBJ  0.0007253664496797573
    x41  r135  1150.2029616717632
    x41  r136  107160.16807936553
    x42  OBJ  -0.1271660054853166
    x42  r100  357265.75336444355
    x42  r101  20931.193493026523
    x42  r148  2874.0314233573467
    x42  r249  0.009419304335987417
    x43  OBJ  0.052121663262387034
    x43  r35  -0.0018239609660815647
    x43  r36  -0.326417202030006
    x43  r98  0.0003749574002414705
    x43  r222  0.24484413910178146
    x43  r283  0.3159910561139516
    x44  OBJ  0.07044181417381325
    x44  r37  -0.0005380081177180514
    x44  r39  -8.938116534142754
    x44  r69  0.6208475117961969
    x44  r158  0.0003679656426971367
    x44  r179  283.1756544531205
    x44  r238  -1.03187544989943
    x44  r298  -9.033457326618414e-05
    x45  OBJ  0.12450435730986269
    x45  r118  991.7992877804285
    x45  r140  1.408862412606328
    x45  r141  0.002073360372660491
    x45  r164  -0.003151537846016515
    x46  OBJ  0.05035779751055507
    x46  r193  -5.310186706791242
    x46  r278  -0.004818197080833111
    x46  r293  6.594480732036791
    x47  OBJ  0.038068457789755435
    x47  r53  0.025480613281486885
    x47  r105  0.2851931935426728
    x47  r106  86795.68208565537
    x48  OBJ  -27845.090613905417
    x48  r198  6.978765678696971e-06
    x49  OBJ  4114.984770728409
    x49  r73  0.042092676628324235
    x49  r184  -0.06759122254389392
    x49  r234  2.367312116437496e-06
    x50  OBJ  0.6870765493745664
    x50  r169  108.84341290040702
    x50  r238  0.24733471584389197
    x50  r283  -6.1148133046353115
    x51  OBJ  103.24417760391286
    x51  r22  -0.49169273112699907
    x52  OBJ  -0.0012498243967255735
    x52  r58  29.11331599964004
    x53  OBJ  0.01283529115164107
    x53  r30  71.31309296812643
    x53  r31  79204.76307802167
    x53  r49  0.044155967141383805
    x53  r119  -43341.36438332934
    x54  OBJ  -3.8851334321843005
    x54  r177  -0.4827561874770377
    x54  r280  7.923159865195691
    x54  r281  7.516373146777833e-05
    x55  OBJ  0.0400549449622537
    x55  r109  1.6905906837676448
    x55  r250  0.007387081787895045
    x55  r251  1.5128754836594626e-05
    x55  r299  -8.287315308634467e-07
    x56  OBJ  -42.540372787359324
    x56  r49  -0.0004165313679237349
    x56  r114  2.2614178163957038e-05
    x56  r118  140.74388921243684
    x56  r162  -0.0011915427807112796
    x56  r280  2.2274591636104746
    x56  r281  2.1130981234457862e-05
    x57  OBJ  -0.0007825232139781392
    x57  r47  -3.8454787792202216
    x57  r78  0.12513473005718917
    x57  r129  0.8484893111212704
    x57  r247  0.6898364336460951
    x57  r299  0.00028654785317393266
    x58  OBJ  -0.009935477456661203
    x58  r32  113.18715797494126
    x58  r70  -0.07469011191293419
    x58  r71  -559148.4656571683
    x58  r102  449.26392814761226
    x58  r138  -2009.437555554028
    x58  r234  -0.9757671525163696
    x59  OBJ  0.292815546811386
    x59  r98  -0.0008179495836839788
    x59  r245  41252.248957924596
    x59  r246  0.059609464224606314
    x60  OBJ  -0.00018539862443924955
    x60  r49  0.3194326295176481
    x60  r279  777733.5438319567
    x60  r290  -44.79543726490237
    x60  r291  -0.09698320339722105
    x61  OBJ  0.3718933931465645
    x61  r22  158.42442897300114
    x61  r40  8.714538276609026
    x61  r41  2.799792083957478
    x61  r208  -0.00022509409452868486
    x61  r282  -5.958523056857574e-06
    x62  OBJ  -0.010931483644918449
    x62  r134  -0.00025753763639734016
    x62  r182  8.870782164307098
    x63  OBJ  0.0001864504033935507
    x63  r70  0.07932184346533895
    x63  r71  593822.7421381297
    x63  r152  401.4643955103251
    x63  r225  -0.1435540819944352
    x63  r226  -6.9676813661990895
    x63  r280  27059.165499551742
    x63  r281  0.2566990801592573
    x63  r289  1.1705765638037775
    x64  OBJ  8.041770326240176
    x64  r149  0.05234431122647608
    x64  r187  3.41861178045525
    x65  OBJ  0.538881721964897
    x65  r139  0.045703132705684636
    x66  OBJ  0.0005010401619832869
    x66  r130  1613.2977501058103
    x66  r131  0.47719697601285044
    x66  r195  88.89773514947755
    x66  r196  13.752046518443114
    x66  r282  -0.0032896482539266927
    x67  OBJ  0.013327777140826561
    x67  r99  10964.67646386231
    x67  r115  24685.012485259467
    x67  r116  1889.731147080434
    x67  r264  -302428.8530768274
    x67  r292  -109240.4395433126
    x68  OBJ  -814.1823186761227
    x68  r88  0.046037214040978346
    x68  r137  -0.0027674814571100083
    x68  r209  0.0018169457923292178
    x68  r240  0.016804848352619223
    x68  r241  2.1426154691966376e-06
    x69  OBJ  -0.0005421500666920298
    x69  r20  0.04169457445329118
    x69  r21  710.0836590160626
    x69  r43  0.0028151143396465197
    x69  r47  7.754752041541705
    x69  r59  -0.03843313226290414
    x69  r63  3318.90292841654
    x69  r253  376.2789648570554
    x70  OBJ  -29.477113893319494
    x70  r23  0.023755952386154508
    x70  r42  2.5202699629845384e-05
    x70  r60  -1.5111577080274805
    x70  r61  -0.0006310254444695226
    x70  r67  1.1359993268597036e-06
    x70  r73  -0.15816104843713122
    x70  r78  0.0003231461416063351
    x70  r203  1.4510678948336495
    x70  r267  -2.020764751293477
    x71  OBJ  0.31377647108001117
    x71  r42  0.0051873332137691965
    x71  r103  16.445978313914452
    x71  r143  4.039189153218651e-05
    x71  r205  2.41056862028162e-05
    x71  r206  0.0007016313387275095
    x71  r284  -7.745344386015454
    x72  OBJ  -0.00030183327288406934
    x72  r34  5.314179779338331
    x72  r283  -92.05878252535054
    x73  OBJ  -0.006011313494140928
    x73  r9  0.0006937448908870316
    x73  r69  3.0701121355936007
    x73  r84  -3.7743475991103326
    x73  r113  0.0011722836260304507
    x73  r144  -0.240808895934517
    x73  r179  -464.44943196672324
    x73  r219  -0.07406863701596991
    x73  r224  3.2708359680608188e-06
    x74  OBJ  6.695898707154388
    x74  r57  -0.024085647709673322
    x74  r68  -0.0006649957472965307
    x74  r273  9.453422498380448
    x75  OBJ  479.42383207399234
    x75  r22  15.94050320638988
    x75  r27  -1.5740110738200785
    x75  r100  1.1382337529822064
    x75  r101  0.06668590066958423
    x75  r178  3.6084519946555004e-05
    x76  OBJ  0.6170890622744297
    x76  r124  0.04778375922417848
    x77  OBJ  -4.7255509978373595
    x77  r77  0.5458776485838115
    x77  r124  -0.00043641467964410243
    x77  r189  824.341531022641
    x77  r212  -3.179201737680798e-05
    x78  OBJ  -0.006955832823162948
    x78  r25  -0.0022732506252322016
    x78  r26  -0.00023560545970645688
    x78  r124  0.010634988363166058
    x78  r157  147.23509246723196
    x79  OBJ  -0.01569373606717444
    x79  r2  -23166.292670976818
    x79  r119  -28380.751750523006
    x79  r215  -1408.1423057053514
    x79  r216  -0.55047624748741
    x79  r240  2717.9849760255147
    x79  r241  0.346542648435661
    x79  r260  35598.856964627594
    x79  r261  981504.9413689988
    x80  OBJ  3.9022577020819154
    x80  r30  -0.1222298040068333
    x80  r31  -135.75603391317333
    x80  r67  6.252154532324547e-06
    x80  r95  116.19285212950106
    x80  r96  39.290238030457544
    x80  r99  -0.5952868735825055
    x80  r203  65.71761942525295
    x80  r260  -3.3075585651425192
    x80  r261  -91.19352002735573
    x80  r262  -333.70364722400893
    x81  OBJ  118.70088066877018
    x81  r27  -10.955333369334078
    x81  r150  -0.07089727457763256
    x81  r151  -19.9880949678745
    x81  r235  0.0014857026701140107
    x81  r236  0.016716954931226942
    x81  r284  1.93440842703407
    x82  OBJ  3.8683026788606414
    x82  r33  -2.832617922623002e-06
    x82  r57  0.01723220478533396
    x82  r100  34.06089154444267
    x82  r101  1.9955314313067052
    x82  r117  -6.160314644205416e-07
    x82  r175  -5.723261371500869e-07
    x82  r176  -15.353795559164103
    x82  r289  -1.1204184787093358e-05
    x83  OBJ  -1.0147527581971345
    x83  r124  0.008967215982391587
    x83  r183  -24.07404162545282
    x83  r190  -0.00023163230784689883
    x83  r191  -0.1402859686289007
    x84  OBJ  -2.1870985881691394
    x84  r242  18.44115736581236
    x85  OBJ  0.17197201375863044
    x85  r77  3.873001373645397
    x85  r192  0.185780480722898
    x85  r273  1261.9339159033332
    x86  OBJ  -0.028880231359124674
    x86  r38  -0.006314778412453966
    x86  r73  199.00595368600057
    x86  r132  0.010918701394279187
    x87  OBJ  62.33582889613243
    x87  r2  1.6009202388628707
    x87  r22  -16.195742012468244
    x87  r154  1.0996288032684728e-06
    x87  r177  0.05631193371622192
    x87  r213  32.06235273060533
    x88  OBJ  -4143.264664255523
    x88  r172  -0.4161573815344801
    x88  r184  0.25199788710068316
    x88  r189  -36.59232305164927
    x88  r202  0.013451407212961975
    x88  r228  0.45029535902113427
    x88  r289  -1.7654942445906964e-05
    x89  OBJ  0.40396652789175663
    x89  r24  0.050200385301072056
    x89  r109  0.12109694071830948
    x89  r159  2.2213502124038196e-05
    x89  r232  3.2123107668415406e-05
    x90  OBJ  27.310445823737506
    x90  r202  0.00210623161749869
    x90  r210  -0.03283559121232428
    x90  r211  -1.3316384533853061e-06
    x90  r247  0.003632356184917246
    x90  r260  0.3808089880938554
    x90  r261  10.499379345332231
    x91  OBJ  -33.632759839972756
    x91  r24  1.423028131299851
    x91  r47  0.605259496738401
    x91  r105  -0.0024295226253180807
    x91  r106  -739.4007928013984
    x91  r197  0.0001034972889347395
    x92  OBJ  -18.478566254738954
    x92  r113  -1.102153839156467e-06
    x92  r198  -1.4891744350293955e-05
    x92  r215  -0.10026288304695663
    x92  r216  -3.919513665565098e-05
    x92  r262  30.099834481295087
    x92  r268  1.7650406576113456e-06
    x93  OBJ  -454.6401627770191
    x93  r63  0.007911052553469727
    x93  r69  0.002142944231915614
    x93  r188  -0.028299246503897802
    x93  r209  0.0005704081936693236
    x93  r224  6.06792394107394e-08
    x93  r239  0.0002969746122467649
    x93  r258  2.2661053144264466e-06
    x94  OBJ  0.30184962384498254
    x94  r150  0.149157661708386
    x94  r151  42.05207078885645
    x94  r232  -0.00010842258246892308
    x94  r258  0.00045351673407520183
    x95  OBJ  -0.0020779848515273276
    x95  r44  1.4578891982314437
    x95  r218  0.004832386081435375
    x95  r252  -30.189058676829298
    x96  OBJ  -0.15824649114534864
    x96  r105  7.959358591761995e-05
    x96  r106  24.223507908961906
    x96  r117  -1.7645424414194925e-06
    x96  r200  -0.001079353139121329
    x96  r201  -19.509641086921352
    x97  OBJ  -1632.040725686917
    x97  r39  -0.0133543636728378
    x97  r89  6.235402936084512
    x97  r145  -0.060397562209782686
    x97  r146  -3.468732316797344e-05
    x97  r220  0.00014629861299112233
    x97  r221  0.17438697975184309
    x97  r224  2.0193551900357235e-07
    x97  r229  2.1702921671156355e-06
    x98  OBJ  613.8022282714933
    x98  r5  2.3475307683489035
    x98  r6  3.735249439268194e-05
    x98  r145  -0.023397817118822457
    x98  r146  -1.3437753660420459e-05
    x98  r223  0.00029127232984536356
    x98  r259  -2.0546744840933763e-06
    x99  OBJ  0.006363009944685997
    x99  r50  3831.3114133474483
    x99  r51  2.6385595819367986
    x99  r142  -6.969519141798922
    x99  r159  0.007481144830551027
    x100  OBJ  -0.00031207936016423523
    x100  r0  29255.28578177074
    x100  r1  0.029202822190101275
    x100  r30  -76.37837413806749
    x100  r31  -84830.57985710962
    x101  OBJ  -210.298131671352
    x101  r63  5.315439939621071
    x101  r118  -78.31141643892465
    x101  r155  -0.0008115457999939011
    x101  r156  -3.8439640655806047
    x102  OBJ  0.03412339595234893
    x102  r15  -2918.1943903213373
    x102  r16  -3891.1765132289843
    x102  r92  0.7653362468541295
    x102  r184  457.10539890960337
    x102  r253  84.16627622305025
    x102  r264  -20885.80636186074
    x103  OBJ  -3718.884351282135
    x103  r177  0.011920939709151764
    x103  r220  -0.0001150880245702862
    x103  r221  -0.1371841509163924
    x104  OBJ  -300.8791313199296
    x104  r7  0.07227896500643227
    x104  r30  0.6145385187671847
    x104  r31  682.5447579875461
    x104  r69  -0.5477605850889754
    x104  r147  -0.6847187269927053
    x104  r185  747.003301438698
    x104  r186  86.94794205447404
    x105  OBJ  -0.04828232399563966
    x105  r12  6.932854399154618
    x105  r72  -0.10957135409338499
    x105  r140  39.58120735248825
    x105  r141  0.05824990281931006
    x106  OBJ  -184.54025013782353
    x106  r45  -0.8555359080716018
    x106  r46  -0.001365428498664391
    x106  r78  -0.0007848342388909232
    x106  r285  6.434068641331183
    x106  r286  11.660314473735864
    x107  OBJ  -8.087860380509577
    x107  r60  111.58772833553141
    x107  r61  0.04659651898326132
    x107  r218  1.9902665183712443e-05
    x107  r299  5.4846141458255025e-05
    x108  OBJ  0.0004203736149475403
    x108  r18  -182.51191351430776
    x108  r113  0.2654702217413864
    x108  r295  0.08763875917152342
    x108  r296  8713.96049383825
    x109  OBJ  20.960690127984723
    x109  r145  -65.345890007296
    x109  r146  -0.03752922625985406
    x110  OBJ  -0.07002345006240011
    x110  r48  0.239683843611235
    x110  r127  -0.7768016140702126
    x110  r189  -3735.5852503280294
    x110  r264  -2946.1398272988285
    x110  r278  9.84285428950683e-06
    x111  OBJ  -125.85318827516096
    x111  r97  -7.1720513339831756e-06
    x111  r154  1.2447052218913464e-07
    x111  r170  -4.487034403559479e-05
    x111  r171  -5.14018401384189e-07
    x111  r282  3.9935437066634214e-07
    x112  OBJ  -125.86491237955234
    x112  r203  2.2589331384328726
    x112  r284  0.9597766979492155
    x112  r294  -0.16961437578943636
    x112  r299  3.773253351306943e-07
    x113  OBJ  2218.2648459196735
    x113  r98  5.97920337527412e-05
    x113  r163  -1.8249838498843703e-05
    x114  OBJ  -25.147365638702237
    x114  r217  1.7964608367852304
    x114  r234  0.00635500453045684
    x114  r247  -3.133202613417297
    x115  OBJ  10.032992325614266
    x115  r19  1.7161127801073629e-06
    x115  r254  8.295710187523108e-05
    x116  OBJ  -6.053137380330384
    x116  r58  -0.20545607895480136
    x116  r143  0.00026911645707282606
    x117  OBJ  -7.313121947621237e-05
    x117  r89  350252.44180082687
    x117  r265  -100641.23889394409
    x117  r266  -143.13728329605607
    x118  OBJ  67.96451685855506
    x118  r83  293.3024082824474
    x118  r205  0.000254278585878501
    x118  r206  0.007401150304439242
    x118  r237  -15.070173650058576
    x119  OBJ  89.35040043015931
    x119  r217  0.294508901814492
    x119  r287  25.167479367805736
    x120  OBJ  0.020000739165421996
    x120  r89  3272.516935572316
    x120  r220  0.0033327884475429885
    x120  r221  3.972661404757393
    x120  r272  -166.97799170364632
    x121  OBJ  12.104466297520808
    x121  r197  1.4063116105141566e-05
    x121  r214  101.34980504923769
    x121  r252  0.029074850703517785
    x121  r288  4.424597620249823e-06
    x122  OBJ  1.0515730208697214
    x122  r88  -4.667568120417606
    x122  r94  41.32410146865424
    x122  r144  -0.07549110700453067
    x122  r195  -1.9239742904633297
    x122  r196  -0.2976294491445859
    x123  OBJ  60.97782509587259
    x123  r68  -0.0004180793684876508
    x123  r95  48.71565849848995
    x123  r96  16.473042731431327
    x123  r117  5.793622018045924e-06
    x123  r122  -0.0869376496841587
    x123  r275  0.011247134052570006
    x123  r276  0.0010191901377574336
    x124  OBJ  1437.7254251623758
    x124  r70  -8.927718813102057e-08
    x124  r71  -0.668350889871969
    x124  r173  0.01039625508464905
    x124  r233  0.08334641855512308
    x125  OBJ  -0.07613289894334611
    x125  r29  358.9471205583651
    x126  OBJ  0.2124772001512695
    x126  r164  0.10875218128019701
    x126  r194  -14965.719374207962
    x127  OBJ  0.4294743220878559
    x127  r15  3.590560601215528
    x127  r16  4.787722547584204
    x127  r215  -0.07658387902925107
    x127  r216  -2.9938452924453917e-05
    x127  r255  0.002654600804170572
    x127  r256  0.0001981750170716633
    x128  OBJ  -0.0880001249245706
    x128  r88  613.9774920962145
    x128  r105  -0.4859192131502821
    x128  r106  -147884.62873183205
    x128  r212  -0.026820743330973118
    x128  r227  399.9855861945232
    x128  r239  8.538957404527178
    x128  r280  5345.139711458409
    x128  r281  0.05070712351705087
    x128  r284  31969.34911434545
    x129  OBJ  0.0003563140571375296
    x129  r0  2203.4823651817273
    x129  r1  0.0021995308536524915
    x129  r184  -1925.3059069950766
    x129  r210  -244.72761148386053
    x129  r211  -0.009924861591489522
    x129  r255  5.556799989400249
    x129  r256  0.414834057501691
    x129  r258  0.015499601171111967
    x129  r293  -3.481439363423551
    x130  OBJ  0.7520672331406364
    x130  r0  0.47484098196193375
    x130  r1  4.7398944820590056e-07
    x130  r55  -2.9246961081087568e-05
    x130  r56  -1.6150570901575202e-06
    x130  r180  0.00017750539863922233
    x130  r181  0.0005509235357711647
    x131  OBJ  -0.038653388086726324
    x131  r2  63.94292098808159
    x131  r232  -0.00036304751857225845
    x131  r277  -7.517944462661898e-05
    x132  OBJ  6.97829260831718
    x132  r14  9346.153097486786
    x132  r25  0.9090265127944307
    x132  r26  0.09421381305478037
    x132  r62  -0.13732038868000537
    x132  r207  0.07339868511018309
    x132  r232  -0.008169424229607699
    x133  OBJ  -0.18635071134199724
    x133  r132  0.0027007100107220303
    x133  r173  -1.1374199804752367
    x134  OBJ  -0.00022009400205337377
    x134  r17  20912.98892967282
    x134  r82  -0.08543578817228513
    x134  r115  -1382.1733849056097
    x134  r116  -105.81059403910955
    x134  r239  3.1574794815144775
    x134  r292  31528.01325564349
    x135  OBJ  -0.0001994830059576204
    x135  r23  -3096.59842540612
    x135  r190  0.8876464398778079
    x135  r191  537.5948708353757
    x136  OBJ  0.03584956858713078
    x136  r198  0.00454537419475156
    x136  r247  -0.785334925564411
    x136  r273  386.8835394287324
    x137  OBJ  -0.7897790612290263
    x137  r12  0.1241345745723025
    x137  r45  899.030961146002
    x137  r46  1.4348462571224447
    x137  r78  0.05939970731390211
    x137  r118  -1293.3263296266111
    x138  OBJ  11901.373808546346
    x138  r5  10.185473922894378
    x138  r6  0.00016206512081599065
    x138  r257  -0.0017466336776730106
    x139  OBJ  1.2201285560210176
    x139  r3  -4.6064833718755835
    x139  r15  -1896.8086090773943
    x139  r16  -2529.2410725660243
    x139  r40  1037.9650134389296
    x139  r41  333.47563988002116
    x139  r147  84.73748387786935
    x139  r263  79441.16910943414
    x140  OBJ  2.3860464527851155
    x140  r18  2.722380791105853
    x140  r100  -413.14855792820805
    x140  r101  -24.205207079475127
    x140  r248  0.0036110049103265976
    x141  OBJ  730.4613875609538
    x141  r28  4.875606799785585e-07
    x141  r37  1.4478414901616542e-06
    x141  r49  -4.499171465847494e-06
    x141  r57  1.5459286982627582e-05
    x141  r162  -4.394021836392974e-05
    x141  r217  -0.0034167093747161314
    x141  r287  -0.19405167247503538
    x142  OBJ  0.003399859163792579
    x142  r137  0.9429484788225605
    x143  OBJ  524.6785972015313
    x143  r149  1.3491509354923933e-05
    x143  r228  0.3595426239388973
    x143  r245  50.157230884402225
    x143  r246  7.247715544087303e-05
    x144  OBJ  0.003309501548384226
    x144  r19  0.041233484880611834
    x144  r43  -0.0006997500514795773
    x144  r118  -66771.2275442164
    x144  r199  -124.14236505413945
    x145  OBJ  438.43736377030154
    x145  r32  0.02513847306066147
    x145  r295  -1.0352371719773095e-06
    x145  r296  -0.10293407850065531
    x146  OBJ  194.74975777194234
    x146  r78  1.654716334913231e-05
    x146  r93  2.2473173381334614e-07
    x146  r187  0.0006771441555502931
    x146  r283  -0.0014207745548075372
    x147  OBJ  -0.7426359911310207
    x147  r45  -11489.01515491092
    x147  r46  -18.336376727263602
    x147  r177  136.05669043500248
    x147  r255  -2.7631464634638525
    x147  r256  -0.20627830065805075
    x147  r282  -0.012415264903037524
    x148  OBJ  0.3147838006756292
    x148  r118  -309.60277950453695
    x148  r198  0.0028607019788946197
    x149  OBJ  41.45848398379015
    x149  r69  0.013894600884882015
    x149  r125  5.402272529532672e-07
    x149  r126  0.07524554737660841
    x149  r134  6.475100912685875e-06
    x149  r184  -0.3999602839402624
    x149  r218  2.8483052148035405e-07
    x149  r290  -0.0038966041713407785
    x149  r291  -8.436242126018823e-06
    x150  OBJ  0.0035447116655562268
    x150  r135  4218.851137584091
    x150  r136  393054.8016919023
    x150  r140  -846.3004621802074
    x150  r141  -1.2454627580943471
    x151  OBJ  0.0007140307550478526
    x151  r137  39.40661548300666
    x151  r175  0.05860856180010282
    x151  r176  1572292.1206714576
    x152  OBJ  0.28162036690050524
    x152  r64  -0.1044106022887273
    x152  r169  1.7755286706303948
    x152  r175  0.00013555443884272827
    x152  r176  3636.519470335966
    x153  OBJ  -0.00033578690063571035
    x153  r79  -0.03837919034515063
    x153  r102  43.91005844313197
    x154  OBJ  -0.023004363175501582
    x154  r133  -34449.94487983556
    x154  r178  1.5237348603343681
    x154  r212  0.01764806691579054
    x154  r275  -2.0982390896808623
    x154  r276  -0.19013773436542392
    x155  OBJ  -0.012810094550146743
    x155  r25  0.11389563441703025
    x155  r26  0.011804432387494432
    x155  r43  0.000305427067111391
    x155  r253  -50.96199623298994
    x155  r282  0.0016353265253368744
    x155  r292  -1797.92306144163
    x156  OBJ  6.978127231918607e-05
    x156  r50  23374.359320160554
    x156  r51  16.097525607946956
    x156  r94  5105.827780564956
    x156  r105  -0.010004415427972571
    x156  r106  -3044.7432849031356
    x156  r124  6.337149070723286
    x156  r180  8.933950409378681
    x156  r181  27.728303396241486
    x156  r264  -186730.8853175369
    x157  OBJ  -67.08012171101574
    x157  r39  0.20499311886740199
    x157  r45  1.5575816037769852
    x157  r46  0.002485887840273431
    x157  r257  0.007422991254744628
    x158  OBJ  0.00015014213054188177
    x158  r102  1040.0954272466543
    x158  r132  -2.8825728264273
    x158  r177  -2271.1559246841916
    x158  r188  32689.379540458205
    x158  r268  -0.04365295286098479
    x159  OBJ  -0.1574355485290668
    x159  r164  0.2952602075434953
    x159  r280  1896.362302288112
    x159  r281  0.017990002635303516
    x160  OBJ  0.00014043025658973309
    x160  r178  0.05925980806911591
    x161  OBJ  -0.0003132214888208939
    x161  r24  1947.11694273294
    x161  r133  61136.05433541447
    x161  r174  -13.280819678306218
    x162  OBJ  -79.73593026065245
    x162  r145  -11.02951384125905
    x162  r146  -0.006334432363513403
    x163  OBJ  2.1155158065997988
    x163  r100  -5195.524231094315
    x163  r101  -304.39109004931225
    x163  r160  0.041307123470833464
    x163  r161  0.004357701493015285
    x163  r178  0.039185762597344805
    x163  r234  0.0005865581743024638
    x164  OBJ  0.011632070285840979
    x164  r64  5.3673237719171984
    x164  r65  3604.1758266079605
    x164  r66  4787.081106376751
    x164  r149  -0.005617155550220269
    x164  r280  -132.16623332018057
    x164  r281  -0.0012538062388496854
    x165  OBJ  -0.00054152371824045
    x165  r17  -7431.582747122269
    x165  r48  2.258636566291783
    x165  r102  -22.61353814024243
    x165  r134  0.015041297706547052
    x165  r152  -21.1564263579268
    x165  r182  12.520846691089055
    x165  r208  0.0097833564430269
    x165  r227  987.8326022050381
    x166  OBJ  -348.5628539555794
    x166  r52  0.0011813065012029407
    x166  r154  4.906125940069264e-07
    x166  r178  -2.6329425340540856e-05
    x166  r289  -5.710659771440037e-06
    x167  OBJ  0.08723265347096343
    x167  r77  62.972218691714296
    x167  r84  -71.21096643516005
    x167  r97  -0.1770078728735404
    x167  r123  0.006186372812993647
    x167  r292  -40209.77572782238
    x168  OBJ  0.048383209438932026
    x168  r25  15.403933999119861
    x168  r26  1.5965027836646235
    x168  r34  1.1234841291232405
    x168  r93  -0.015122371675031278
    x168  r98  0.10249432691209816
    x169  OBJ  -73.40529750832594
    x169  r122  0.05601203367378816
    x170  OBJ  -30.352111656060696
    x170  r70  6.996184046289729e-05
    x170  r71  523.7514678647352
    x170  r262  1004.7907770513398
    x170  r265  49.38280224173119
    x170  r266  0.07023482850679738
    x171  OBJ  0.0007475698321940655
    x171  r82  0.018955689136138935
    x171  r133  3744.5835019839446
    x171  r180  0.3744989108029864
    x171  r181  1.1623323327837192
    x171  r220  0.2154749984325127
    x171  r221  256.84474830500375
    x172  OBJ  -19.965435116761277
    x172  r14  -0.3596239972444003
    x172  r142  -0.0024509277878919764
    x172  r257  -0.0015073844255142717
    x172  r270  1.530924043890908e-06
    x172  r271  0.0007368430582583781
    x173  OBJ  -0.0111706267594613
    x173  r77  8.666339810976778
    x173  r90  4.592142003659674
    x173  r91  0.07536499217943322
    x173  r104  0.00038608370393009825
    x173  r267  512.0581832774435
    x173  r269  2.2955434333225594e-05
    x173  r272  328.65116363974175
    x174  OBJ  0.009284700061306295
    x174  r123  0.021984907979504056
    x174  r237  -13573.59586391926
    x174  r294  5533.796537232002
    x175  OBJ  -0.04330210142323072
    x175  r35  2.7016139782652497
    x175  r36  483.4825372633887
    x175  r247  262.42708226028896
    x175  r260  8987.531643925253
    x175  r261  247797.47080048302
    x176  OBJ  1.4339996257433196
    x176  r27  14.987910921808082
    x176  r283  0.03845553188174551
    x177  OBJ  3.7592497084638077
    x177  r72  -9.31648023177508e-05
    x177  r239  0.0010360272858043727
    x178  OBJ  21.581101823415384
    x178  r13  0.04995644092512684
    x178  r64  -0.0017513520109721868
    x178  r140  0.004866223336785423
    x178  r141  7.161404500385717e-06
    x178  r165  -0.0020817418579472872
    x178  r166  -0.00019155986272879804
    x178  r272  0.04125597246672784
    x179  OBJ  -102.87846576316768
    x179  r38  1.1385073079098869e-05
    x179  r124  0.0015594762138785559
    x179  r162  -9.16032146990502e-05
    x179  r254  8.029621760301711e-06
    x180  OBJ  0.19435445017945008
    x180  r29  -804.4282177639685
    x180  r145  1.3212664766274103
    x180  r146  0.0007588252076048526
    x180  r174  0.2871477779034295
    x180  r200  0.01268933683047764
    x180  r201  229.36367924515062
    x180  r268  0.000161935000967268
    x180  r292  229.12056574989592
    x181  OBJ  11.045648193275852
    x181  r123  1.569854362645966e-06
    x181  r158  -3.554769111699432e-06
    x181  r173  0.041899528280174875
    x181  r194  20.66904922444902
    x182  OBJ  0.04512048545064174
    x182  r64  0.17776120753400035
    x182  r75  0.13286930082999676
    x182  r76  4.296096279630518
    x182  r109  1.0983921240206072
    x183  OBJ  0.1331508390759537
    x183  r13  29.78950793032572
    x183  r65  1079.9449978078999
    x183  r66  1434.387372770817
    x183  r102  -0.8215821875821971
    x183  r128  -0.02554103808033241
    x183  r178  0.013639009418961222
    x183  r273  -49.02667527424206
    x184  OBJ  0.011100687285378781
    x184  r13  -125.91687169687452
    x184  r99  3.6622407905145775
    x184  r170  0.12389741755519458
    x184  r171  0.0014193237762624533
    x184  r207  -0.04778457205686895
    x184  r264  3846.743770171667
    x185  OBJ  0.32290522880963624
    x185  r144  0.00527081522355269
    x185  r172  0.958515899980306
    x185  r173  0.12893148984426572
    x186  OBJ  -666.4538192705116
    x186  r78  -0.00015366226845783538
    x186  r122  -1.204487274146221
    x186  r129  -0.0014496794531335822
    x186  r247  0.058714551806953216
    x186  r255  0.019455408443425772
    x186  r256  0.0014524125468496588
    x187  OBJ  0.008455457633196658
    x187  r122  8604.117782565447
    x187  r179  199760.90607500862
    x188  OBJ  -0.3842776448470089
    x188  r9  -0.0017761554681485683
    x188  r12  1.368520003060734
    x188  r175  0.0005833372896548729
    x188  r176  15649.191791234012
    x188  r209  1.0864471572060714
    x188  r237  -845.9498961822178
    x189  OBJ  -296.36696560790097
    x189  r14  -20.89556680584836
    x189  r85  0.009529838761540739
    x189  r86  2.7346777173935097e-06
    x189  r133  8.76145527012508
    x189  r135  0.16186011591308908
    x189  r136  15.079910072029525
    x189  r280  -2.1576319505836286
    x189  r281  -2.046855942568579e-05
    x190  OBJ  0.00022627973216638147
    x190  r47  -9.668101260216348
    x191  OBJ  -0.001187200995505634
    x191  r177  833.0635606983374
    x191  r229  0.008508934237493194
    x192  OBJ  0.05414398043947645
    x192  r7  0.45944029829052524
    x193  OBJ  -0.20427787121488877
    x193  r49  0.002877405481552535
    x193  r105  0.00849131935944832
    x193  r106  2584.2477040047943
    x194  OBJ  -0.0010877123977781479
    x194  r10  -89.14199675204195
    x194  r11  -48.07572632927707
    x194  r25  -51.648413347511784
    x194  r26  -5.352972538435638
    x194  r192  84.56657276986382
    x194  r237  -6978.681280988493
    x195  OBJ  0.09650385216736936
    x195  r94  1777.9790419446895
    x195  r109  8066.462125115555
    x195  r124  -30.15632437476736
    x195  r173  147.37872798838885
    x195  r194  618893.4309880397
    x196  OBJ  0.08471254775975162
    x196  r48  0.009056861723816935
    x196  r159  -3.8750526627374745e-05
    x196  r198  0.0003174799768506937
    x196  r278  -3.68380287778449e-05
    x197  OBJ  -60.447677752006086
    x197  r52  -0.0038960240355091443
    x197  r67  2.0316774993667972e-06
    x197  r72  0.00011929557189797478
    x198  OBJ  -148.67607959632122
    x198  r65  20.02640827848371
    x198  r66  26.599157563503702
    x198  r260  1.192667716159842
    x198  r261  32.88333830452271
    x198  r263  53.133181682179476
    x199  OBJ  0.09125970539500745
    x199  r73  -14.571288068643247
    x199  r162  0.0017121310864212451
    x199  r169  7.000957992446995
    x199  r214  646.7353847770406
    x199  r217  0.5044326527312039
    x199  r298  -8.072310944341901e-05
    x200  OBJ  -9.988041387339672
    x200  r55  3.860333805868534e-06
    x200  r56  2.1317289910076696e-07
    x200  r93  1.8412759982789301e-07
    x201  OBJ  0.005273206829297862
    x201  r147  -17.62405063841083
    x201  r218  -0.0026949289860718094
    x201  r240  307.3484452041771
    x201  r241  0.03918687746000194
    x201  r250  0.6356411541126966
    x201  r251  0.0013017939287924744
    x201  r259  0.1394007673920928
    x202  OBJ  -3.6582175311535527
    x202  r87  -14744.085864458193
    x202  r100  30332.950061024072
    x202  r101  1777.1218692866607
    x202  r238  -8.312398096965683
    x203  OBJ  0.0019397570218599237
    x203  r165  22.915161752090352
    x203  r166  2.1086307045795603
    x203  r202  5.522201691054606
    x203  r210  -850.1970937937708
    x203  r211  -0.03447951144632608
    x203  r212  -0.00021706078466489904
    x203  r227  -1099.0184050751832
    x204  OBJ  -0.00010986579604853837
    x204  r4  2664.1227613373094
    x204  r145  310.91015786670783
    x204  r146  0.1785608499595589
    x204  r178  -0.9434850066718755
    x204  r224  0.0028237373624830655
    x204  r293  31.66982581336785
    x205  OBJ  0.7808146495612392
    x205  r45  -26099.672131140793
    x205  r46  -41.654868951069034
    x205  r48  19.665311427721733
    x205  r92  -20.076037464027205
    x205  r142  367.35305408767823
    x206  OBJ  5.3557621093651826e-05
    x206  r73  -231.16084125548244
    x206  r89  233125.78089047177
    x206  r250  6.124812459463213
    x206  r251  0.012543624060735515
    x207  OBJ  -0.00011010925148454934
    x207  r14  -185125.4567228737
    x207  r107  125220.79568939803
    x207  r110  91.04973177213063
    x207  r111  148.5275191125523
    x208  OBJ  -13.718778753439292
    x208  r4  1.7660532145468226
    x208  r5  568.9492803301565
    x208  r6  0.009052777961329814
    x208  r32  0.17072072875894465
    x208  r139  0.005278462417948105
    x208  r235  -0.0036821610819646384
    x208  r236  -0.041431247274089915
    x209  OBJ  0.10697459757809934
    x209  r187  4.105018711781142
    x209  r288  0.0017686781109160603
    x210  OBJ  -16.659562834249122
    x210  r2  4.246730478443239
    x210  r4  -0.9823040520696253
    x210  r10  -0.007884770843911237
    x210  r11  -0.004252384523186618
    x210  r49  4.460503673682163e-05
    x210  r97  0.00046958866232898013
    x210  r127  0.008739656067937163
    x210  r194  31.44075743318384
    x211  OBJ  -1929.343820383621
    x211  r159  2.4667732726239925e-05
    x211  r200  0.0014926750473194283
    x211  r201  26.98056213216041
    x211  r207  0.0002294986008981519
    x212  OBJ  -16.246786851342577
    x212  r200  0.08069502587049858
    x212  r201  1458.5874957614699
    x212  r212  0.00010393737814864469
    x212  r227  -183.5120414141819
    x213  OBJ  -0.03370032774113744
    x213  r85  0.22240982236707624
    x213  r86  6.382260390273858e-05
    x213  r283  0.8175931281547006
    x214  OBJ  778.0059728094647
    x214  r89  1.0279505822253765
    x214  r93  7.453354879191639e-08
    x214  r284  0.23525668806095232
    x214  r285  0.5757194516126195
    x214  r286  1.043363107960408
    x215  OBJ  0.020135205799985924
    x215  r179  -340228.8632433646
    x215  r219  930.6298933987641
    x215  r268  -0.21273920899683507
    x215  r299  0.13014724436205458
    x216  OBJ  -1.1582850580975942e-05
    x216  r179  102657.11982046306
    x216  r279  -875297.7701613427
    x217  OBJ  0.0001776699883615685
    x217  r144  23.30860047358221
    x217  r175  -0.006105153200406263
    x217  r176  -163782.96920560265
    x217  r220  10.903761322938792
    x217  r221  12997.210130831932
    x217  r237  -16209.5190966471
    x217  r260  32754.14129714137
    x217  r261  903072.5780152575
    x217  r267  85877.74558683348
    x218  OBJ  -9.958653772487392e-05
    x218  r2  -98684.39286174517
    x218  r27  -126451.83957188478
    x218  r207  6.6454482763853004
    x218  r240  476.2146503229797
    x218  r241  0.06071729152385073
    x218  r269  0.0716602736110192
    x218  r289  0.7742544018467372
    x219  OBJ  -44.45041807531105
    x219  r0  -50.597308534587924
    x219  r1  -5.050657222955459e-05
    x219  r5  580.0904412181208
    x219  r6  0.009230049397004475
    x219  r218  4.778059386824802e-05
    x219  r228  2.2281644606578412
    x219  r249  2.7166192743529176e-05
    x220  OBJ  -1.6482953438938759
    x220  r82  0.0010887332544402687
    x220  r145  3.8587631275054552
    x220  r146  0.002216151535760937
    x220  r248  0.0001980759516448129
    x220  r289  -8.697050081651158e-05
    x221  OBJ  4331.543458397853
    x221  r137  -0.00037981713605183686
    x221  r172  0.04597015720435675
    x221  r298  1.7838713776502916e-07
    x222  OBJ  -0.688939174415356
    x222  r134  0.0034228426582385897
    x222  r160  -0.0028065380929452946
    x222  r161  -0.0002960761779131752
    x222  r167  0.047509393681154075
    x222  r179  2347.7364889961773
    x222  r248  -0.003496344247113099
    x222  r259  -0.0005108587419163525
    x222  r260  -329.0554450018539
    x222  r261  -9072.46953391255
    x223  OBJ  0.29939123158431064
    x223  r35  2.7154628839089554
    x223  r36  485.96094613038724
    x223  r228  895.2709917784708
    x224  OBJ  -0.0002821560094323212
    x224  r70  0.0010362275515536884
    x224  r71  7757.453171289102
    x224  r103  -9504.228730229062
    x224  r108  0.07987229269506012
    x224  r200  -0.1408599023683415
    x224  r201  -2546.0862058383395
    x225  OBJ  -19.141293735533242
    x225  r7  0.0004595925034811411
    x225  r83  -2.212791279781871
    x225  r109  0.0014583341198237708
    x225  r123  -1.390898435421576e-07
    x225  r155  8.76609392255475e-06
    x225  r156  0.041521435591686334
    x225  r188  0.05378946635248874
    x226  OBJ  -0.14844781115572886
    x226  r122  8.052129527071244
    x227  OBJ  1635.6719233588851
    x227  r18  -0.007261066995576538
    x227  r45  -17.6710443770027
    x227  r46  -0.02820284615278036
    x227  r143  -1.5729802291871225e-05
    x227  r274  1.113713658815622e-05
    x227  r278  -4.283302393035301e-05
    x228  OBJ  -0.7896082347574714
    x228  r59  0.00014113294826177485
    x228  r79  -5.571601532359858e-05
    x228  r119  114.35858270648995
    x228  r203  -10.131134337316267
    x229  OBJ  -0.01202325913839007
    x229  r15  2747.8653043414033
    x229  r16  3664.0564347711893
    x229  r37  -0.0297042342287857
    x229  r80  -0.01325447073354086
    x229  r81  -281.29429058781176
    x229  r105  0.02238377314198497
    x229  r106  6812.276384914705
    x230  OBJ  -20.23762271055613
    x230  r87  681.6498727846155
    x230  r125  -9.274456659555932e-05
    x230  r126  -12.917924713493425
    x231  OBJ  -0.0020424521373600484
    x231  r15  4004.2605635638947
    x231  r16  5339.358032304745
    x231  r139  -0.05057245065825342
    x231  r299  0.0006016298239407266
    x232  OBJ  -913.5427443376994
    x232  r25  7.216285060434975e-06
    x232  r26  7.479140839840096e-07
    x232  r60  0.00951723192521166
    x232  r61  3.974181432726752e-06
    x232  r122  0.07828176319421974
    x232  r200  -0.0001719439451935479
    x232  r201  -3.107939872696578
    x233  OBJ  132.0746653648789
    x233  r63  -0.03190160753468544
    x233  r164  1.972377522202748e-05
    x233  r283  -0.0013894380506316096
    x234  OBJ  -0.29868600020214847
    x234  r135  89.23390981270107
    x234  r136  8313.594289489249
    x234  r244  -0.6194597212593873
    x235  OBJ  2.877455914093696e-05
    x236  OBJ  0.10978431137188085
    x236  r10  46.6411812989604
    x236  r11  25.154343915016767
    x236  r65  -74020.0619501583
    x236  r66  -98313.74968959924
    x236  r157  391418.5260636474
    x236  r162  -1.703205649606903
    x237  OBJ  4157.613517280502
    x237  r130  -1.1278593734741238
    x237  r131  -0.0003336092352036056
    x237  r215  -0.042471443866023285
    x237  r216  -1.6603093744192127e-05
    x237  r222  0.008468940555677434
    x237  r233  0.17465761569191615
    x238  OBJ  -0.17274731259191264
    x238  r47  0.11817273602244222
    x238  r122  1.117920908779999
    x238  r147  -3.089472308153682
    x238  r183  -14.791649610852154
    x238  r198  -0.0003935966183819816
    x238  r255  0.13272342151600433
    x238  r256  0.00990825575475388
    x238  r260  95.8311262481144
    x238  r261  2642.1838218834123
    x239  OBJ  0.5875919158948855
    x239  r7  0.026605340420658163
    x239  r140  -0.02794269014780097
    x239  r141  -4.112201457435273e-05
    x240  OBJ  -20.706261942656077
    x240  r269  2.150660742478557e-05
    x241  OBJ  -0.018742355314331792
    x241  r203  -278498.0037519133
    x241  r225  0.06419161689312107
    x241  r226  3.1156668062079875
    x242  OBJ  2.329803314886921
    x242  r33  -6.0069931917435245e-06
    x242  r54  -0.00012698039188054362
    x242  r77  0.107040175783283
    x242  r260  8.738650509139015
    x242  r261  240.93550711864515
    x242  r277  5.834006403053894e-06
    x243  OBJ  0.0003016861835554183
    x243  r39  -11028.817006568841
    x243  r49  1.7033458309971505
    x243  r67  -0.03620675178934442
    x243  r89  514363.55254907423
    x243  r175  0.04319757981613507
    x243  r176  1158861.6456523663
    x243  r213  1453681.074293933
    x244  OBJ  0.3534923402950999
    x244  r119  114671.234969413
    x244  r215  -1542.192252945194
    x244  r216  -0.6028794930539148
    x244  r229  -0.056697040852920974
    x244  r297  66764.90113135487
    x245  OBJ  76.81107861423469
    x245  r122  0.6786020571801994
    x245  r202  -0.0023354017475549155
    x245  r224  1.0967002991754495e-06
    x245  r264  -63.181382810176316
    x246  OBJ  -0.17346359719488322
    x246  r27  17759.04802982498
    x246  r207  -0.09818623985345191
    x246  r255  13.647060732673562
    x246  r256  1.0187995946418795
    x247  OBJ  -1.398861064513341e-05
    x247  r125  -0.03652590918353592
    x247  r126  -5087.510376563742
    x247  r152  -2101.944730554912
    x247  r228  22914.649755904615
    x248  OBJ  -0.34033905222223093
    x248  r58  5.014196367331325
    x248  r97  -3.6116237714633646
    x248  r283  125.39951342485296
    x248  r290  90.39983876683048
    x248  r291  0.195717833902444
    x249  OBJ  78.01155704514798
    x249  r290  0.003884129727975081
    x249  r291  8.409234654899651e-06
    x250  OBJ  -0.22943687031865326
    x250  r189  -9.495031454499292
    x250  r298  9.120520220616555e-07
    x251  OBJ  0.8044302318648305
    x251  r25  -0.07342247306913016
    x251  r26  -0.007609691306461372
    x251  r83  -1108.412393874238
    x251  r100  -1410.1667293060432
    x251  r101  -82.61768568334253
    x251  r220  -0.01941038438529787
    x251  r221  -23.137047584231276
    x251  r267  -80.66011566207206
    x251  r268  0.0002471481596077485
    x252  OBJ  -319.5449252424807
    x252  r73  -1.3014040505624358
    x252  r122  1.3550607273051947
    x252  r188  -2.6656321473338087
    x252  r194  121.33717363238249
    x252  r222  0.06892824424275204
    x253  OBJ  2.013729304467594e-05
    x253  r125  0.10205107638311878
    x253  r126  14214.181704000934
    x253  r165  -139.89655724354134
    x253  r166  -12.873143958575548
    x253  r197  -0.0869466283550694
    x253  r225  0.08712107078031384
    x253  r226  4.228593101237315
    x254  OBJ  -48.807445050364336
    x254  r167  1.4651232597977097e-05
    x254  r190  4.078331330013688e-06
    x254  r191  0.0024700037155383505
    x255  OBJ  0.0012111567447800388
    x255  r159  -0.07821162007821611
    x255  r184  4318.4925684660075
    x255  r218  0.0025097710513520945
    x255  r229  0.0348781675731528
    x255  r234  -0.16873575429330498
    x256  OBJ  0.00038814124588338076
    x256  r43  0.011658200804954824
    x256  r189  -189509.89057056402
    x256  r199  807.7753851668457
    x256  r209  43.56901150759527
    x257  OBJ  -4.109602173192247
    x257  r48  1.9758066980238886
    x257  r55  -0.02498848372504604
    x257  r56  -0.0013798981610612063
    x258  OBJ  -7.1747995850816775
    x258  r4  -0.19402446012719882
    x258  r20  9.803776272839787e-06
    x258  r21  0.16696418474402627
    x258  r233  -0.15751012251814642
    x259  OBJ  0.0006092624908319391
    x259  r108  -11.996174305086086
    x259  r179  622662.7392706235
    x260  OBJ  -9.876182170300122
    x260  r63  0.36554307642149403
    x260  r220  0.00029990679548020526
    x260  r221  0.35748688228532177
    x260  r253  -0.03423580183371022
    x261  OBJ  6659.101590825698
    x261  r169  -0.12038593475887457
    x261  r184  0.5794055865379119
    x261  r194  16.50822384719201
    x261  r198  -3.124627633785414e-05
    x262  OBJ  -3.2586430812308707
    x262  r134  8.799653824200276e-06
    x262  r159  1.2245197358700153e-05
    x262  r258  -1.4047626812869934e-05
    x263  OBJ  0.00033870710056252597
    x263  r60  -10968.594081155285
    x263  r61  -4.58023753996879
    x263  r157  911579.466595863
    x263  r164  0.9606219730486197
    x263  r280  16093.961255828415
    x263  r281  0.15267673537671805
    x263  r283  14.349825327784128
    x264  OBJ  252.48511998124692
    x264  r288  1.4104001012279362e-05
    x265  OBJ  0.2651595511878876
    x265  r20  -0.012244466902856063
    x265  r21  -208.53060873332157
    x265  r73  96.31975608129463
    x265  r119  -7483.4205158148525
    x265  r273  1684.4623005940757
    x266  OBJ  -357.0996896901689
    x266  r65  0.5487761038530553
    x266  r66  0.7288866705646877
    x266  r205  2.4433663606444665e-05
    x266  r206  0.0007111775307961296
    x266  r212  9.477402396928592e-07
    x267  OBJ  -0.49559833176387624
    x267  r50  2088.2614209817516
    x267  r51  1.438150292801717
    x267  r193  5.064255411949113
    x267  r258  0.022366671163584897
    x268  OBJ  -28.4620634949427
    x268  r128  0.00029192118026201744
    x268  r132  6.904007516611888e-05
    x269  OBJ  -102.06354591744805
    x269  r7  -0.001787051960937337
    x269  r17  -1.6938976164082773
    x269  r49  1.6580053801291127e-06
    x269  r139  0.00010279270119112352
    x269  r230  -8.224466659811506e-06
    x269  r231  -0.00015152382683333642
    x269  r249  1.1919926851088283e-06
    x269  r253  0.07139124372351024
    x269  r257  0.005780306402948088
    x270  OBJ  0.016687541050977098
    x270  r34  -0.011179160447807174
    x270  r42  0.00021818607268364343
    x270  r67  6.47114345694178e-05
    x270  r132  0.002545383861970033
    x270  r157  615.0022792428273
    x270  r288  0.0001529419949942214
    x271  OBJ  182.79016989357095
    x271  r68  -0.015285487831863355
    x271  r158  0.0001893709123282868
    x271  r229  6.81026472329448e-05
    x271  r257  -0.3752935860394547
    x271  r282  5.615110496238549e-05
    x272  OBJ  -0.008259743307277821
    x272  r50  14112.489693057918
    x272  r51  9.719032770662773
    x272  r140  -108.10338514002689
    x272  r141  -0.15909094492159687
    x272  r184  317.9211494740883
    x273  OBJ  -0.7972286068090613
    x273  r55  0.002698207180968558
    x273  r56  0.00014899868147857356
    x273  r69  0.1264770762008522
    x273  r157  -664.3534359723591
    x273  r240  9.62559398531805
    x273  r241  0.0012272616890311955
    x273  r242  -97.78891748258597
    x273  r249  0.00016430244650966378
    x274  OBJ  54.87800141478823
    x274  r44  4.833218927149172e-05
    x274  r70  -8.960874245022345e-07
    x274  r71  -6.708329866866103
    x274  r98  6.777651607311275e-06
    x274  r138  0.007571454988812386
    x274  r230  4.7640152226384816e-05
    x274  r231  0.0008777003729222018
    x274  r250  0.00020592730915013882
    x274  r251  4.217394029473005e-07
    x274  r267  1.0576945495276129
    x275  OBJ  0.0014546567722979048
    x275  r28  -0.002505278440819119
    x275  r54  0.055092633380292674
    x275  r114  -0.0041038343264628374
    x275  r123  0.0037764196106144757
    x275  r140  -26.426484649989618
    x275  r141  -0.038890682363713056
    x275  r145  -254.8537613934017
    x275  r146  -0.14636673359931188
    x275  r217  -29.523320968181793
    x275  r233  -958.6198157468376
    x275  r269  0.0065784432998043174
    x275  r295  0.0024366177240513634
    x275  r296  242.2739511995503
    x276  OBJ  0.052372903307983464
    x276  r4  334.71768805266055
    x276  r43  0.0009564071230970713
    x276  r247  12.588000294756448
    x277  OBJ  0.0393439587854894
    x277  r28  -0.0010620443854358163
    x277  r80  0.011357765623401435
    x277  r81  241.04128244159992
    x277  r113  0.0025392508268885917
    x277  r148  -61.249492304781924
    x277  r287  343.3966569863516
    x278  OBJ  -0.003966325696489172
    x278  r64  845.1682008760799
    x278  r85  66.33249801277982
    x278  r86  0.01903473822105591
    x278  r103  -380717.34745264234
    x278  r157  -1535944.0542831337
    x278  r279  1873259.0329799368
    x279  OBJ  0.18575512971100913
    x279  r279  374.62167866851956
    x280  OBJ  0.0003345423868874544
    x280  r7  9.211140951197793
    x280  r188  -27158.065590185837
    x280  r237  -117790.06457430616
    x280  r255  161.5287048323987
    x280  r256  12.058668326453324
    x280  r262  251998.42541628313
    x280  r282  0.2751956557318596
    x280  r295  0.10001524095729146
    x280  r296  9944.558544296015
    x281  OBJ  0.038686004758934606
    x281  r230  -1.4069353569264045
    x281  r231  -25.920733451557336
    x281  r242  177027.56228625355
    x281  r247  208.3262380727186
    x281  r280  7143.535084652386
    x281  r281  0.06776775452835111
    x282  OBJ  -3.521323727469787e-05
    x282  r8  -6.272833906138006
    x282  r55  0.7006668318966598
    x282  r56  0.038691778320335074
    x282  r252  106.73890876447463
    x283  OBJ  -5.564974619428218e-06
    x283  r15  20352.508261380517
    x283  r16  27138.42586862836
    x283  r18  122.17530378836948
    x283  r20  0.16358637108754545
    x283  r21  2785.973927162478
    x283  r84  457.9497796684468
    x283  r178  4.614218931875325
    x283  r180  12.734647189446639
    x283  r181  39.52452663520298
    x284  OBJ  0.001634550568523968
    x284  r210  1371.0640208273533
    x284  r211  0.05560312772749793
    x284  r227  960.406230805759
    x284  r247  70.22150896967165
    x285  OBJ  0.08397191673582176
    x285  r80  -0.00015861220405039188
    x285  r81  -3.3661628829901313
    x285  r227  -11.213305251013182
    x285  r287  6.342669627940363
    x286  OBJ  -0.00927496027661245
    x286  r28  0.0004530735162181394
    x286  r62  0.0668144680044313
    x287  OBJ  0.10372271681721323
    x287  r30  -57.6003530782835
    x287  r31  -63974.54000228173
    x288  OBJ  -2.6565621092046383
    x288  r9  -4.445096296772969e-07
    x288  r127  0.0006392847416535904
    x288  r198  2.822395056086548e-06
    x289  OBJ  403.10936679896946
    x289  r138  -0.007367056459728491
    x289  r152  0.007244874183196629
    x290  OBJ  21.062446270582143
    x290  r30  0.4011943468813056
    x290  r31  445.5914316769017
    x290  r175  1.762342777372617e-05
    x290  r176  472.78376702640014
    x290  r263  2729.864776595283
    x291  OBJ  -3.210478113303166
    x291  r178  0.003104093852074053
    x291  r185  906.3177088597865
    x291  r186  105.49143705371701
    x292  OBJ  9.884287316973435e-07
    x292  r29  571769.7059540001
    x292  r99  2009.3181041925113
    x292  r269  0.1959951558056283
    x293  OBJ  -0.014293978910691214
    x293  r9  0.023105894638552765
    x293  r39  43.7039828902387
    x293  r129  -4.086052754807784
    x293  r148  71.75228853829628
    x293  r192  11.526980507495052
    x294  OBJ  -1975.0404646759448
    x294  r60  5.667259028548631
    x294  r61  0.0023665195702594084
    x294  r118  25.126712725595617
    x295  OBJ  6.759317978182996e-07
    x295  r29  520904.0468208488
    x295  r172  409.30049984792487
    x296  OBJ  59.654451325569866
    x296  r100  -3.993397299972633
    x296  r101  -0.23396186853749348
    x296  r120  9.79673397268511e-08
    x296  r121  1.1776002277387682e-07
    x296  r148  -0.08487260943182855
    x296  r220  8.19980334692015e-05
    x296  r221  0.09774110417036906
    x297  OBJ  6003.248829117194
    x297  r4  -0.23347503146755602
    x297  r5  11.894463387757172
    x297  r6  0.00018925753092797283
    x297  r42  -6.576445483881749e-05
    x297  r79  -2.160441887036299e-05
    x297  r153  0.00243762137255138
    x297  r222  0.007593993105017021
    x298  OBJ  0.26588079483181026
    x298  r112  -36.57150698264988
    x298  r137  -0.28835582831127177
    x298  r232  -0.0017739661862373557
    x298  r294  -1979.2351996490688
    x298  r299  9.759578291753881e-05
    x299  OBJ  -0.2901188942397461
    x299  r18  28.33502043099152
    x299  r57  -25.567037032114506
    x299  r200  3.289096481424453
    x299  r201  59451.43394411696
    x300  OBJ  1.5330351975471395
    x300  r98  7.045230179413601e-05
    x300  r237  -8.484905910606916
    x300  r240  1.5493089056690994
    x300  r241  0.0001975366369392637
    x300  r262  -220.81509518315525
    x301  OBJ  5.205983808996382
    x301  r117  1.825952113494625e-05
    x301  r119  80.84433370122626
    x301  r185  -23.20871980318684
    x301  r186  -2.701393981692585
    x301  r260  -21.936525291573997
    x301  r261  -604.8173960062747
    x302  OBJ  -0.48635931459039644
    x302  r25  -0.021336157670627697
    x302  r26  -0.002211333488952284
    x302  r58  -0.007521585746206202
    x302  r204  1.3770784373821772
    x302  r217  -0.20494383923877135
    x303  OBJ  -60.09806218759496
    x303  r285  -0.9835766137519298
    x303  r286  -1.7825132532292796
    x304  OBJ  -774.872563278192
    x304  r65  2.0634815046867034
    x304  r66  2.7407245927122914
    x304  r67  1.1473521646393169e-07
    x304  r99  0.038906931383472905
    x304  r280  -0.007266084867581235
    x304  r281  -6.893033349081296e-08
    x304  r285  0.08449699888764851
    x304  r286  0.15313196579653596
    x305  OBJ  -1.6174869265440865
    x305  r49  -0.0190700332713406
    x305  r53  0.000837376239059521
    x305  r117  0.001556816519698773
    x305  r143  -0.014751739080924267
    x305  r247  27.086911356583524
    x306  OBJ  -0.9677258098645176
    x306  r13  102.14466988660236
    x306  r220  -0.002684601829736104
    x306  r221  -3.2000273176643432
    x306  r223  -6.381049747023322
    x306  r297  -1014.7979768671463
    x307  OBJ  -0.05811231510354723
    x307  r112  -8076.001894891016
    x307  r264  -1133136.4963565795
    x308  OBJ  3.9966260534884834
    x308  r68  -0.00021987338769764004
    x308  r207  7.36522653439567e-05
    x309  OBJ  -405.46631934765816
    x309  r22  14.725449471752038
    x309  r90  -0.0012242082654158543
    x309  r91  -2.0091374847627864e-05
    x309  r94  0.2566980751196689
    x309  r287  0.23091733778593235
    x310  OBJ  0.004103420880767802
    x310  r65  442147.6399466164
    x310  r66  587262.3077352846
    x310  r243  -246.5513265116084
    x310  r272  98308.79633913853
    x310  r277  0.10404989684293856
    x311  OBJ  0.0002189848949965238
    x311  r83  229678.1772836707
    x311  r98  0.04800232823320195
    x311  r157  190284.67514895383
    x311  r264  321382.4924192178
    x311  r272  -9724.167549813445
    x312  OBJ  -0.02562091679422092
    x312  r42  0.04150223779950223
    x312  r254  4.29848014131401e-06
    x313  OBJ  10.272388491543659
    x313  r8  0.0008941509984092112
    x313  r154  9.378375377533041e-07
    x313  r160  -0.0001560136625922855
    x313  r161  -1.6458685894437273e-05
    x313  r187  0.0015500147649785754
    x313  r190  3.926009029636089e-06
    x313  r191  0.002377751120678493
    x314  OBJ  -8.1123177800715
    x314  r19  -1.0920483414902911e-05
    x314  r113  7.27387657599288e-07
    x314  r200  0.0001848500259527341
    x314  r201  3.3412212653421047
    x314  r260  1.3649105783809063
    x314  r261  37.63228910801328
    x315  OBJ  -0.0003053275877638438
    x315  r73  -887.6413533401999
    x315  r140  -411.0765756596101
    x315  r141  -0.6049631172244104
    x315  r234  0.5392652853641065
    x315  r263  312397.8868339463
    x315  r269  -0.01977524961504943
    x316  OBJ  3.7336387367560864
    x316  r135  0.022887986196062516
    x316  r136  2.1323892647636793
    x316  r164  2.4623097285420897e-05
    x316  r254  -2.7581036569261548e-06
    x317  OBJ  0.005501266392362271
    x317  r35  0.09246949589245022
    x317  r36  16.548399161843122
    x317  r79  0.020920603620352
    x317  r169  -113.66342724934282
    x317  r250  0.8321779549419717
    x317  r251  0.001704301558212713
    x318  OBJ  -0.0016503149348467987
    x318  r27  682.5141003325042
    x318  r45  -11870.81781397116
    x318  r46  -18.94573073172821
    x318  r48  7.276333931421481
    x318  r63  5555.219054899898
    x318  r79  -0.1890403217598363
    x318  r92  -2.1523018416715884
    x318  r119  56475.66743353166
    x318  r197  0.01818061377168869
    x318  r208  -0.13489503851259546
    x319  OBJ  557.5574105560586
    x319  r68  1.6754625025443178e-05
    x319  r70  4.6586407409527695e-06
    x319  r71  34.87572525514754
    x319  r170  -0.00033832640214071717
    x319  r171  -3.875744274344799e-06
    x319  r205  -5.058944933854257e-05
    x319  r206  -0.0014724799458821624
    x319  r230  -0.0002994706541626527
    x319  r231  -0.005517310347556841
    x320  OBJ  -3.443824184932211
    x320  r29  15.748594019227586
    x320  r94  0.4169834504988783
    x321  OBJ  0.056462927760669475
    x321  r15  1136.0442962980144
    x321  r16  1514.823309373785
    x321  r63  1322.1404750707634
    x321  r105  -0.013258315777548418
    x321  r106  -4035.035152573286
    x321  r228  384.2669775797894
    x321  r244  0.7612307352613774
    x321  r295  -0.0015538392586803337
    x321  r296  -154.4989076511901
    x322  OBJ  5480.756662287633
    x322  r135  -0.060086471691655485
    x322  r136  -5.598034973249636
    x322  r145  0.21767734789408769
    x322  r146  0.00012501570396929426
    x322  r158  -7.06485193704116e-06
    x322  r175  2.874543402397367e-06
    x322  r176  77.11538729669996
    x322  r179  6.3303060411022845
    x322  r223  -0.023780620087734718
    x323  OBJ  0.03518447763251743
    x323  r139  -0.011230854082014104
    x323  r254  0.0005425182411783561
    x323  r294  1626.5384305365017
    x324  OBJ  16.00555452074218
    x324  r120  3.135997759112741e-05
    x324  r121  3.769573937927527e-05
    x324  r159  -4.005892966390514e-05
    x325  OBJ  -0.013015588427445716
    x325  r38  0.00021650805995218647
    x325  r145  -6.446284806843185
    x325  r146  -0.0037022080657936737
    x325  r180  0.05517452694180835
    x325  r181  0.17124518859882046
    x325  r217  0.3497305260546553
    x325  r242  447.83037492504985
    x326  OBJ  -0.0018835628290286826
    x326  r175  0.09863683729401902
    x326  r176  2646130.826657934
    x326  r224  0.040516423629649176
    x326  r282  0.06454827971992343
    x327  OBJ  8.669088142123988
    x327  r43  4.1347574079951914e-08
    x327  r112  0.03661649791514875
    x327  r128  -4.1508765994847714e-05
    x328  OBJ  0.07790113096888869
    x328  r43  -8.251392722805065e-05
    x328  r75  1.0868490176430918
    x328  r76  35.141357146674224
    x328  r169  3.244155776797961
    x328  r180  0.05790519921686987
    x328  r181  0.1797203766006617
    x328  r203  944.1429181417335
    x329  OBJ  653.0828875283576
    x329  r50  28.919552103933505
    x329  r51  0.019916406015111607
    x329  r117  2.906219882529089e-05
    x330  OBJ  0.18240610099170648
    x330  r13  -512.2634107498747
    x331  OBJ  0.00026335069940862534
    x331  r12  4.367758865211567
    x331  r57  -28.337774543916247
    x331  r93  -0.0020853013149767655
    x331  r195  9.382172132219287
    x331  r196  1.451376318973392
    x331  r213  -24508.993555404802
    x332  OBJ  0.0019124999011245522
    x332  r14  -9461.964558127489
    x332  r37  -0.06171156962198335
    x332  r130  -25824.287090043166
    x332  r131  -7.638559264042242
    x332  r209  -0.954431203813193
    x332  r277  0.016224762136324535
    x333  OBJ  -0.05618249918086859
    x333  r19  0.02579490435877456
    x333  r42  -0.3539415580863343
    x333  r100  17058.519807124303
    x333  r101  999.4104940637878
    x333  r258  -0.013420494365514532
    x333  r263  1540.2331751373051
    x334  OBJ  0.5722428769405329
    x334  r10  0.05329874027133796
    x334  r11  0.02874487321469863
    x334  r37  -0.00046151412962763697
    x334  r103  922.4444464818208
    x334  r205  -0.0014265626632139247
    x334  r206  -0.04152219367065498
    x335  OBJ  0.06263925487192477
    x335  r70  0.2155460428703105
    x335  r71  1613630.453384518
    x335  r152  1568.772347647167
    x335  r239  19.625724782141898
    x336  OBJ  -0.0013041229121776468
    x336  r34  0.673873247344428
    x336  r68  3.3827822513680297
    x336  r77  205.9995800709889
    x336  r202  -8.932983143638271
    x337  OBJ  -2.52888661592735
    x337  r122  -13.160614465224054
    x337  r294  -1371.1651362709679
    x338  OBJ  0.033938366930002586
    x338  r38  0.0003809653600644022
    x338  r93  -3.4855272501414714e-05
    x338  r98  0.0008006192920618391
    x338  r135  -3.365720959333007
    x338  r136  -313.57180926238493
    x338  r255  0.05442886482334071
    x338  r256  0.004063300259672375
    x338  r275  0.2587815466791357
    x338  r276  0.023450205090133416
    x339  OBJ  7.358092831436216
    x339  r7  0.054240764447489
    x339  r60  21.31556346309399
    x339  r61  0.008900898623551503
    x339  r214  510.9911189118452
    x339  r227  18.886799581887736
    x340  OBJ  0.0014410844579084627
    x340  r47  -6.3217576029117115
    x340  r64  74.3567150834026
    x340  r114  0.020276295987304002
    x340  r123  0.0006130439406679082
    x340  r128  1.0985267708244653
    x341  OBJ  -3.731114082186639e-05
    x341  r23  1823.214808315522
    x341  r128  16.80252826061454
    x341  r237  -14991.595800581345
    x341  r280  33797.186459397126
    x341  r281  0.32061989037473715
    x341  r283  416.67700807074
    x341  r289  0.9748565978812201
    x342  OBJ  0.8269650981678268
    x342  r205  0.00025367953502900546
    x342  r206  0.007383714052928716
    x342  r230  3.293781892767613e-05
    x342  r231  0.0006068313094107656
    x342  r255  0.016730865443368402
    x342  r256  0.0012490161263004973
    x342  r275  0.023872658155077688
    x342  r276  0.0021632868995768825
    x342  r283  0.043005308018322155
    x343  OBJ  -3.7327966400298864
    x343  r13  -0.8356233002543312
    x343  r37  -0.00026577458808860405
    x343  r60  50.995237546818586
    x343  r61  0.021294461226608115
    x343  r134  0.00032776959613290356
    x343  r227  -20.155292890435156
    x343  r243  0.04708283900717876
    x344  OBJ  0.027827635857885866
    x344  r7  -0.07866352071506759
    x344  r197  8.920177082617672e-05
    x344  r224  9.997308313416128e-06
    x344  r227  -15.73314368188333
    x345  OBJ  0.0647641473058591
    x345  r52  -0.0041121758371755026
    x345  r89  -726.1284318263449
    x346  OBJ  -20.027509853431177
    x346  r19  9.839981419470049e-05
    x346  r87  -29.050909145971875
    x346  r194  -1.2547868071853348
    x346  r199  -0.23444732031160467
    x346  r278  1.5506272378924276e-05
    x346  r285  0.09837882079387272
    x346  r286  0.17828967205026972
    x347  OBJ  -24.611852130918386
    x348  OBJ  0.0005253044293983989
    x348  r4  10901.124949617428
    x348  r38  -0.007985395163071321
    x348  r62  4.101577402648494
    x348  r108  -6.725309276160238
    x348  r174  -41.19794410751585
    x348  r299  -0.03209877570275047
    x349  OBJ  9092.112050999782
    x349  r38  4.887008230269375e-07
    x349  r159  3.1776992769045126e-06
    x349  r227  0.14255677489922364
    x349  r278  -1.0753843216155783e-06
    x350  OBJ  3.516498709606407
    x350  r50  0.6390772207871085
    x350  r51  0.0004401216643488042
    x350  r158  -4.16896458605794e-07
    x350  r249  3.5677489254966895e-07
    x350  r259  3.532843120518041e-06
    x351  OBJ  0.010198980690934159
    x351  r50  30472.068420567943
    x351  r51  20.985597723062416
    x351  r140  6.546767910890343
    x351  r141  0.009634587222008193
    x351  r150  -352.73755892414863
    x351  r151  -99447.42112387749
    x351  r274  0.07949834947536197
    x352  OBJ  45.30289051422601
    x352  r67  -5.942192118810484e-06
    x352  r294  125.72686648110816
    x353  OBJ  -0.3575923970747262
    x353  r42  -0.004621630951726616
    x353  r163  -2.080918301460975e-05
    x353  r184  2.5071766934421773
    x354  OBJ  11.60412193060025
    x354  r72  -8.229114364158128e-06
    x354  r175  1.0270842144557228e-06
    x354  r176  27.553592308964205
    x354  r219  -0.003229213467964144
    x354  r238  0.006432163357814424
    x354  r273  1.8764435267378736
    x354  r289  -2.317214967151099e-07
    x355  OBJ  0.01604822471357482
    x355  r102  0.0465734878104434
    x355  r184  -0.34777104641994905
    x355  r289  -1.1519815696093596e-05
    x356  OBJ  0.028925867600873605
    x357  OBJ  6.1012737439315645e-05
    x357  r154  0.10118122783047842
    x357  r222  -3.2040649383125683
    x357  r242  1976837.974533405
    x357  r257  -542.6668404783554
    x358  OBJ  163.21816347753972
    x358  r43  3.116919223584573e-07
    x358  r119  6.276022567360122
    x358  r133  -1.5236113217121947
    x358  r278  -7.072032323416192e-06
    x359  OBJ  -0.021213012894111236
    x359  r84  1495.6718816885846
    x359  r173  2834.6809519608155
    x359  r184  -21866.290124685278
    x360  OBJ  20.555609153862765
    x360  r123  9.13704830976496e-05
    x361  OBJ  10.196398042245978
    x361  r214  0.19402885498928765
    x361  r223  -0.01748521578779533
    x361  r274  5.126429889751875e-06
    x362  OBJ  -516.3254686372319
    x362  r27  -1.1229367616036212
    x362  r38  1.976615515912633e-06
    x362  r64  0.010240292800927678
    x362  r239  0.00039061840241570804
    x362  r272  0.5438305069544511
    x362  r299  2.345313014324746e-07
    x363  OBJ  -0.01352267888535168
    x363  r0  4426.520879218576
    x363  r1  0.004418582786059754
    x363  r47  53.7824425497486
    x363  r67  -0.0016637492079016852
    x363  r233  972.8171354851625
    x363  r244  -1.7643628691500544
    x363  r283  49.99992629043573
    x364  OBJ  1.4757454779415291e-05
    x364  r40  -852500.2023552466
    x364  r41  -273889.8197891811
    x364  r64  513.0166931966684
    x364  r99  12413.739203141487
    x364  r268  0.39667736923267255
    x365  OBJ  -166.47183155313283
    x365  r15  -7.197581386635827
    x365  r16  -9.597393421295502
    x365  r28  5.146851116128234e-06
    x365  r105  1.9572685439680802e-05
    x365  r106  5.956750095899044
    x365  r138  0.13137831526810972
    x365  r177  0.019383234569707378
    x365  r238  -0.018922637638884212
    x365  r292  12.259341768672762
    x366  OBJ  -0.1725301719731407
    x366  r110  -0.1370099729292309
    x366  r111  -0.22350149722336102
    x366  r288  0.00010146540024077676
    x367  OBJ  -6.571047479089583e-06
    x367  r127  27.832995436991844
    x367  r133  8842.83568351017
    x367  r153  12.143085526649351
    x367  r248  -0.01426666864271578
    x368  OBJ  -292.76271681141657
    x368  r40  -5.768404445256398
    x368  r41  -1.853263201131793
    x368  r142  -0.007098357099756298
    x368  r157  14.16474548411246
    x368  r230  -1.4985490228072075e-05
    x368  r231  -0.00027608581725556284
    x369  OBJ  -1.145412830242601
    x369  r105  0.0058697128251301665
    x369  r106  1786.388104062034
    x369  r204  6.611596197988073
    x369  r262  5616.412355596989
    x369  r268  -0.00010515613330640732
    x370  OBJ  0.027695366063086008
    x370  r2  -4498.852048908993
    x370  r107  -15882.576235509263
    x370  r114  0.009251233487471708
    x370  r232  0.006229969887996137
    x371  OBJ  0.00017541863109317275
    x371  r57  -278.408613673
    x371  r103  -405267.24155038357
    x371  r168  -0.9228928348554376
    x371  r204  86.11196188260196
    x372  OBJ  0.002603582648006969
    x372  r70  0.001038208462670652
    x372  r71  7772.282756936859
    x372  r74  52455.08144534303
    x372  r120  -0.00011084762904871403
    x372  r121  -0.0001332425485091263
    x372  r147  113.75371460756107
    x372  r190  0.07822063598426156
    x372  r191  47.37360598709629
    x372  r280  886.4558334709833
    x372  r281  0.008409438829796093
    x373  OBJ  166.15230210957768
    x373  r95  -7.296231125311711
    x373  r96  -2.4671970124222926
    x373  r143  3.718297847264317e-05
    x373  r214  236.46933571816945
    x373  r233  0.9049661599659355
    x374  OBJ  0.15457868770030755
    x375  OBJ  198.50335271317388
    x375  r22  128.57778517299568
    x375  r38  9.242610897809316e-06
    x375  r84  -0.00053921402543559
    x375  r218  4.72956485403903e-06
    x375  r283  0.029584455792258574
    x376  OBJ  3.408779050471895
    x376  r2  -0.17582979590085296
    x376  r119  2.3454195566470455
    x376  r143  -3.0631975239281425e-06
    x376  r167  -4.533970306539726e-06
    x376  r187  -0.0003327460905286291
    x376  r219  0.0015363309746685807
    x376  r262  9.594011913983772
    x376  r293  -0.0011224830516396913
    x377  OBJ  28.04381637194195
    x377  r272  150.99531748019547
    x377  r282  -0.0006678482323920976
    x378  OBJ  0.0008543625777055849
    x378  r125  0.0021639716267494195
    x378  r126  301.4087356555005
    x378  r165  -58.125008494351775
    x378  r166  -5.348606260828922
    x378  r203  -103382.92256112593
    x378  r255  -4.834618851165507
    x378  r256  -0.3609207742457569
    x378  r258  -0.015422003092927933
    x379  OBJ  -4.059524238638048
    x379  r69  14.792000936221292
    x379  r165  14.12905681370113
    x379  r166  1.3001419473463456
    x379  r210  -2.966784133179555
    x379  r211  -0.00012031712202436198
    x379  r240  293.6138479297506
    x379  r241  0.037435718510758255
    x380  OBJ  -10.799851295636616
    x380  r290  4.127296657484649
    x380  r291  0.008935696929274674
    x381  OBJ  -0.005963487171238376
    x381  r108  -0.020684460216716438
    x381  r114  0.00018074185843733825
    x381  r282  0.00028943987762404825
    x381  r289  0.0013693296871944993
    x382  OBJ  0.00012984281437795274
    x383  OBJ  4112.90114817992
    x383  r17  -1.698768585189628
    x383  r45  1.4947996595016568
    x383  r46  0.0023856883569947952
    x384  OBJ  -0.00022136841526790537
    x384  r102  299.26932648210584
    x384  r213  503754.11886822997
    x384  r223  -27.348464813278603
    x385  OBJ  181.9766382025182
    x385  r14  2.443017969033732
    x385  r58  -0.0001615297561856293
    x385  r179  -1.8722616343887988
    x385  r184  0.2166589946668061
    x385  r185  -0.5347042075925726
    x385  r186  -0.06223724275295608
    x385  r195  0.008766967439502149
    x385  r196  0.0013562071502832682
    x385  r233  -0.0012848258035995745
    x386  OBJ  28.416950811410153
    x386  r235  0.0036212610881132955
    x386  r236  0.040746007642232386
    x386  r280  -10.488707457908077
    x386  r281  -9.950201740512462e-05
    x387  OBJ  -0.004728384234536656
    x387  r43  -0.005554232088721984
    x387  r157  -94942.99614864847
    x388  OBJ  144.9766422881396
    x388  r60  0.9902470475285664
    x388  r61  0.00041350483638791767
    x388  r260  0.7010314217073661
    x388  r261  19.328311724851257
    x389  OBJ  0.34557212405691184
    x389  r8  0.0005745730384672992
    x389  r208  5.063844248780231e-05
    x389  r279  -2.2252874137304888
    x389  r289  1.7007125362036898e-05
    x390  OBJ  -0.7182777763912659
    x390  r62  -0.03614593721615742
    x390  r168  -0.022751928511790455
    x390  r235  0.047625283226410936
    x390  r236  0.5358741353051288
    x390  r257  1.8025206138509215
    x391  OBJ  0.438195882272717
    x391  r54  -0.0595157295678358
    x391  r85  11.11382456324407
    x391  r86  0.003189217164041285
    x391  r225  -0.009645451177205012
    x391  r226  -0.46816100790472326
    x392  OBJ  3.7022981657209522e-06
    x392  r7  56.312338112190766
    x392  r133  31338.061070976466
    x392  r183  -27777.359305950522
    x392  r198  -0.5035996399915403
    x393  OBJ  -29.848397860861795
    x393  r38  -0.0002630473056779916
    x393  r102  -0.7937678712656504
    x393  r130  242.32517074832114
    x393  r131  0.0716773001893975
    x393  r212  0.00019450832838392048
    x394  OBJ  0.006578055068756209
    x394  r189  -983538.1577045929
    x394  r233  40706.86940256158
    x394  r284  -217296.9320468478
    x395  OBJ  -0.5637210297040034
    x395  r150  7.706008251177116
    x395  r151  2172.557552635547
    x395  r202  -6.201680115298825
    x395  r224  -0.0006403650182632864
    x396  OBJ  2066.008809230528
    x396  r8  -0.0004858838377309316
    x396  r10  -0.00047994491754594195
    x396  r11  -0.0002588420614570516
    x396  r25  0.0005400083642092473
    x396  r26  5.596783631450918e-05
    x396  r203  5.281370152855296
    x396  r269  1.7868174955662496e-06
    x397  OBJ  -0.000723533497301671
    x397  r3  6.324028998561508
    x397  r64  49.6761249427343
    x397  r134  0.006983400548648634
    x397  r224  -0.0032118275660836496
    x398  OBJ  -0.00029466653816857607
    x398  r28  -0.11266430940174603
    x398  r144  78.26348629966786
    x399  OBJ  -30.65977296619115
    x399  r12  -0.00020170896174601422
    x399  r50  0.7172019998191856
    x399  r51  0.0004939248772565204
    x399  r143  6.90396914911893e-06
    x399  r154  -2.7504093138127875e-07
    x399  r202  0.004311384559171707
    x399  r207  7.419124114245845e-05
    x399  r283  0.0011028432769031528
    x399  r294  0.7313227615626392
    x399  r295  -4.626330497037283e-07
    x399  r296  -0.04599980366261897
    x400  OBJ  0.005462356649424412
    x400  r142  50.69069063911949
    x400  r250  -0.3511596984141284
    x400  r251  -0.0007191755292657781
    x401  OBJ  0.027598804844335526
    x401  r87  -29558.78481393312
    x401  r193  -112.63589726582033
    x401  r239  -23.106043792490482
    x401  r255  52.16141050053691
    x401  r256  3.8940270666975154
    x401  r258  -0.06311233645597801
    x402  OBJ  -1.2433427629018945
    x402  r2  333.1179696125945
    x402  r58  0.08342098960282997
    x402  r173  7.615189754210382
    x402  r192  -0.1357966230049401
    x403  OBJ  2.6460705192139398
    x403  r89  27.13556104776562
    x403  r247  -0.03193872128046131
    x404  OBJ  -3.155616805910991e-05
    x404  r67  0.08220962199930698
    x404  r242  1179368.660785416
    x405  OBJ  -83.80080454122641
    x405  r107  -125.23085775903951
    x405  r158  -0.0001771895432477907
    x405  r249  8.496998888478534e-05
    x405  r282  9.597265420282828e-05
    x406  OBJ  6.055921387357602
    x406  r3  0.052531319157647624
    x406  r183  -57.47228605427514
    x406  r244  -0.011401266391483261
    x407  OBJ  120.64154568966329
    x407  r64  0.08809136782820527
    x407  r162  -0.0003521886410201953
    x407  r168  -0.00010198848342084345
    x407  r180  0.0023562787143576107
    x407  r181  0.007313182644177836
    x407  r184  -2.5483511739355817
    x407  r270  4.729139620561961e-05
    x407  r271  0.022761636769969312
    x408  OBJ  -0.021710116386666357
    x408  r150  3.4545625298610823
    x408  r151  973.9460004023495
    x408  r190  0.014355945699345084
    x408  r191  8.694545966997278
    x408  r230  0.06477246785697362
    x408  r231  1.1933383193866258
    x408  r292  1832.7688058681092
    x409  OBJ  -1.0122627431846085
    x409  r22  322.5465905136587
    x409  r103  421.188185551669
    x410  OBJ  1.5285655296588558
    x410  r0  139.5996319315537
    x410  r1  0.0001393492874932359
    x410  r68  0.061666545918981554
    x410  r83  1058.3526607579815
    x411  OBJ  0.9447596781145764
    x411  r130  1.2881889324639948
    x411  r131  0.00038103307439233883
    x411  r152  -0.009736898462091994
    x412  OBJ  45.48518122935393
    x412  r7  -0.0004360386042303811
    x412  r29  14.770838147727218
    x412  r82  -2.5326160969565098e-05
    x412  r125  1.7772277588646212e-06
    x412  r126  0.2475411253778297
    x412  r162  -5.3416383581719425e-05
    x412  r214  23.56303961138564
    x412  r267  -2.6630407480877434
    x412  r298  -1.452729412384804e-07
    x413  OBJ  0.7481530351079603
    x413  r35  -1.6491261009144615
    x413  r36  -295.1286445628244
    x413  r67  -0.0014490320868224503
    x413  r73  482.73763897445633
    x413  r184  3092.7255191106547
    x414  OBJ  1.6155766880185687
    x414  r27  -4525.0304516817105
    x414  r84  56.9026440991964
    x414  r259  -0.040661586805784015
    x415  OBJ  0.0352353469281813
    x415  r52  56.72216614419114
    x415  r197  0.08971619126397139
    x415  r282  -0.08799169162987464
    x416  OBJ  0.0009118922313864394
    x416  r58  3.147277880672218
    x416  r67  -0.001475170430198113
    x416  r97  3.004927481554749
    x416  r98  0.09065509354736943
    x416  r99  95.08770815566565
    x416  r107  -64495.82813311713
    x416  r210  -2006.0222875241514
    x416  r211  -0.08135368719697329
    x416  r273  -39664.28398151045
    x416  r289  -0.1283477815743961
    x417  OBJ  -0.004693946362618615
    x417  r85  -3.067580945715157
    x417  r86  -0.0008802713906890317
    x417  r99  765.3705072531397
    x417  r122  -802.6844991932845
    x417  r197  -0.00813431452206477
    x417  r285  4508.299884262196
    x417  r286  8170.288090294303
    x418  OBJ  -48.156366558957004
    x418  r4  -0.0963831780569593
    x418  r32  0.002854638428241558
    x418  r50  0.33415304806006246
    x418  r51  0.00023012554801794826
    x418  r150  -0.0022829473409339235
    x418  r151  -0.6436321278344861
    x418  r195  0.017963437079463792
    x418  r196  0.002778856198445724
    x418  r285  0.5660266012624057
    x418  r286  1.0257969784192456
    x419  OBJ  -55.794122168287586
    x419  r68  0.025893535575494234
    x419  r218  7.245364111140963e-05
    x420  OBJ  0.0006339230158487806
    x421  OBJ  -0.030844665833063934
    x421  r58  0.022887468598080968
    x422  OBJ  0.07372064973394553
    x422  r19  0.019150348350470386
    x422  r58  -0.08215500563594165
    x422  r165  -10.261350618634664
    x422  r166  -0.9442394175086164
    x422  r194  -11655.459455167962
    x422  r265  3616.487994391787
    x422  r266  5.143560157636252
    x423  OBJ  0.04568117317140886
    x423  r127  509.7263112212132
    x423  r295  0.0847215332865843
    x423  r296  8423.898594522545
    x424  OBJ  0.06525991868226083
    x424  r243  0.16646637134211245
    x425  OBJ  0.44077727628260127
    x425  r258  0.0064368139631411905
    x426  OBJ  0.007433023257635379
    x426  r7  8.936157712458245
    x427  OBJ  298.6203501090788
    x427  r9  -5.93523529587768e-08
    x427  r69  -0.005952219954950609
    x427  r119  -3.0288669087916404
    x427  r267  0.45677111003129356
    x428  OBJ  0.00377736048972562
    x428  r27  -20643.231655163567
    x428  r69  -39.57934694619556
    x428  r172  4486.532318425061
    x428  r222  -430.8939798342638
    x428  r297  249934.69817461315
    x429  OBJ  -1.4848426917744888
    x429  r110  -14.614135935988749
    x429  r111  -23.83973365213587
    x429  r209  -14.263174511135018
    x429  r247  -123.92790962151125
    x429  r254  -0.014888362467795953
    x430  OBJ  -2.2471240923755174e-05
    x430  r109  -7563.797213232121
    x430  r135  -4511.650289495602
    x430  r136  -420333.81885486393
    x430  r144  31.265873446372975
    x430  r239  96.2209444416931
    x431  OBJ  0.000638889873818232
    x431  r117  0.015335551436010782
    x431  r182  251.71498895740189
    x431  r250  0.07937158415042998
    x431  r251  0.00016255310987518527
    x432  OBJ  4.347997657413781e-05
    x432  r98  0.17073912284672627
    x432  r159  -0.003542905075996268
    x432  r213  4154287.5238937633
    x433  OBJ  -5.9269726094224925e-05
    x433  r53  0.07582667876888886
    x433  r107  -182469.5179003449
    x433  r212  0.02812952059123636
    x433  r290  268.52792257861626
    x433  r291  0.5813694367859171
    x434  OBJ  -1638.7641622899762
    x434  r53  6.772160473886372e-07
    x434  r97  0.0002904335540372847
    x434  r122  -0.31784054567950665
    x434  r232  9.900725047692925e-06
    x434  r253  0.10528771826027225
    x435  OBJ  359.5102155322318
    x435  r50  2.9965131999688635
    x435  r51  0.0020636479190873722
    x435  r58  0.00044508295490232113
    x436  OBJ  -0.11322576284555666
    x436  r67  3.6372594387046335e-07
    x436  r103  131.45040461881229
    x436  r193  -0.08734256306953825
    x436  r219  0.011647472532178413
    x437  OBJ  0.6262586061537734
    x437  r123  -2.6161251945891923e-05
    x438  OBJ  181.24378553960324
    x438  r52  -0.0004778064798937238
    x438  r63  0.16480381337208438
    x438  r98  2.4256251123040816e-06
    x438  r199  -0.00654626735630728
    x438  r275  9.218424396952325e-05
    x438  r276  8.353530052297602e-06
    x438  r290  0.002636623818442767
    x438  r291  5.708354236031584e-06
    x439  OBJ  -0.0007636233690658309
    x439  r218  0.05149772971506439
    x439  r289  0.8085808253426386
    x440  OBJ  -1.0487924681565968
    x440  r58  0.17125945146573093
    x440  r138  18.794136888374794
    x440  r284  1146.1803235536104
    x441  OBJ  0.001737662411479879
    x441  r93  0.005174522925263112
    x441  r205  0.18598690529420683
    x441  r206  5.41342101610419
    x441  r257  -20.281110919571635
    x442  OBJ  -5.886646333153761
    x442  r94  71.27740032269492
    x442  r147  -3.148628030230865
    x442  r173  5.398562201403688
    x443  OBJ  -2549.940469463731
    x443  r17  2.8187201301017497
    x443  r108  0.0002319259547798922
    x443  r220  9.261609106036636e-05
    x443  r221  0.11039775737528801
    x443  r285  -1.9175017234961922
    x443  r286  -3.4750442288210026
    x444  OBJ  -0.3691610553130434
    x444  r234  -0.0014756542546168715
    x444  r249  7.993859063225183e-05
    x445  OBJ  682.4026643286355
    x445  r124  9.490095393593246e-05
    x445  r187  -0.0012319118765318742
    x445  r193  -0.0004476855256203973
    x446  OBJ  360.7521401642724
    x446  r114  3.7237468487720585e-05
    x446  r189  -67.41018886112874
    x446  r244  -0.0035935708458755184
    x447  OBJ  0.0002579820797181642
    x447  r60  -2937.922854116231
    x447  r61  -1.2268103319708317
    x447  r129  5.830600212112483
    x447  r187  28.171561746437277
    x448  OBJ  21.449534680676557
    x448  r167  3.62210116994614e-05
    x448  r205  -7.462525023099743e-06
    x448  r206  -0.00021720771002317374
    x448  r287  0.3571357747114139
    x449  OBJ  0.0510783935468142
    x449  r10  16.35418325057322
    x449  r11  8.820075702998865
    x449  r72  -0.2075607124591712
    x449  r295  -0.002058786587403526
    x449  r296  -204.70603832658333
    x450  OBJ  240.7106548027547
    x450  r67  3.583641393652246e-07
    x450  r130  -0.902546570874421
    x450  r131  -0.00026696401903154507
    x450  r270  2.4327510148083775e-06
    x450  r271  0.0011708978671317498
    x450  r290  0.00274602106266968
    x450  r291  5.9452019115038145e-06
    x451  OBJ  -0.006783713326611239
    x451  r13  -212.10498000965507
    x451  r47  -0.058095251561030535
    x451  r99  132.13589594286276
    x451  r102  -1.6023295182320823
    x451  r197  -0.0015046913839113078
    x451  r245  38669.276328034735
    x451  r246  0.05587707099844307
    x451  r264  15471.692326532157
    x451  r270  0.004998114755970885
    x451  r271  2.40562304642878
    x452  OBJ  2400.9673959167617
    x452  r42  0.0013855233049555134
    x452  r164  6.386582897665547e-05
    x452  r189  40.30107892437303
    x452  r230  -7.599056098323434e-05
    x452  r231  -0.0014000153357321343
    x452  r232  -7.905556790707673e-06
    x452  r275  0.0036528649465245888
    x452  r276  0.00033101445316258024
    x453  OBJ  -0.21399834313720728
    x453  r9  0.0016724980980419237
    x454  OBJ  6.338570582559796e-05
    x454  r33  0.10143643378853093
    x454  r159  -0.4349649587570595
    x454  r252  1152.4992848239976
    x454  r274  -0.17546732531900794
    x455  OBJ  0.5109742278995153
    x455  r28  1.5743940640068324e-05
    x455  r273  5.0987183365219915
    x456  OBJ  -0.2932557337524221
    x456  r60  261.18627995685927
    x456  r61  0.10906550060399381
    x456  r112  45.13980719665278
    x456  r117  0.00022552486952978398
    x456  r129  0.12794092794854578
    x456  r162  0.006995460439807587
    x456  r272  220.81909494463324
    x456  r288  -0.0006243827605049835
    x457  OBJ  -0.0007549818992223483
    x457  r7  6.886953356598017
    x457  r164  -0.16486231873598048
    x457  r180  2.1989928156354193
    x457  r181  6.825014373718102
    x457  r207  -0.09248794905802839
    x458  OBJ  44.98772214921352
    x458  r0  -4.037014230963027
    x458  r1  -4.029774641243858e-06
    x458  r40  1.3878197996630726
    x458  r41  0.44587639249753547
    x458  r249  -4.842137312579228e-07
    x458  r265  64.6100411942267
    x458  r266  0.0918918116651321
    x459  OBJ  133.09137578252117
    x459  r125  -9.098047457174468e-05
    x459  r126  -12.672213198654099
    x459  r164  0.0003518509635325054
    x459  r167  0.0024168873113704727
    x459  r200  0.0054942653781364734
    x459  r201  99.31054228554163
    x459  r287  19.593569731193487
    x459  r289  -0.0001961312940959593
    x460  OBJ  0.10260615336470268
    x460  r3  -0.02100934375193894
    x460  r100  745.7458371363437
    x460  r101  43.69114225415838
    x460  r298  3.9311206651993894e-05
    x461  OBJ  0.04053709085206108
    x461  r68  -3.719331558895337
    x461  r73  -1259.1385006223097
    x461  r88  658.7485153231288
    x461  r249  -0.02071670327580837
    x462  OBJ  -0.3715958265475656
    x462  r149  0.0018509391875801908
    x462  r219  0.8235230245594615
    x462  r283  0.4342534863705328
    x463  OBJ  -4681.756460573474
    x463  r208  -6.1179819821837034e-06
    x463  r218  1.2653639485482839e-06
    x463  r258  1.031830857661667e-05
    x464  OBJ  25.31981650774288
    x464  r80  3.944975195129751e-06
    x464  r81  0.08372261867027317
    x464  r184  0.20198511566091276
    x464  r232  -1.3514193871629753e-06
    x465  OBJ  7.987218482394559
    x465  r98  0.0019600724861122574
    x465  r113  -0.001018588519707145
    x465  r157  -1240.008520408227
    x465  r187  0.0005456438657579292
    x465  r198  -0.00247690230486826
    x465  r258  0.0007344591892689171
    x466  OBJ  37.49817812782115
    x466  r102  0.005530068683520857
    x466  r195  0.0018141341691625369
    x466  r196  0.00028063771751970194
    x466  r212  2.5281931149847825e-07
    x466  r250  -0.00014216504430604536
    x466  r251  -2.9115419976616374e-07
    x467  OBJ  -0.4437858596639632
    x467  r137  -0.0018849051296202335
    x467  r144  0.009021555221502062
    x467  r230  0.0002099041048403886
    x467  r231  0.003867177212634415
    x467  r265  78.50666600720454
    x467  r266  0.11165632514464476
    x467  r292  -65.65162001043818
    x468  OBJ  -53.38731091115681
    x468  r170  0.004483642814894715
    x468  r171  5.136298219140383e-05
    x468  r224  2.079850762316616e-06
    x469  OBJ  -0.026769565102283132
    x469  r153  0.1342014012130699
    x469  r298  4.959243828694458e-05
    x470  OBJ  -11656.659707235944
    x470  r77  0.0005271519145410141
    x470  r182  -0.0036541104889071265
    x471  OBJ  0.0950093078909924
    x471  r7  5.285186492115847
    x471  r20  -0.20539949387603443
    x471  r21  -3498.076464357536
    x471  r117  0.029516917469983344
    x471  r230  0.7882578735502233
    x471  r231  14.522502495084794
    x471  r233  6672.573880951397
    x472  OBJ  -233.05103341344505
    x472  r88  0.016698894207678668
    x472  r207  -2.688083993572167e-05
    x472  r218  1.8153763740907824e-07
    x473  OBJ  0.0008133226973825007
    x473  r45  -29860.704353901503
    x473  r46  -47.65744643835173
    x473  r130  -37976.077628866464
    x473  r131  -11.232934275107628
    x473  r234  0.6895250511468178
    x473  r297  -33629.88499094835
    x474  OBJ  -0.001251427297742627
    x474  r105  0.023245527439201566
    x474  r106  7074.54264410566
    x474  r117  -0.0021314000766500278
    x474  r127  -3.1007381124968725
    x475  OBJ  0.00918379144474875
    x475  r0  -122.24779103359738
    x475  r1  -0.00012202856370356472
    x475  r42  3.1631388380204517
    x475  r43  -0.0011067817877130379
    x475  r203  -7122.261168157334
    x475  r227  -3064.799554490593
    x476  OBJ  -1.0774171769968062
    x476  r5  6.050624798531152
    x476  r6  9.627389421537365e-05
    x476  r175  2.0845856140000026e-06
    x476  r176  55.9231865633585
    x476  r220  -0.0002799571945392246
    x476  r221  -0.33370709219484274
    x477  OBJ  23.75914572513568
    x477  r43  2.8743627498487255e-07
    x477  r197  1.8033032331923725e-06
    x478  OBJ  0.29071580207068226
    x478  r283  -14.815369225298179
    x479  OBJ  -28.172460282889887
    x479  r12  -0.00020400471472790707
    x479  r77  0.0063117791637373084
    x479  r229  5.507126724152374e-07
    x479  r257  0.00036642846125080456
    x480  OBJ  76.52313038798863
    x480  r175  2.9876954488396733e-06
    x480  r176  80.15091769694904
    x481  OBJ  6.736638589669138e-05
    x481  r129  140.19228704498818
    x481  r224  0.016242025389293764
    x481  r255  -213.28590451963194
    x481  r256  -15.922519678334998
    x482  OBJ  -0.17481425458065503
    x482  r117  8.232878320579394e-06
    x482  r145  2.0901117780072074
    x482  r146  0.0012003857903911065
    x482  r284  37.93516895923103
    x482  r299  -1.2371979865199172e-06
    x483  OBJ  -0.025795837606533402
    x483  r18  0.26749553152218875
    x483  r147  -0.14795161267102527
    x483  r230  0.004860702501988532
    x483  r231  0.08955135949998955
    x483  r283  -0.20633405232153135
    x483  r289  0.0005443908187643286
    x484  OBJ  0.020969319338428192
    x484  r152  -3.2803047042160647
    x484  r212  -0.00019781573739339998
    x484  r230  0.03505138159479515
    x484  r231  0.6457706211977965
    x484  r250  0.05070395354109378
    x484  r251  0.00010384176426982723
    x484  r270  -0.0010831501541993447
    x484  r271  -0.5213267603694071
    x485  OBJ  0.0002681407835916063
    x485  r184  -12784.706808986939
    x485  r298  -0.011950601799847783
    x486  OBJ  41.84496524410416
    x486  r37  -1.0168248807939087e-05
    x486  r77  0.020046094799119785
    x486  r95  1.635257569262488
    x486  r96  0.5529570705934823
    x486  r228  -0.24076823236160846
    x486  r242  -11.29602641136273
    x487  OBJ  -81.1909704996866
    x487  r27  -46.56566731418385
    x487  r38  7.169297682821528e-05
    x487  r69  0.5835967932461331
    x487  r182  2.581425481015022
    x488  OBJ  -0.013854074638727813
    x488  r37  0.002905809222260262
    x488  r55  0.03416812968852045
    x488  r56  0.0018868107342116572
    x488  r244  0.07004167589613709
    x489  OBJ  0.0029786293462776467
    x489  r279  3920646.2539740163
    x490  OBJ  -661.3363010390644
    x490  r9  5.627977647201379e-06
    x490  r127  -0.005555580659371481
    x490  r167  -3.580228255557592e-05
    x490  r287  -0.32960746580140743
    x491  OBJ  -7.310201968911599
    x491  r2  -28.07947540928303
    x491  r128  -0.005068287131156444
    x491  r137  0.052449816473954115
    x491  r223  0.26100282267102853
    x491  r268  -7.219833304464354e-05
    x492  OBJ  -0.11643250318682206
    x492  r109  -5887.8239972395395
    x492  r124  -17.941626271672142
    x492  r190  2.435989702606882
    x492  r191  1475.334672338151
    x492  r258  -0.37694710453300767
    x493  OBJ  -12.20082596138381
    x493  r39  0.2457115962368376
    x493  r80  -1.714028553120964e-05
    x493  r81  -0.3637613719854751
    x493  r144  0.0003834393088543225
    x493  r145  0.04783873734526388
    x493  r146  2.7474578701364127e-05
    x493  r294  -17.667977586735482
    x493  r295  -1.0883902147937216e-06
    x493  r296  -0.10821910847244733
    x494  OBJ  -0.7964320462025322
    x494  r204  1.0461571410500756
    x494  r207  -0.005409859315802213
    x495  OBJ  1.679539391010188
    x495  r62  0.0011355957339583501
    x495  r93  -4.022000562093705e-06
    x495  r124  0.0033635679601595244
    x495  r257  0.02688975763972131
    x495  r275  -0.020627224673949347
    x495  r276  -0.0018691929747376072
    x496  OBJ  -5.624435026797391
    x496  r125  4.329171875712667e-05
    x496  r126  6.029885999263166
    x496  r138  2.5932727463223033
    x496  r179  1070.391039107426
    x496  r282  0.0006490250397751544
    x497  OBJ  3.1301797575649117
    x497  r20  -3.3281159160210655e-05
    x497  r21  -0.56679808390927
    x497  r154  -9.690250106828784e-05
    x497  r155  0.02172820934311188
    x497  r156  102.9177251274269
    x497  r237  148.6149876793363
    x498  OBJ  -485.3428963746809
    x498  r92  0.005120731924881298
    x498  r175  -1.5962444329239445e-05
    x498  r176  -428.2245575504967
    x498  r212  -1.458563450646555e-05
    x499  OBJ  -0.007007997930967476
    x499  r17  5854.469810879499
    x499  r70  -0.006181176751281745
    x499  r71  -46273.80262147438
    x499  r87  7576.282960206179
RHS
    RHS  r0  52.83087063541532
    RHS  r1  5.860048596167373e-05
    RHS  r2  138.47416334170202
    RHS  r3  -0.28492529022861407
    RHS  r4  1.3375490250655862
    RHS  r5  8223.403716222654
    RHS  r6  0.13084584244791927
    RHS  r7  1.4300405573742838
    RHS  r8  -0.06376876185817511
    RHS  r9  0.0007030711406956513
    RHS  r10  0.137203198774455
    RHS  r11  0.08262599064457567
    RHS  r12  0.1819613132897772
    RHS  r13  -20.60736033931108
    RHS  r14  634.2091597995807
    RHS  r15  -111.79689830791818
    RHS  r16  -149.07218387135853
    RHS  r17  -542.7115130821841
    RHS  r18  1.1067068094852524
    RHS  r19  0.006640857807712451
    RHS  r20  -0.00051115616992786
    RHS  r21  -7.762375348419878
    RHS  r22  6013.951063814424
    RHS  r23  0.024268717742542127
    RHS  r24  5.035983512844166
    RHS  r25  -0.03205930280275111
    RHS  r26  -0.003708369108456299
    RHS  r27  -546.810535807212
    RHS  r28  0.0006094925094760319
    RHS  r29  6615.897435185613
    RHS  r30  3.7276731215000707
    RHS  r31  4582.274958343259
    RHS  r32  0.5611294534042828
    RHS  r33  -5.2865361321910125e-05
    RHS  r34  0.026364040726639386
    RHS  r35  0.032266439725713844
    RHS  r36  6.404823482977154
    RHS  r37  -0.005390938745686308
    RHS  r38  0.0009759921235999721
    RHS  r39  35.7415667845394
    RHS  r40  24.632012563742492
    RHS  r41  5.716878572496421
    RHS  r42  0.26267170432904824
    RHS  r43  -2.091731656155672e-05
    RHS  r44  0.009734719941203441
    RHS  r45  -363.0749686143275
    RHS  r46  -0.5226177196157119
    RHS  r47  0.8673321546751219
    RHS  r48  0.503986489053593
    RHS  r49  0.001535040414761871
    RHS  r50  1058.894071260188
    RHS  r51  0.7292424301432602
    RHS  r52  0.33128197730106457
    RHS  r53  0.00021380510339594113
    RHS  r54  -0.00218221968025236
    RHS  r55  0.007816076909590913
    RHS  r56  0.00038970659088484596
    RHS  r57  -3.0509432164360226
    RHS  r58  0.05373379011689605
    RHS  r59  0.00095958905285593
    RHS  r60  367.2738652266713
    RHS  r61  0.16976151096907924
    RHS  r62  -0.0012708044619382788
    RHS  r63  175.6123835844372
    RHS  r64  6.703208064263095
    RHS  r65  1995.6284855515848
    RHS  r66  2650.601936007181
    RHS  r67  0.00010380508854380403
    RHS  r68  -0.09337383528327392
    RHS  r69  2.3667698717037786
    RHS  r70  0.0006434925100832199
    RHS  r71  5331.69236865001
    RHS  r72  -0.0011841683402353798
    RHS  r73  -39.32071893659979
    RHS  r74  4812.027248429456
    RHS  r75  1.9644757156544543
    RHS  r76  63.51788061372646
    RHS  r77  10.489248595345007
    RHS  r78  0.002497819488248074
    RHS  r79  -0.005367130734331204
    RHS  r80  -0.001745806565157804
    RHS  r81  -33.42603555304959
    RHS  r82  0.011623802445863283
    RHS  r83  2574.413137700502
    RHS  r84  0.7036455590710545
    RHS  r85  0.29392531595669635
    RHS  r86  7.605229070777478e-05
    RHS  r87  1124.0040153040347
    RHS  r88  18.70926527533902
    RHS  r89  5666.298669595986
    RHS  r90  1.2419040988335706
    RHS  r91  0.020381794448256232
    RHS  r92  -0.03796590298676949
    RHS  r93  0.0002725230034405579
    RHS  r94  114.16967225168891
    RHS  r95  1423.8747766631045
    RHS  r96  434.0092006392789
    RHS  r97  0.01380768224628598
    RHS  r98  0.004618048965893785
    RHS  r99  41.26648211996954
    RHS  r100  3988.5799850051767
    RHS  r101  233.67964620245598
    RHS  r102  5.5028366908824236
    RHS  r103  2631.6640495901897
    RHS  r104  0.0003950147135203271
    RHS  r105  0.005006541280352335
    RHS  r106  1523.6905388311388
    RHS  r107  -681.4859089377223
    RHS  r108  0.011762254138733793
    RHS  r109  2.6753654767643917
    RHS  r110  -0.217880651169972
    RHS  r111  -0.3943827271308799
    RHS  r112  -15.036703925975116
    RHS  r113  0.0002278687624901482
    RHS  r114  0.0009765619487757524
    RHS  r115  24.788892895543057
    RHS  r116  1.8976836990285895
    RHS  r117  0.00025489537787074066
    RHS  r118  -5090.623538305874
    RHS  r119  800.2395756721164
    RHS  r120  0.00015353335401445634
    RHS  r121  0.00016648670391420582
    RHS  r122  29.066965578751937
    RHS  r123  0.0005017745416525164
    RHS  r124  0.13233705680207616
    RHS  r125  -0.0003202777705636726
    RHS  r126  -44.60988126477358
    RHS  r127  0.43127043871331316
    RHS  r128  0.01763275741674229
    RHS  r129  0.1160326612669324
    RHS  r130  357.131165895192
    RHS  r131  0.10563573733074608
    RHS  r132  0.008639688645533551
    RHS  r133  473.7953857006282
    RHS  r134  0.0022330521074010283
    RHS  r135  -4.964546870086545
    RHS  r136  -462.5285350594625
    RHS  r137  -0.07005591923713045
    RHS  r138  0.523035366356113
    RHS  r139  0.02225414053692812
    RHS  r140  -3.021691628926391
    RHS  r141  -0.004446888984349937
    RHS  r142  1.4982684140690268
    RHS  r143  0.00047776950562252227
    RHS  r144  0.1754780660928048
    RHS  r145  -18.731767014947867
    RHS  r146  -0.010757964715828145
    RHS  r147  6.672733595088099
    RHS  r148  -21.600233307231598
    RHS  r149  -0.0004684618758348592
    RHS  r150  0.16254888262109127
    RHS  r151  51.344789143789264
    RHS  r152  0.7945100537330511
    RHS  r153  1.0803297047579155
    RHS  r154  0.0001822565555291362
    RHS  r155  0.002621456596641931
    RHS  r156  12.416773188666818
    RHS  r157  6566.92865221483
    RHS  r158  -0.000573616136879297
    RHS  r159  0.0010251486215629064
    RHS  r160  -0.01163770319660795
    RHS  r161  -0.001103516992872666
    RHS  r162  -0.018487041133022634
    RHS  r163  -1.485803409684053e-05
    RHS  r164  0.011360396045742663
    RHS  r165  0.5386989932802497
    RHS  r166  0.049570550419473204
    RHS  r167  0.023466240192394263
    RHS  r168  -0.001029068168103945
    RHS  r169  6.448459376879962
    RHS  r170  0.0609215827567985
    RHS  r171  0.0006257067476491946
    RHS  r172  -4.817485863790157
    RHS  r173  16.34597897728939
    RHS  r174  -0.07357302009232251
    RHS  r175  0.0013094673727406692
    RHS  r176  35129.08687112424
    RHS  r177  1.0809152108758333
    RHS  r178  0.03413885151310062
    RHS  r179  1448.4229117331347
    RHS  r180  0.38826625683634747
    RHS  r181  1.2050620793377034
    RHS  r182  10.653698323438782
    RHS  r183  151.6088427470695
    RHS  r184  6.2511611701685075
    RHS  r185  6191.310245348941
    RHS  r186  720.6416026010871
    RHS  r187  0.5408083561719115
    RHS  r188  12.085957968534915
    RHS  r189  -3199.4057310660373
    RHS  r190  0.006318627941952217
    RHS  r191  3.8268186895250187
    RHS  r192  0.25908634999201546
    RHS  r193  -1.1662275023333335
    RHS  r194  3510.6363415213773
    RHS  r195  1.1367044647965132
    RHS  r196  0.17584263332716982
    RHS  r197  0.0008427013570804826
    RHS  r198  0.0022831597385346413
    RHS  r199  -9.14179103194551
    RHS  r200  0.011836090082198639
    RHS  r201  191.1809513195119
    RHS  r202  1.104907757610086
    RHS  r203  1444.3196174850614
    RHS  r204  5.221291080679849
    RHS  r205  0.00034974679288897427
    RHS  r206  0.011701290881664066
    RHS  r207  0.011870494932485567
    RHS  r208  -0.0012194855125565588
    RHS  r209  0.30750078205440834
    RHS  r210  -45.69222127089045
    RHS  r211  -0.002054228791266205
    RHS  r212  0.000339380134631518
    RHS  r213  12022.884246263553
    RHS  r214  3728.0129576022073
    RHS  r215  -30.081883777392466
    RHS  r216  -0.011759721257907103
    RHS  r217  0.4705578143964079
    RHS  r218  0.0004014885650480728
    RHS  r219  0.8872642148567716
    RHS  r220  0.08097437850516774
    RHS  r221  96.52091868560339
    RHS  r222  3.1885280442502073
    RHS  r223  -1.2164436799729699
    RHS  r224  0.0002111835065987619
    RHS  r225  7.680844404530759e-05
    RHS  r226  0.004163605946189054
    RHS  r227  -150.35853322862917
    RHS  r228  64.16321993081081
    RHS  r229  0.001104774003073955
    RHS  r230  0.0030099849860789913
    RHS  r231  0.05545458474947335
    RHS  r232  -0.002981346594897653
    RHS  r233  42.15882559955191
    RHS  r234  0.0025536874905621298
    RHS  r235  0.01118031571590795
    RHS  r236  0.12579962030100816
    RHS  r237  -281.82980214903307
    RHS  r238  -0.15687578956788925
    RHS  r239  0.21591573189158705
    RHS  r240  27.178564837968167
    RHS  r241  0.003839082281020143
    RHS  r242  2939.037367255089
    RHS  r243  -0.0809668754987129
    RHS  r244  -0.0653182419088934
    RHS  r245  6009.040210177489
    RHS  r246  0.009618623314014491
    RHS  r247  3.537224327316854
    RHS  r248  0.0006492888188880768
    RHS  r249  0.0005027226035252945
    RHS  r250  0.07828390050636061
    RHS  r251  0.0001774982689130562
    RHS  r252  0.9206749461507726
    RHS  r253  8.98753902449709
    RHS  r254  0.0008755093662907476
    RHS  r255  0.47927592930410795
    RHS  r256  0.039599929033068096
    RHS  r257  -1.7164209890255975
    RHS  r258  0.0009733425629941534
    RHS  r259  0.0011089522005082555
    RHS  r260  94.75071378757283
    RHS  r261  2612.3949859551153
    RHS  r262  3062.0019233596277
    RHS  r263  10022.45793747152
    RHS  r264  -976.7461099546645
    RHS  r265  2400.344241924105
    RHS  r266  3.41389647959535
    RHS  r267  265.06181669742364
    RHS  r268  0.0005319965368475268
    RHS  r269  0.0008237661507429155
    RHS  r270  0.0004336899582391705
    RHS  r271  0.2318368852359792
    RHS  r272  181.12427154125984
    RHS  r273  2544.871183940008
    RHS  r274  0.0004774479919302014
    RHS  r275  0.8413112960073015
    RHS  r276  0.07623775010220411
    RHS  r277  0.00020920868187034053
    RHS  r278  -0.0014448675487398863
    RHS  r279  14323.497988643427
    RHS  r280  118.4599059730171
    RHS  r281  0.001243390476089916
    RHS  r282  0.0002297162413561868
    RHS  r283  0.30383587385767546
    RHS  r284  368.6935045975215
    RHS  r285  393.29685896944846
    RHS  r286  788.5826172321935
    RHS  r287  189.22411867322973
    RHS  r288  0.0005225031426070392
    RHS  r289  0.0016949017374404797
    RHS  r290  2.248120613559556
    RHS  r291  0.004398744571471226
    RHS  r292  -774.3196748013262
    RHS  r293  0.3625495396860711
    RHS  r294  -4645.81476866018
    RHS  r295  -5.277902641709733e-05
    RHS  r296  -5.247841314194234
    RHS  r297  462.3463406531092
    RHS  r298  2.4893584046694564e-06
    RHS  r299  0.00023930849443703874
RANGES
    RNG  r2  15.122233141015215
    RNG  r4  0.2898662101257088
    RNG  r10  0.01600191683127211
    RNG  r13  2.045936071916934
    RNG  r14  69.87163094644848
    RNG  r16  15.708941569271417
    RNG  r23  0.030451831304050506
    RNG  r28  6.532570903511337e-05
    RNG  r32  0.060592790282420816
    RNG  r42  0.02808850474036928
    RNG  r45  35.618632532491915
    RNG  r50  112.37236589477016
    RNG  r51  0.07738894701911447
    RNG  r52  0.0356249451911832
    RNG  r53  2.3078009930947664e-05
    RNG  r54  0.00021751372846304153
    RNG  r56  4.1907839835359016e-05
    RNG  r60  39.26511958197989
    RNG  r68  0.008995047880982071
    RNG  r74  515.9228368658733
    RNG  r77  1.1107556666992053
    RNG  r80  0.00017078541119947086
    RNG  r82  0.0012399568786164994
    RNG  r87  122.75900665289191
    RNG  r88  1.9920276749585781
    RNG  r89  601.0266489943533
    RNG  r93  2.89856577182614e-05
    RNG  r103  285.0571829704513
    RNG  r105  0.0005343891469022557
    RNG  r111  0.03895858896539117
    RNG  r113  2.5660592654477328e-05
    RNG  r116  0.20719139985237067
    RNG  r118  493.4861418241708
    RNG  r119  87.53234987052701
    RNG  r121  1.8065514555789684e-05
    RNG  r122  3.1363632805809765
    RNG  r123  5.334644380184045e-05
    RNG  r127  0.04692086193561329
    RNG  r134  0.00023826319099110645
    RNG  r137  0.00731381115450383
    RNG  r138  0.0767318814754947
    RNG  r139  0.0023804295505777673
    RNG  r140  0.29343322114707426
    RNG  r141  0.0004318326024809072
    RNG  r142  0.16218861814592866
    RNG  r143  5.484030179080324e-05
    RNG  r145  1.83069692314141
    RNG  r148  2.1378826641054474
    RNG  r152  0.09058264224225421
    RNG  r153  0.1149541845169133
    RNG  r156  1.5710082002188166
    RNG  r157  700.4213846260318
    RNG  r159  0.00011234927379932813
    RNG  r163  2.8303388271452875e-06
    RNG  r164  0.00121843571297248
    RNG  r169  0.709955244495319
    RNG  r171  7.218873257264767e-05
    RNG  r176  3717.4984455272643
    RNG  r177  0.12514416561981934
    RNG  r178  0.003641180964830487
    RNG  r180  0.04112668245891393
    RNG  r182  1.1422981419190315
    RNG  r193  0.11491324675680392
    RNG  r195  0.1286835413326619
    RNG  r197  8.958736254809974e-05
    RNG  r201  22.760033000672877
    RNG  r202  0.11853527729670255
    RNG  r205  5.227011207593283e-05
    RNG  r208  0.0001252711826261071
    RNG  r211  0.00020119319476284074
    RNG  r212  3.649082852504775e-05
    RNG  r213  1283.2843392790564
    RNG  r216  0.0011346722012789828
    RNG  r219  0.09569356222747372
    RNG  r222  0.33973051606399096
    RNG  r225  8.973717265305618e-06
    RNG  r228  6.842542191329812
    RNG  r231  0.007044978002897814
    RNG  r237  27.121435131498743
    RNG  r239  0.023086207817808013
    RNG  r240  2.9319221777657134
    RNG  r242  314.3299202892804
    RNG  r244  0.006404887640900303
    RNG  r247  0.3799029009555204
    RNG  r248  7.088237914221131e-05
    RNG  r249  5.370520704975367e-05
    RNG  r253  0.9795455614343389
    RNG  r254  9.392178619648103e-05
    RNG  r257  0.1661874676071844
    RNG  r258  0.00010834472934706681
    RNG  r259  0.00012868649780261882
    RNG  r260  10.503243487733641
    RNG  r263  1068.3486087494312
    RNG  r265  258.2915433179751
    RNG  r266  0.36735588757197757
    RNG  r268  5.717595835060788e-05
    RNG  r270  4.799288378183088e-05
    RNG  r280  12.608381001668818
    RNG  r282  2.511333730406695e-05
    RNG  r291  0.00046849089575616044
    RNG  r292  75.7468797237168
    RNG  r297  50.786442591722675
    RNG  r299  2.5518636316395254e-05
BOUNDS
 UP BND  x0  2.0278309470500937
 UP BND  x1  0.16745522492964698
 UP BND  x2  0.5351604925754054
 UP BND  x3  0.2671332065318759
 UP BND  x4  179.375685530494
 UP BND  x5  0.12886056011853977
 UP BND  x6  1445.3998192715974
 UP BND  x7  0.01732133224445155
 UP BND  x8  0.0395247059918413
 UP BND  x9  0.6384319310974156
 UP BND  x10  138.87236163580968
 UP BND  x11  0.8017826232039406
 UP BND  x12  286.46902806965204
 UP BND  x13  9.640008226184095
 UP BND  x14  0.004898130705283699
 UP BND  x15  0.33540607754741164
 UP BND  x16  13.51185690694892
 UP BND  x17  87.9944641470796
 UP BND  x18  4.703196792789482
 UP BND  x19  1127.6153521857473
 UP BND  x20  895.1011888667822
 UP BND  x21  39.6087985498885
 UP BND  x22  2.150436454263985
 UP BND  x23  2.3317314379272887
 UP BND  x24  323.3777354777312
 UP BND  x25  1956.3686526474987
 UP BND  x26  242.58504385552118
 UP BND  x27  0.005087319524390183
 UP BND  x28  1299.8290865632614
 UP BND  x29  0.44407482024408346
 UP BND  x30  8.16628560466829
 UP BND  x31  2.152931225876778
 UP BND  x32  3.8325361320922187
 UP BND  x33  2.410407867010512
 UP BND  x34  67.95761364763618
 UP BND  x35  0.0037548259145774874
 UP BND  x36  0.006228946871091117
 UP BND  x37  13.09846581877857
 UP BND  x38  0.0701121900986078
 UP BND  x39  7.6791611196049026
 UP BND  x40  0.1783713897921729
 UP BND  x41  0.005049037333599416
 UP BND  x42  0.02011639323034747
 UP BND  x43  5.815535992440307
 UP BND  x44  2.722267198514741
 UP BND  x45  3.6951415624985633
 UP BND  x46  0.2516761471098118
 UP BND  x47  0.011302204166508263
 UP BND  x48  840.3394195878717
 UP BND  x49  1099.787967041079
 UP BND  x50  0.15460006249682198
 UP BND  x51  918.616724931598
 UP BND  x52  0.0033435297500489895
 UP BND  x53  0.06253778736819253
 UP BND  x54  12.414329054701536
 UP BND  x55  14.55385711808488
 UP BND  x56  33.74061526016327
 UP BND  x57  0.42151427963147386
 UP BND  x58  0.01018069376488915
 UP BND  x59  0.09366816894277648
 UP BND  x60  0.013224321675253378
 UP BND  x61  39.619855887430454
 UP BND  x62  1.3525039584006173
 UP BND  x63  0.002939321420889109
 UP BND  x64  0.07358382562484665
 UP BND  x65  0.4377914595374517
 UP BND  x66  0.09594189263088183
 UP BND  x67  0.0036480393997611956
 UP BND  x68  241.82799513980967
 UP BND  x69  0.06952007951991701
 UP BND  x70  286.2989834681716
 UP BND  x71  24.192928922198853
 UP BND  x72  0.011407654267903005
 UP BND  x73  1.2747196090793138
 UP BND  x74  157.24780626513137
 UP BND  x75  347.09129204191817
 UP BND  x76  2.5476498683078277
 UP BND  x77  10.637169664639204
 UP BND  x78  10.375236256474745
 UP BND  x79  0.009588081541856306
 UP BND  x80  41.432859999987286
 UP BND  x81  17.108905746912065
 UP BND  x82  196.25525510117262
 UP BND  x83  13.817961334529562
 UP BND  x84  246.7017408960052
 UP BND  x85  1.5834857445939818
 UP BND  x86  0.14091532598641832
 UP BND  x87  186.44993243848322
 UP BND  x88  152.71757540049865
 UP BND  x89  127.87502088387771
 UP BND  x90  716.6521564506739
 UP BND  x91  1.4299820266256742
 UP BND  x92  362.1182875265655
 UP BND  x93  1033.6100057483557
 UP BND  x94  11.463321770360068
 UP BND  x95  0.043871963570995993
 UP BND  x96  79.82748091801578
 UP BND  x97  553.2069319930921
 UP BND  x98  1534.577456954444
 UP BND  x99  0.17168405572786705
 UP BND  x100  0.005170288060214951
 UP BND  x101  45.15939112736083
 UP BND  x102  0.2398295616781462
 UP BND  x103  697.303574602196
 UP BND  x104  8.629215660760043
 UP BND  x105  0.06362803899924042
 UP BND  x106  63.8581876444962
 UP BND  x107  5.113893613249674
 UP BND  x108  0.004194378245264245
 UP BND  x109  0.3230817539748864
 UP BND  x110  1.4989499733419651
 UP BND  x111  1566.5532713811926
 UP BND  x112  410.6365331458401
 UP BND  x113  50.38327294052485
 UP BND  x114  1.7319806865710925
 UP BND  x115  13.332663440699845
 UP BND  x116  0.5441070891057411
 UP BND  x117  0.002658341215442552
 UP BND  x118  17.64983140584981
 UP BND  x119  7.004131222776733
 UP BND  x120  1.2056477597877944
 UP BND  x121  49.31901222378896
 UP BND  x122  2.2623902348811438
 UP BND  x123  67.66852459610466
 UP BND  x124  1105.897637227664
 UP BND  x125  19.290978729323502
 UP BND  x126  0.16941869185392622
 UP BND  x127  246.79193146944132
 UP BND  x128  0.013225866881545407
 UP BND  x129  0.09020150358484989
 UP BND  x130  438.5684835247185
 UP BND  x131  6.724070771835617
 UP BND  x132  0.23862104074937157
 UP BND  x133  4.084266630039809
 UP BND  x134  0.04761526654247894
 UP BND  x135  0.0032445336030241453
 UP BND  x136  1.562913506239826
 UP BND  x137  0.8853796006776611
 UP BND  x138  379.3079092283409
 UP BND  x139  0.15467345135035224
 UP BND  x140  0.3195356954305658
 UP BND  x141  611.9156250882057
 UP BND  x142  0.7065314275947943
 UP BND  x143  193.88803080430867
 UP BND  x144  0.13427286151347378
 UP BND  x145  31.405702120664667
 UP BND  x146  1116.136137237412
 UP BND  x147  0.06954320334220836
 UP BND  x148  1.834947251212769
 UP BND  x149  376.6980003385356
 UP BND  x150  0.0021832152433504536
 UP BND  x151  0.010927464148426564
 UP BND  x152  2.6369651354031878
 UP BND  x153  0.11222622791327437
 UP BND  x154  0.021235888942148125
 UP BND  x155  0.46466838366802005
 UP BND  x156  0.021019851388226964
 UP BND  x157  338.2691780830396
 UP BND  x158  0.003252829564990389
 UP BND  x159  0.0646465114888149
 UP BND  x160  0.7465802452827792
 UP BND  x161  0.01117442665405902
 UP BND  x162  2.9609087444944513
 UP BND  x163  0.7527250769800559
 UP BND  x164  0.8372338900128949
 UP BND  x165  0.13364619333819244
 UP BND  x166  348.7101203054434
 UP BND  x167  0.04565496304618284
 UP BND  x168  0.01772918633768974
 UP BND  x169  1137.746870141832
 UP BND  x170  10.939681149678048
 UP BND  x171  0.20032680389483057
 UP BND  x172  1057.2702190281043
 UP BND  x173  0.565835606916634
 UP BND  x174  0.01410697431325488
 UP BND  x175  0.026201699631035517
 UP BND  x176  24.83939565812547
 UP BND  x177  290.1719170929069
 UP BND  x178  868.9876314572277
 UP BND  x179  77.81414044881657
 UP BND  x180  6.746690575171374
 UP BND  x181  232.57079765928808
 UP BND  x182  24.01059419906666
 UP BND  x183  2.2954385122906804
 UP BND  x184  0.6801095760193115
 UP BND  x185  53.20388225794301
 UP BND  x186  33.84808773355844
 UP BND  x187  0.004356585755166818
 UP BND  x188  0.3085364822859536
 UP BND  x189  58.76938500802255
 UP BND  x190  0.02632080548431435
 UP BND  x191  0.007312056061202352
 UP BND  x192  1.1299769202116585
 UP BND  x193  0.4409102380850936
 UP BND  x194  0.005289869341906609
 UP BND  x195  0.003715075804818171
 UP BND  x196  23.856915295065058
 UP BND  x197  157.41707221365198
 UP BND  x198  120.9828722595323
 UP BND  x199  3.428099049830498
 UP BND  x200  1389.4655386180293
 UP BND  x201  0.07700842741560487
 UP BND  x202  0.21373522571482767
 UP BND  x203  0.1404376352326673
 UP BND  x204  0.039018091864325234
 UP BND  x205  0.011039590887271512
 UP BND  x206  0.018250910891011402
 UP BND  x207  0.007828699727768094
 UP BND  x208  5.313913487695058
 UP BND  x209  0.3208071243502303
 UP BND  x210  111.92425428986306
 UP BND  x211  86.08680370023872
 UP BND  x212  1.3659360300612775
 UP BND  x213  2.047241332039243
 UP BND  x214  677.39347823345
 UP BND  x215  0.0021996559114394777
 UP BND  x216  0.01138356536838057
 UP BND  x217  0.007560863101757448
 UP BND  x218  0.004638378481467295
 UP BND  x219  5.715084033041196
 UP BND  x220  10.643799659723783
 UP BND  x221  1131.7540362659756
 UP BND  x222  0.5889638458696413
 UP BND  x223  0.038561262941641104
 UP BND  x224  0.6476299912139637
 UP BND  x225  1671.736637842327
 UP BND  x226  7.1770482782495355
 UP BND  x227  59.22268686016421
 UP BND  x228  26.703236856116003
 UP BND  x229  0.21720748743670268
 UP BND  x230  6.075280372403007
 UP BND  x231  0.25761920385212017
 UP BND  x232  799.4773412178345
 UP BND  x233  997.2206080353999
 UP BND  x234  0.09957991838133229
 UP BND  x235  0.006586245379660629
 UP BND  x236  0.019180666177579218
 UP BND  x237  449.85046862731343
 UP BND  x238  2.8228743163019874
 UP BND  x239  20.076980701362842
 UP BND  x240  4.140316893261069
 UP BND  x241  0.007663279185900187
 UP BND  x242  54.0770523732402
 UP BND  x243  0.007822746353363712
 UP BND  x244  0.018536487782526354
 UP BND  x245  106.99932549819135
 UP BND  x246  0.02761074073827202
 UP BND  x247  0.00239454091254074
 UP BND  x248  0.01757480418750021
 UP BND  x249  604.1912529960812
 UP BND  x250  202.70909916421866
 UP BND  x251  4.088172000550311
 UP BND  x252  37.994897400320845
 UP BND  x253  0.005511871892982766
 UP BND  x254  996.1221757675795
 UP BND  x255  0.03748837285913793
 UP BND  x256  0.010555001899235965
 UP BND  x257  0.14529610658382242
 UP BND  x258  656.5383515183331
 UP BND  x259  0.0027685781876410033
 UP BND  x260  154.29065501197525
 UP BND  x261  193.10183602073946
 UP BND  x262  278.35415703736606
 UP BND  x263  0.007477827382506725
 UP BND  x264  43.405917926454364
 UP BND  x265  0.3325128723801397
 UP BND  x266  473.45785702695974
 UP BND  x267  0.2275340132325847
 UP BND  x268  148.40564142535263
 UP BND  x269  268.4393463155786
 UP BND  x270  4.459222088978317
 UP BND  x271  6.5314510774095
 UP BND  x272  0.03996024841469882
 UP BND  x273  4.455838109464954
 UP BND  x274  464.4696679120042
 UP BND  x275  0.09770100660628402
 UP BND  x276  0.2008132869858512
 UP BND  x277  0.4152957058621761
 UP BND  x278  0.004664059601511117
 UP BND  x279  30.786615439487445
 UP BND  x280  0.002140073153476404
 UP BND  x281  0.015510991363980521
 UP BND  x282  0.015351547091899675
 UP BND  x283  0.009212570124627565
 UP BND  x284  0.08779911717599037
 UP BND  x285  19.30424195905222
 UP BND  x286  0.6424126469739342
 UP BND  x287  0.06288086197393877
 UP BND  x288  759.9932744140237
 UP BND  x289  849.4697670954628
 UP BND  x290  3.1554509974697638
 UP BND  x291  8.941091043476211
 UP BND  x292  0.0027796954677303336
 UP BND  x293  0.023793311382044772
 UP BND  x294  54.702364264601194
 UP BND  x295  0.01563519131189232
 UP BND  x296  882.3224375402949
 UP BND  x297  398.00962269436343
 UP BND  x298  2.1420557913994647
 UP BND  x299  0.033914214139146574
 UP BND  x300  31.631147143923393
 UP BND  x301  22.589643668545968
 UP BND  x302  8.515809859416649
 UP BND  x303  59.10937567974137
 UP BND  x304  1127.067844015141
 UP BND  x305  0.1658142722258468
 UP BND  x306  0.49908439513012604
 UP BND  x307  0.005560218732866713
 UP BND  x308  406.21866380412445
 UP BND  x309  437.5815048776974
 UP BND  x310  0.0020704125711801906
 UP BND  x311  0.023661839348835784
 UP BND  x312  8.826810707729292
 UP BND  x313  225.14811986038558
 UP BND  x314  263.6177692471918
 UP BND  x315  0.0141574191734679
 UP BND  x316  434.9359761606416
 UP BND  x317  0.15730901049802917
 UP BND  x318  0.04174916383572904
 UP BND  x319  122.44812278788275
 UP BND  x320  207.77417019419246
 UP BND  x321  0.21803445582583825
 UP BND  x322  145.82060540235878
 UP BND  x323  2.96498672821938
 UP BND  x324  9.839373034958008
 UP BND  x325  2.41253470761329
 UP BND  x326  0.004889082459246533
 UP BND  x327  1765.089851018757
 UP BND  x328  2.4788698922066317
 UP BND  x329  15.07499420180733
 UP BND  x330  0.09291108231246038
 UP BND  x331  0.1098831651792896
 UP BND  x332  0.02358657528453442
 UP BND  x333  0.34193802263148854
 UP BND  x334  8.050607462802544
 UP BND  x335  0.0037603602141243146
 UP BND  x336  0.023804259504183963
 UP BND  x337  4.399054761649752
 UP BND  x338  2.2433867274930592
 UP BND  x339  12.677245494445723
 UP BND  x340  0.049563339694319
 UP BND  x341  0.00364668183460022
 UP BND  x342  36.311911673173086
 UP BND  x343  8.842928643248335
 UP BND  x344  9.210463101496927
 UP BND  x345  0.74205654582554
 UP BND  x346  69.83487034354239
 UP BND  x347  167.93029600963033
 UP BND  x348  0.00821440170139721
 UP BND  x349  1133.935037996112
 UP BND  x350  1182.9315938347765
 UP BND  x351  0.005310711885636996
 UP BND  x352  40.52359785167406
 UP BND  x353  57.19547010359315
 UP BND  x354  646.9445300895353
 UP BND  x355  128.1578110656266
 UP BND  x356  5.040563009453715
 UP BND  x357  0.002336200698142536
 UP BND  x358  340.7516576906388
 UP BND  x359  0.0036919439743327647
 UP BND  x360  4.56988936376341
 UP BND  x361  147.67499851323151
 UP BND  x362  292.3533744304804
 UP BND  x363  0.04068985064018596
 UP BND  x364  0.002787855770315487
 UP BND  x365  133.24979526863657
 UP BND  x366  6.374991812301103
 UP BND  x367  0.046930422755229725
 UP BND  x368  595.410455358163
 UP BND  x369  0.9771155049078601
 UP BND  x370  0.09060949827875554
 UP BND  x371  0.012800910204311717
 UP BND  x372  0.13154271741341567
 UP BND  x373  32.70939423434121
 UP BND  x374  821.8421174994539
 UP BND  x375  50.67139743531916
 UP BND  x376  1284.991732621424
 UP BND  x377  1.2442873340340115
 UP BND  x378  0.031831533507538964
 UP BND  x379  0.17874606176480434
 UP BND  x380  0.4492821059448702
 UP BND  x381  2.5656235994694967
 UP BND  x382  0.003732615421839212
 UP BND  x383  543.8018405661211
 UP BND  x384  0.0204331631114809
 UP BND  x385  699.2390438355017
 UP BND  x386  6.909261146577963
 UP BND  x387  0.007313570526469352
 UP BND  x388  470.08670971288825
 UP BND  x389  150.86021425992092
 UP BND  x390  0.527879026720471
 UP BND  x391  0.06242959021724512
 UP BND  x392  0.011973691658705734
 UP BND  x393  3.0445898846062205
 UP BND  x394  0.0026691567030104665
 UP BND  x395  0.26432275901278135
 UP BND  x396  277.555461968838
 UP BND  x397  0.05323982269849828
 UP BND  x398  0.003779554206390303
 UP BND  x399  464.11060102784893
 UP BND  x400  0.06502796090014733
 UP BND  x401  0.010696944215479481
 UP BND  x402  1.0186435955385271
 UP BND  x403  139.12795693725596
 UP BND  x404  0.002770934279421958
 UP BND  x405  7.501602128973818
 UP BND  x406  14.085061036762534
 UP BND  x407  46.38987312056807
 UP BND  x408  0.5281534737301298
 UP BND  x409  15.18367017162212
 UP BND  x410  1.2948428523852749
 UP BND  x411  528.8701238196502
 UP BND  x412  279.2846419089669
 UP BND  x413  0.03373007115267252
 UP BND  x414  0.0992479364720767
 UP BND  x415  0.009189257377617565
 UP BND  x416  0.025796824017797922
 UP BND  x417  0.06475675747722327
 UP BND  x418  472.26155966098435
 UP BND  x419  3.048675864099809
 UP BND  x420  0.00868798395237886
 UP BND  x421  5.13192989358458
 UP BND  x422  0.4352799248557706
 UP BND  x423  0.0020650631279373528
 UP BND  x424  2.2004154839180856
 UP BND  x425  0.4454923798017372
 UP BND  x426  0.07870946994726843
 UP BND  x427  880.8355816374145
 UP BND  x428  0.006684121712598673
 UP BND  x429  0.03500175151888765
 UP BND  x430  0.002352613534501422
 UP BND  x431  0.012361334017578975
 UP BND  x432  0.003910203733336611
 UP BND  x433  0.005252561173976151
 UP BND  x434  193.11337242539673
 UP BND  x435  166.69263650115525
 UP BND  x436  25.077362570068313
 UP BND  x437  7.818168589553368
 UP BND  x438  869.5466719079612
 UP BND  x439  0.005194880286035341
 UP BND  x440  0.6401880993589939
 UP BND  x441  0.04864639244745915
 UP BND  x442  2.068068358155173
 UP BND  x443  215.46832844013133
 UP BND  x444  6.937548106641593
 UP BND  x445  1225.1823862963709
 UP BND  x446  23.214066465108186
 UP BND  x447  0.056305057022057375
 UP BND  x448  487.4331808636952
 UP BND  x449  0.07475693485294356
 UP BND  x450  610.3911447270252
 UP BND  x451  0.34197123121631223
 UP BND  x452  213.51162067430286
 UP BND  x453  0.28497140028695794
 UP BND  x454  0.003009658823700273
 UP BND  x455  58.66627476744479
 UP BND  x456  1.1605763404942342
 UP BND  x457  0.10142688599260072
 UP BND  x458  72.31443572646997
 UP BND  x459  7.462862966090027
 UP BND  x460  7.116143981409273
 UP BND  x461  0.026429589920296453
 UP BND  x462  2.2699565634333245
 UP BND  x463  204.72281430715796
 UP BND  x464  810.34460601697
 UP BND  x465  1.5141180833197918
 UP BND  x466  734.6431545732362
 UP BND  x467  25.24745426495685
 UP BND  x468  101.6017481326796
 UP BND  x469  5.216343482985304
 UP BND  x470  1387.8249675171355
 UP BND  x471  0.013547429617057646
 UP BND  x472  1207.7544341036541
 UP BND  x473  0.016884808773724412
 UP BND  x474  0.16765705913884987
 UP BND  x475  0.08020919867414121
 UP BND  x476  328.3666277663674
 UP BND  x477  416.3170050123383
 UP BND  x478  0.015743167183093845
 UP BND  x479  1459.2636223477596
 UP BND  x480  168.05092088642803
 UP BND  x481  0.0026155401669300843
 UP BND  x482  16.015880471919097
 UP BND  x483  3.170210920904827
 UP BND  x484  1.6857809832066382
 UP BND  x485  0.011538852543825615
 UP BND  x486  269.4041425038851
 UP BND  x487  7.660507014642275
 UP BND  x488  0.28013509960815036
 UP BND  x489  0.0031611526907854405
 UP BND  x490  91.41255777652442
 UP BND  x491  11.168366681613916
 UP BND  x492  0.003960658298918851
 UP BND  x493  208.85958971452894
 UP BND  x494  7.014904447894936
 UP BND  x495  33.99114663817037
 UP BND  x496  1.0381493308325256
 UP BND  x497  1.2769149035690819
 UP BND  x498  36.6925474003842
 UP BND  x499  0.1479081670877629
ENDATA
