NAME transport_40x60
ROWS
 N  OBJ
 L  sup_0
 L  sup_1
 L  sup_2
 L  sup_3
 L  sup_4
 L  sup_5
 L  sup_6
 L  sup_7
 L  sup_8
 L  sup_9
 L  sup_10
 L  sup_11
 L  sup_12
 L  sup_13
 L  sup_14
 L  sup_15
 L  sup_16
 L  sup_17
 L  sup_18
 L  sup_19
 L  sup_20
 L  sup_21
 L  sup_22
 L  sup_23
 L  sup_24
 L  sup_25
 L  sup_26
 L  sup_27
 L  sup_28
 L  sup_29
 L  sup_30
 L  sup_31
 L  sup_32
 L  sup_33
 L  sup_34
 L  sup_35
 L  sup_36
 L  sup_37
 L  sup_38
 L  sup_39
 G  dem_0
 G  dem_1
 G  dem_2
 G  dem_3
 G  dem_4
 G  dem_5
 G  dem_6
 G  dem_7
 G  dem_8
 G  dem_9
 G  dem_10
 G  dem_11
 G  dem_12
 G  dem_13
 G  dem_14
 G  dem_15
 G  dem_16
 G  dem_17
 G  dem_18
 G  dem_19
 G  dem_20
 G  dem_21
 G  dem_22
 G  dem_23
 G  dem_24
 G  dem_25
 G  dem_26
 G  dem_27
 G  dem_28
 G  dem_29
 G  dem_30
 G  dem_31
 G  dem_32
 G  dem_33
 G  dem_34
 G  dem_35
 G  dem_36
 G  dem_37
 G  dem_38
 G  dem_39
 G  dem_40
 G  dem_41
 G  dem_42
 G  dem_43
 G  dem_44
 G  dem_45
 G  dem_46
 G  dem_47
 G  dem_48
 G  dem_49
 G  dem_50
 G  dem_51
 G  dem_52
 G  dem_53
 G  dem_54
 G  dem_55
 G  dem_56
 G  dem_57
 G  dem_58
 G  dem_59
COLUMNS
    x_0_0  OBJ  20.0
    x_0_0  sup_0  1.0
    x_0_0  dem_0  1.0
    x_0_1  OBJ  23.0
    x_0_1  sup_0  1.0
    x_0_1  dem_1  1.0
    x_0_2  OBJ  26.0
    x_0_2  sup_0  1.0
    x_0_2  dem_2  1.0
    x_0_3  OBJ  7.0
    x_0_3  sup_0  1.0
    x_0_3  dem_3  1.0
    x_0_4  OBJ  26.0
    x_0_4  sup_0  1.0
    x_0_4  dem_4  1.0
    x_0_5  OBJ  25.0
    x_0_5  sup_0  1.0
    x_0_5  dem_5  1.0
    x_0_6  OBJ  10.0
    x_0_6  sup_0  1.0
    x_0_6  dem_6  1.0
    x_0_7  OBJ  2.0
    x_0_7  sup_0  1.0
    x_0_7  dem_7  1.0
    x_0_8  OBJ  23.0
    x_0_8  sup_0  1.0
    x_0_8  dem_8  1.0
    x_0_9  OBJ  24.0
    x_0_9  sup_0  1.0
    x_0_9  dem_9  1.0
    x_0_10  OBJ  14.0
    x_0_10  sup_0  1.0
    x_0_10  dem_10  1.0
    x_0_11  OBJ  5.0
    x_0_11  sup_0  1.0
    x_0_11  dem_11  1.0
    x_0_12  OBJ  5.0
    x_0_12  sup_0  1.0
    x_0_12  dem_12  1.0
    x_0_13  OBJ  11.0
    x_0_13  sup_0  1.0
    x_0_13  dem_13  1.0
    x_0_14  OBJ  22.0
    x_0_14  sup_0  1.0
    x_0_14  dem_14  1.0
    x_0_15  OBJ  10.0
    x_0_15  sup_0  1.0
    x_0_15  dem_15  1.0
    x_0_16  OBJ  1.0
    x_0_16  sup_0  1.0
    x_0_16  dem_16  1.0
    x_0_17  OBJ  21.0
    x_0_17  sup_0  1.0
    x_0_17  dem_17  1.0
    x_0_18  OBJ  22.0
    x_0_18  sup_0  1.0
    x_0_18  dem_18  1.0
    x_0_19  OBJ  6.0
    x_0_19  sup_0  1.0
    x_0_19  dem_19  1.0
    x_0_20  OBJ  17.0
    x_0_20  sup_0  1.0
    x_0_20  dem_20  1.0
    x_0_21  OBJ  12.0
    x_0_21  sup_0  1.0
    x_0_21  dem_21  1.0
    x_0_22  OBJ  15.0
    x_0_22  sup_0  1.0
    x_0_22  dem_22  1.0
    x_0_23  OBJ  1.0
    x_0_23  sup_0  1.0
    x_0_23  dem_23  1.0
    x_0_24  OBJ  19.0
    x_0_24  sup_0  1.0
    x_0_24  dem_24  1.0
    x_0_25  OBJ  8.0
    x_0_25  sup_0  1.0
    x_0_25  dem_25  1.0
    x_0_26  OBJ  17.0
    x_0_26  sup_0  1.0
    x_0_26  dem_26  1.0
    x_0_27  OBJ  13.0
    x_0_27  sup_0  1.0
    x_0_27  dem_27  1.0
    x_0_28  OBJ  18.0
    x_0_28  sup_0  1.0
    x_0_28  dem_28  1.0
    x_0_29  OBJ  4.0
    x_0_29  sup_0  1.0
    x_0_29  dem_29  1.0
    x_0_30  OBJ  11.0
    x_0_30  sup_0  1.0
    x_0_30  dem_30  1.0
    x_0_31  OBJ  19.0
    x_0_31  sup_0  1.0
    x_0_31  dem_31  1.0
    x_0_32  OBJ  23.0
    x_0_32  sup_0  1.0
    x_0_32  dem_32  1.0
    x_0_33  OBJ  12.0
    x_0_33  sup_0  1.0
    x_0_33  dem_33  1.0
    x_0_34  OBJ  1.0
    x_0_34  sup_0  1.0
    x_0_34  dem_34  1.0
    x_0_35  OBJ  22.0
    x_0_35  sup_0  1.0
    x_0_35  dem_35  1.0
    x_0_36  OBJ  15.0
    x_0_36  sup_0  1.0
    x_0_36  dem_36  1.0
    x_0_37  OBJ  19.0
    x_0_37  sup_0  1.0
    x_0_37  dem_37  1.0
    x_0_38  OBJ  5.0
    x_0_38  sup_0  1.0
    x_0_38  dem_38  1.0
    x_0_39  OBJ  13.0
    x_0_39  sup_0  1.0
    x_0_39  dem_39  1.0
    x_0_40  OBJ  26.0
    x_0_40  sup_0  1.0
    x_0_40  dem_40  1.0
    x_0_41  OBJ  26.0
    x_0_41  sup_0  1.0
    x_0_41  dem_41  1.0
    x_0_42  OBJ  10.0
    x_0_42  sup_0  1.0
    x_0_42  dem_42  1.0
    x_0_43  OBJ  19.0
    x_0_43  sup_0  1.0
    x_0_43  dem_43  1.0
    x_0_44  OBJ  3.0
    x_0_44  sup_0  1.0
    x_0_44  dem_44  1.0
    x_0_45  OBJ  24.0
    x_0_45  sup_0  1.0
    x_0_45  dem_45  1.0
    x_0_46  OBJ  8.0
    x_0_46  sup_0  1.0
    x_0_46  dem_46  1.0
    x_0_47  OBJ  10.0
    x_0_47  sup_0  1.0
    x_0_47  dem_47  1.0
    x_0_48  OBJ  29.0
    x_0_48  sup_0  1.0
    x_0_48  dem_48  1.0
    x_0_49  OBJ  16.0
    x_0_49  sup_0  1.0
    x_0_49  dem_49  1.0
    x_0_50  OBJ  26.0
    x_0_50  sup_0  1.0
    x_0_50  dem_50  1.0
    x_0_51  OBJ  6.0
    x_0_51  sup_0  1.0
    x_0_51  dem_51  1.0
    x_0_52  OBJ  22.0
    x_0_52  sup_0  1.0
    x_0_52  dem_52  1.0
    x_0_53  OBJ  29.0
    x_0_53  sup_0  1.0
    x_0_53  dem_53  1.0
    x_0_54  OBJ  3.0
    x_0_54  sup_0  1.0
    x_0_54  dem_54  1.0
    x_0_55  OBJ  8.0
    x_0_55  sup_0  1.0
    x_0_55  dem_55  1.0
    x_0_56  OBJ  5.0
    x_0_56  sup_0  1.0
    x_0_56  dem_56  1.0
    x_0_57  OBJ  8.0
    x_0_57  sup_0  1.0
    x_0_57  dem_57  1.0
    x_0_58  OBJ  10.0
    x_0_58  sup_0  1.0
    x_0_58  dem_58  1.0
    x_0_59  OBJ  3.0
    x_0_59  sup_0  1.0
    x_0_59  dem_59  1.0
    x_1_0  OBJ  27.0
    x_1_0  sup_1  1.0
    x_1_0  dem_0  1.0
    x_1_1  OBJ  8.0
    x_1_1  sup_1  1.0
    x_1_1  dem_1  1.0
    x_1_2  OBJ  27.0
    x_1_2  sup_1  1.0
    x_1_2  dem_2  1.0
    x_1_3  OBJ  23.0
    x_1_3  sup_1  1.0
    x_1_3  dem_3  1.0
    x_1_4  OBJ  6.0
    x_1_4  sup_1  1.0
    x_1_4  dem_4  1.0
    x_1_5  OBJ  21.0
    x_1_5  sup_1  1.0
    x_1_5  dem_5  1.0
    x_1_6  OBJ  23.0
    x_1_6  sup_1  1.0
    x_1_6  dem_6  1.0
    x_1_7  OBJ  4.0
    x_1_7  sup_1  1.0
    x_1_7  dem_7  1.0
    x_1_8  OBJ  4.0
    x_1_8  sup_1  1.0
    x_1_8  dem_8  1.0
    x_1_9  OBJ  11.0
    x_1_9  sup_1  1.0
    x_1_9  dem_9  1.0
    x_1_10  OBJ  2.0
    x_1_10  sup_1  1.0
    x_1_10  dem_10  1.0
    x_1_11  OBJ  13.0
    x_1_11  sup_1  1.0
    x_1_11  dem_11  1.0
    x_1_12  OBJ  14.0
    x_1_12  sup_1  1.0
    x_1_12  dem_12  1.0
    x_1_13  OBJ  20.0
    x_1_13  sup_1  1.0
    x_1_13  dem_13  1.0
    x_1_14  OBJ  17.0
    x_1_14  sup_1  1.0
    x_1_14  dem_14  1.0
    x_1_15  OBJ  14.0
    x_1_15  sup_1  1.0
    x_1_15  dem_15  1.0
    x_1_16  OBJ  7.0
    x_1_16  sup_1  1.0
    x_1_16  dem_16  1.0
    x_1_17  OBJ  18.0
    x_1_17  sup_1  1.0
    x_1_17  dem_17  1.0
    x_1_18  OBJ  14.0
    x_1_18  sup_1  1.0
    x_1_18  dem_18  1.0
    x_1_19  OBJ  25.0
    x_1_19  sup_1  1.0
    x_1_19  dem_19  1.0
    x_1_20  OBJ  21.0
    x_1_20  sup_1  1.0
    x_1_20  dem_20  1.0
    x_1_21  OBJ  22.0
    x_1_21  sup_1  1.0
    x_1_21  dem_21  1.0
    x_1_22  OBJ  17.0
    x_1_22  sup_1  1.0
    x_1_22  dem_22  1.0
    x_1_23  OBJ  11.0
    x_1_23  sup_1  1.0
    x_1_23  dem_23  1.0
    x_1_24  OBJ  9.0
    x_1_24  sup_1  1.0
    x_1_24  dem_24  1.0
    x_1_25  OBJ  14.0
    x_1_25  sup_1  1.0
    x_1_25  dem_25  1.0
    x_1_26  OBJ  17.0
    x_1_26  sup_1  1.0
    x_1_26  dem_26  1.0
    x_1_27  OBJ  11.0
    x_1_27  sup_1  1.0
    x_1_27  dem_27  1.0
    x_1_28  OBJ  5.0
    x_1_28  sup_1  1.0
    x_1_28  dem_28  1.0
    x_1_29  OBJ  4.0
    x_1_29  sup_1  1.0
    x_1_29  dem_29  1.0
    x_1_30  OBJ  2.0
    x_1_30  sup_1  1.0
    x_1_30  dem_30  1.0
    x_1_31  OBJ  6.0
    x_1_31  sup_1  1.0
    x_1_31  dem_31  1.0
    x_1_32  OBJ  12.0
    x_1_32  sup_1  1.0
    x_1_32  dem_32  1.0
    x_1_33  OBJ  9.0
    x_1_33  sup_1  1.0
    x_1_33  dem_33  1.0
    x_1_34  OBJ  6.0
    x_1_34  sup_1  1.0
    x_1_34  dem_34  1.0
    x_1_35  OBJ  10.0
    x_1_35  sup_1  1.0
    x_1_35  dem_35  1.0
    x_1_36  OBJ  21.0
    x_1_36  sup_1  1.0
    x_1_36  dem_36  1.0
    x_1_37  OBJ  10.0
    x_1_37  sup_1  1.0
    x_1_37  dem_37  1.0
    x_1_38  OBJ  27.0
    x_1_38  sup_1  1.0
    x_1_38  dem_38  1.0
    x_1_39  OBJ  17.0
    x_1_39  sup_1  1.0
    x_1_39  dem_39  1.0
    x_1_40  OBJ  4.0
    x_1_40  sup_1  1.0
    x_1_40  dem_40  1.0
    x_1_41  OBJ  29.0
    x_1_41  sup_1  1.0
    x_1_41  dem_41  1.0
    x_1_42  OBJ  26.0
    x_1_42  sup_1  1.0
    x_1_42  dem_42  1.0
    x_1_43  OBJ  23.0
    x_1_43  sup_1  1.0
    x_1_43  dem_43  1.0
    x_1_44  OBJ  5.0
    x_1_44  sup_1  1.0
    x_1_44  dem_44  1.0
    x_1_45  OBJ  23.0
    x_1_45  sup_1  1.0
    x_1_45  dem_45  1.0
    x_1_46  OBJ  21.0
    x_1_46  sup_1  1.0
    x_1_46  dem_46  1.0
    x_1_47  OBJ  23.0
    x_1_47  sup_1  1.0
    x_1_47  dem_47  1.0
    x_1_48  OBJ  21.0
    x_1_48  sup_1  1.0
    x_1_48  dem_48  1.0
    x_1_49  OBJ  18.0
    x_1_49  sup_1  1.0
    x_1_49  dem_49  1.0
    x_1_50  OBJ  10.0
    x_1_50  sup_1  1.0
    x_1_50  dem_50  1.0
    x_1_51  OBJ  27.0
    x_1_51  sup_1  1.0
    x_1_51  dem_51  1.0
    x_1_52  OBJ  29.0
    x_1_52  sup_1  1.0
    x_1_52  dem_52  1.0
    x_1_53  OBJ  20.0
    x_1_53  sup_1  1.0
    x_1_53  dem_53  1.0
    x_1_54  OBJ  11.0
    x_1_54  sup_1  1.0
    x_1_54  dem_54  1.0
    x_1_55  OBJ  15.0
    x_1_55  sup_1  1.0
    x_1_55  dem_55  1.0
    x_1_56  OBJ  17.0
    x_1_56  sup_1  1.0
    x_1_56  dem_56  1.0
    x_1_57  OBJ  3.0
    x_1_57  sup_1  1.0
    x_1_57  dem_57  1.0
    x_1_58  OBJ  3.0
    x_1_58  sup_1  1.0
    x_1_58  dem_58  1.0
    x_1_59  OBJ  15.0
    x_1_59  sup_1  1.0
    x_1_59  dem_59  1.0
    x_2_0  OBJ  17.0
    x_2_0  sup_2  1.0
    x_2_0  dem_0  1.0
    x_2_1  OBJ  7.0
    x_2_1  sup_2  1.0
    x_2_1  dem_1  1.0
    x_2_2  OBJ  8.0
    x_2_2  sup_2  1.0
    x_2_2  dem_2  1.0
    x_2_3  OBJ  4.0
    x_2_3  sup_2  1.0
    x_2_3  dem_3  1.0
    x_2_4  OBJ  27.0
    x_2_4  sup_2  1.0
    x_2_4  dem_4  1.0
    x_2_5  OBJ  15.0
    x_2_5  sup_2  1.0
    x_2_5  dem_5  1.0
    x_2_6  OBJ  8.0
    x_2_6  sup_2  1.0
    x_2_6  dem_6  1.0
    x_2_7  OBJ  23.0
    x_2_7  sup_2  1.0
    x_2_7  dem_7  1.0
    x_2_8  OBJ  28.0
    x_2_8  sup_2  1.0
    x_2_8  dem_8  1.0
    x_2_9  OBJ  9.0
    x_2_9  sup_2  1.0
    x_2_9  dem_9  1.0
    x_2_10  OBJ  27.0
    x_2_10  sup_2  1.0
    x_2_10  dem_10  1.0
    x_2_11  OBJ  23.0
    x_2_11  sup_2  1.0
    x_2_11  dem_11  1.0
    x_2_12  OBJ  24.0
    x_2_12  sup_2  1.0
    x_2_12  dem_12  1.0
    x_2_13  OBJ  16.0
    x_2_13  sup_2  1.0
    x_2_13  dem_13  1.0
    x_2_14  OBJ  27.0
    x_2_14  sup_2  1.0
    x_2_14  dem_14  1.0
    x_2_15  OBJ  5.0
    x_2_15  sup_2  1.0
    x_2_15  dem_15  1.0
    x_2_16  OBJ  3.0
    x_2_16  sup_2  1.0
    x_2_16  dem_16  1.0
    x_2_17  OBJ  28.0
    x_2_17  sup_2  1.0
    x_2_17  dem_17  1.0
    x_2_18  OBJ  15.0
    x_2_18  sup_2  1.0
    x_2_18  dem_18  1.0
    x_2_19  OBJ  12.0
    x_2_19  sup_2  1.0
    x_2_19  dem_19  1.0
    x_2_20  OBJ  22.0
    x_2_20  sup_2  1.0
    x_2_20  dem_20  1.0
    x_2_21  OBJ  9.0
    x_2_21  sup_2  1.0
    x_2_21  dem_21  1.0
    x_2_22  OBJ  19.0
    x_2_22  sup_2  1.0
    x_2_22  dem_22  1.0
    x_2_23  OBJ  25.0
    x_2_23  sup_2  1.0
    x_2_23  dem_23  1.0
    x_2_24  OBJ  24.0
    x_2_24  sup_2  1.0
    x_2_24  dem_24  1.0
    x_2_25  OBJ  4.0
    x_2_25  sup_2  1.0
    x_2_25  dem_25  1.0
    x_2_26  OBJ  29.0
    x_2_26  sup_2  1.0
    x_2_26  dem_26  1.0
    x_2_27  OBJ  22.0
    x_2_27  sup_2  1.0
    x_2_27  dem_27  1.0
    x_2_28  OBJ  21.0
    x_2_28  sup_2  1.0
    x_2_28  dem_28  1.0
    x_2_29  OBJ  6.0
    x_2_29  sup_2  1.0
    x_2_29  dem_29  1.0
    x_2_30  OBJ  27.0
    x_2_30  sup_2  1.0
    x_2_30  dem_30  1.0
    x_2_31  OBJ  12.0
    x_2_31  sup_2  1.0
    x_2_31  dem_31  1.0
    x_2_32  OBJ  28.0
    x_2_32  sup_2  1.0
    x_2_32  dem_32  1.0
    x_2_33  OBJ  7.0
    x_2_33  sup_2  1.0
    x_2_33  dem_33  1.0
    x_2_34  OBJ  3.0
    x_2_34  sup_2  1.0
    x_2_34  dem_34  1.0
    x_2_35  OBJ  25.0
    x_2_35  sup_2  1.0
    x_2_35  dem_35  1.0
    x_2_36  OBJ  17.0
    x_2_36  sup_2  1.0
    x_2_36  dem_36  1.0
    x_2_37  OBJ  12.0
    x_2_37  sup_2  1.0
    x_2_37  dem_37  1.0
    x_2_38  OBJ  29.0
    x_2_38  sup_2  1.0
    x_2_38  dem_38  1.0
    x_2_39  OBJ  29.0
    x_2_39  sup_2  1.0
    x_2_39  dem_39  1.0
    x_2_40  OBJ  1.0
    x_2_40  sup_2  1.0
    x_2_40  dem_40  1.0
    x_2_41  OBJ  19.0
    x_2_41  sup_2  1.0
    x_2_41  dem_41  1.0
    x_2_42  OBJ  24.0
    x_2_42  sup_2  1.0
    x_2_42  dem_42  1.0
    x_2_43  OBJ  21.0
    x_2_43  sup_2  1.0
    x_2_43  dem_43  1.0
    x_2_44  OBJ  18.0
    x_2_44  sup_2  1.0
    x_2_44  dem_44  1.0
    x_2_45  OBJ  16.0
    x_2_45  sup_2  1.0
    x_2_45  dem_45  1.0
    x_2_46  OBJ  16.0
    x_2_46  sup_2  1.0
    x_2_46  dem_46  1.0
    x_2_47  OBJ  9.0
    x_2_47  sup_2  1.0
    x_2_47  dem_47  1.0
    x_2_48  OBJ  5.0
    x_2_48  sup_2  1.0
    x_2_48  dem_48  1.0
    x_2_49  OBJ  12.0
    x_2_49  sup_2  1.0
    x_2_49  dem_49  1.0
    x_2_50  OBJ  21.0
    x_2_50  sup_2  1.0
    x_2_50  dem_50  1.0
    x_2_51  OBJ  28.0
    x_2_51  sup_2  1.0
    x_2_51  dem_51  1.0
    x_2_52  OBJ  28.0
    x_2_52  sup_2  1.0
    x_2_52  dem_52  1.0
    x_2_53  OBJ  6.0
    x_2_53  sup_2  1.0
    x_2_53  dem_53  1.0
    x_2_54  OBJ  1.0
    x_2_54  sup_2  1.0
    x_2_54  dem_54  1.0
    x_2_55  OBJ  29.0
    x_2_55  sup_2  1.0
    x_2_55  dem_55  1.0
    x_2_56  OBJ  20.0
    x_2_56  sup_2  1.0
    x_2_56  dem_56  1.0
    x_2_57  OBJ  22.0
    x_2_57  sup_2  1.0
    x_2_57  dem_57  1.0
    x_2_58  OBJ  24.0
    x_2_58  sup_2  1.0
    x_2_58  dem_58  1.0
    x_2_59  OBJ  11.0
    x_2_59  sup_2  1.0
    x_2_59  dem_59  1.0
    x_3_0  OBJ  26.0
    x_3_0  sup_3  1.0
    x_3_0  dem_0  1.0
    x_3_1  OBJ  19.0
    x_3_1  sup_3  1.0
    x_3_1  dem_1  1.0
    x_3_2  OBJ  19.0
    x_3_2  sup_3  1.0
    x_3_2  dem_2  1.0
    x_3_3  OBJ  12.0
    x_3_3  sup_3  1.0
    x_3_3  dem_3  1.0
    x_3_4  OBJ  10.0
    x_3_4  sup_3  1.0
    x_3_4  dem_4  1.0
    x_3_5  OBJ  12.0
    x_3_5  sup_3  1.0
    x_3_5  dem_5  1.0
    x_3_6  OBJ  21.0
    x_3_6  sup_3  1.0
    x_3_6  dem_6  1.0
    x_3_7  OBJ  15.0
    x_3_7  sup_3  1.0
    x_3_7  dem_7  1.0
    x_3_8  OBJ  1.0
    x_3_8  sup_3  1.0
    x_3_8  dem_8  1.0
    x_3_9  OBJ  1.0
    x_3_9  sup_3  1.0
    x_3_9  dem_9  1.0
    x_3_10  OBJ  6.0
    x_3_10  sup_3  1.0
    x_3_10  dem_10  1.0
    x_3_11  OBJ  15.0
    x_3_11  sup_3  1.0
    x_3_11  dem_11  1.0
    x_3_12  OBJ  18.0
    x_3_12  sup_3  1.0
    x_3_12  dem_12  1.0
    x_3_13  OBJ  29.0
    x_3_13  sup_3  1.0
    x_3_13  dem_13  1.0
    x_3_14  OBJ  23.0
    x_3_14  sup_3  1.0
    x_3_14  dem_14  1.0
    x_3_15  OBJ  9.0
    x_3_15  sup_3  1.0
    x_3_15  dem_15  1.0
    x_3_16  OBJ  15.0
    x_3_16  sup_3  1.0
    x_3_16  dem_16  1.0
    x_3_17  OBJ  22.0
    x_3_17  sup_3  1.0
    x_3_17  dem_17  1.0
    x_3_18  OBJ  26.0
    x_3_18  sup_3  1.0
    x_3_18  dem_18  1.0
    x_3_19  OBJ  13.0
    x_3_19  sup_3  1.0
    x_3_19  dem_19  1.0
    x_3_20  OBJ  21.0
    x_3_20  sup_3  1.0
    x_3_20  dem_20  1.0
    x_3_21  OBJ  7.0
    x_3_21  sup_3  1.0
    x_3_21  dem_21  1.0
    x_3_22  OBJ  14.0
    x_3_22  sup_3  1.0
    x_3_22  dem_22  1.0
    x_3_23  OBJ  27.0
    x_3_23  sup_3  1.0
    x_3_23  dem_23  1.0
    x_3_24  OBJ  12.0
    x_3_24  sup_3  1.0
    x_3_24  dem_24  1.0
    x_3_25  OBJ  1.0
    x_3_25  sup_3  1.0
    x_3_25  dem_25  1.0
    x_3_26  OBJ  23.0
    x_3_26  sup_3  1.0
    x_3_26  dem_26  1.0
    x_3_27  OBJ  9.0
    x_3_27  sup_3  1.0
    x_3_27  dem_27  1.0
    x_3_28  OBJ  13.0
    x_3_28  sup_3  1.0
    x_3_28  dem_28  1.0
    x_3_29  OBJ  29.0
    x_3_29  sup_3  1.0
    x_3_29  dem_29  1.0
    x_3_30  OBJ  12.0
    x_3_30  sup_3  1.0
    x_3_30  dem_30  1.0
    x_3_31  OBJ  8.0
    x_3_31  sup_3  1.0
    x_3_31  dem_31  1.0
    x_3_32  OBJ  7.0
    x_3_32  sup_3  1.0
    x_3_32  dem_32  1.0
    x_3_33  OBJ  25.0
    x_3_33  sup_3  1.0
    x_3_33  dem_33  1.0
    x_3_34  OBJ  7.0
    x_3_34  sup_3  1.0
    x_3_34  dem_34  1.0
    x_3_35  OBJ  18.0
    x_3_35  sup_3  1.0
    x_3_35  dem_35  1.0
    x_3_36  OBJ  7.0
    x_3_36  sup_3  1.0
    x_3_36  dem_36  1.0
    x_3_37  OBJ  24.0
    x_3_37  sup_3  1.0
    x_3_37  dem_37  1.0
    x_3_38  OBJ  21.0
    x_3_38  sup_3  1.0
    x_3_38  dem_38  1.0
    x_3_39  OBJ  19.0
    x_3_39  sup_3  1.0
    x_3_39  dem_39  1.0
    x_3_40  OBJ  13.0
    x_3_40  sup_3  1.0
    x_3_40  dem_40  1.0
    x_3_41  OBJ  11.0
    x_3_41  sup_3  1.0
    x_3_41  dem_41  1.0
    x_3_42  OBJ  28.0
    x_3_42  sup_3  1.0
    x_3_42  dem_42  1.0
    x_3_43  OBJ  23.0
    x_3_43  sup_3  1.0
    x_3_43  dem_43  1.0
    x_3_44  OBJ  12.0
    x_3_44  sup_3  1.0
    x_3_44  dem_44  1.0
    x_3_45  OBJ  1.0
    x_3_45  sup_3  1.0
    x_3_45  dem_45  1.0
    x_3_46  OBJ  4.0
    x_3_46  sup_3  1.0
    x_3_46  dem_46  1.0
    x_3_47  OBJ  13.0
    x_3_47  sup_3  1.0
    x_3_47  dem_47  1.0
    x_3_48  OBJ  14.0
    x_3_48  sup_3  1.0
    x_3_48  dem_48  1.0
    x_3_49  OBJ  11.0
    x_3_49  sup_3  1.0
    x_3_49  dem_49  1.0
    x_3_50  OBJ  29.0
    x_3_50  sup_3  1.0
    x_3_50  dem_50  1.0
    x_3_51  OBJ  14.0
    x_3_51  sup_3  1.0
    x_3_51  dem_51  1.0
    x_3_52  OBJ  24.0
    x_3_52  sup_3  1.0
    x_3_52  dem_52  1.0
    x_3_53  OBJ  4.0
    x_3_53  sup_3  1.0
    x_3_53  dem_53  1.0
    x_3_54  OBJ  11.0
    x_3_54  sup_3  1.0
    x_3_54  dem_54  1.0
    x_3_55  OBJ  7.0
    x_3_55  sup_3  1.0
    x_3_55  dem_55  1.0
    x_3_56  OBJ  5.0
    x_3_56  sup_3  1.0
    x_3_56  dem_56  1.0
    x_3_57  OBJ  17.0
    x_3_57  sup_3  1.0
    x_3_57  dem_57  1.0
    x_3_58  OBJ  5.0
    x_3_58  sup_3  1.0
    x_3_58  dem_58  1.0
    x_3_59  OBJ  12.0
    x_3_59  sup_3  1.0
    x_3_59  dem_59  1.0
    x_4_0  OBJ  20.0
    x_4_0  sup_4  1.0
    x_4_0  dem_0  1.0
    x_4_1  OBJ  23.0
    x_4_1  sup_4  1.0
    x_4_1  dem_1  1.0
    x_4_2  OBJ  17.0
    x_4_2  sup_4  1.0
    x_4_2  dem_2  1.0
    x_4_3  OBJ  18.0
    x_4_3  sup_4  1.0
    x_4_3  dem_3  1.0
    x_4_4  OBJ  9.0
    x_4_4  sup_4  1.0
    x_4_4  dem_4  1.0
    x_4_5  OBJ  25.0
    x_4_5  sup_4  1.0
    x_4_5  dem_5  1.0
    x_4_6  OBJ  6.0
    x_4_6  sup_4  1.0
    x_4_6  dem_6  1.0
    x_4_7  OBJ  22.0
    x_4_7  sup_4  1.0
    x_4_7  dem_7  1.0
    x_4_8  OBJ  3.0
    x_4_8  sup_4  1.0
    x_4_8  dem_8  1.0
    x_4_9  OBJ  18.0
    x_4_9  sup_4  1.0
    x_4_9  dem_9  1.0
    x_4_10  OBJ  8.0
    x_4_10  sup_4  1.0
    x_4_10  dem_10  1.0
    x_4_11  OBJ  9.0
    x_4_11  sup_4  1.0
    x_4_11  dem_11  1.0
    x_4_12  OBJ  10.0
    x_4_12  sup_4  1.0
    x_4_12  dem_12  1.0
    x_4_13  OBJ  23.0
    x_4_13  sup_4  1.0
    x_4_13  dem_13  1.0
    x_4_14  OBJ  23.0
    x_4_14  sup_4  1.0
    x_4_14  dem_14  1.0
    x_4_15  OBJ  8.0
    x_4_15  sup_4  1.0
    x_4_15  dem_15  1.0
    x_4_16  OBJ  16.0
    x_4_16  sup_4  1.0
    x_4_16  dem_16  1.0
    x_4_17  OBJ  3.0
    x_4_17  sup_4  1.0
    x_4_17  dem_17  1.0
    x_4_18  OBJ  26.0
    x_4_18  sup_4  1.0
    x_4_18  dem_18  1.0
    x_4_19  OBJ  28.0
    x_4_19  sup_4  1.0
    x_4_19  dem_19  1.0
    x_4_20  OBJ  11.0
    x_4_20  sup_4  1.0
    x_4_20  dem_20  1.0
    x_4_21  OBJ  16.0
    x_4_21  sup_4  1.0
    x_4_21  dem_21  1.0
    x_4_22  OBJ  16.0
    x_4_22  sup_4  1.0
    x_4_22  dem_22  1.0
    x_4_23  OBJ  23.0
    x_4_23  sup_4  1.0
    x_4_23  dem_23  1.0
    x_4_24  OBJ  3.0
    x_4_24  sup_4  1.0
    x_4_24  dem_24  1.0
    x_4_25  OBJ  16.0
    x_4_25  sup_4  1.0
    x_4_25  dem_25  1.0
    x_4_26  OBJ  25.0
    x_4_26  sup_4  1.0
    x_4_26  dem_26  1.0
    x_4_27  OBJ  18.0
    x_4_27  sup_4  1.0
    x_4_27  dem_27  1.0
    x_4_28  OBJ  17.0
    x_4_28  sup_4  1.0
    x_4_28  dem_28  1.0
    x_4_29  OBJ  1.0
    x_4_29  sup_4  1.0
    x_4_29  dem_29  1.0
    x_4_30  OBJ  27.0
    x_4_30  sup_4  1.0
    x_4_30  dem_30  1.0
    x_4_31  OBJ  6.0
    x_4_31  sup_4  1.0
    x_4_31  dem_31  1.0
    x_4_32  OBJ  11.0
    x_4_32  sup_4  1.0
    x_4_32  dem_32  1.0
    x_4_33  OBJ  20.0
    x_4_33  sup_4  1.0
    x_4_33  dem_33  1.0
    x_4_34  OBJ  14.0
    x_4_34  sup_4  1.0
    x_4_34  dem_34  1.0
    x_4_35  OBJ  17.0
    x_4_35  sup_4  1.0
    x_4_35  dem_35  1.0
    x_4_36  OBJ  18.0
    x_4_36  sup_4  1.0
    x_4_36  dem_36  1.0
    x_4_37  OBJ  5.0
    x_4_37  sup_4  1.0
    x_4_37  dem_37  1.0
    x_4_38  OBJ  1.0
    x_4_38  sup_4  1.0
    x_4_38  dem_38  1.0
    x_4_39  OBJ  28.0
    x_4_39  sup_4  1.0
    x_4_39  dem_39  1.0
    x_4_40  OBJ  24.0
    x_4_40  sup_4  1.0
    x_4_40  dem_40  1.0
    x_4_41  OBJ  5.0
    x_4_41  sup_4  1.0
    x_4_41  dem_41  1.0
    x_4_42  OBJ  20.0
    x_4_42  sup_4  1.0
    x_4_42  dem_42  1.0
    x_4_43  OBJ  15.0
    x_4_43  sup_4  1.0
    x_4_43  dem_43  1.0
    x_4_44  OBJ  22.0
    x_4_44  sup_4  1.0
    x_4_44  dem_44  1.0
    x_4_45  OBJ  5.0
    x_4_45  sup_4  1.0
    x_4_45  dem_45  1.0
    x_4_46  OBJ  21.0
    x_4_46  sup_4  1.0
    x_4_46  dem_46  1.0
    x_4_47  OBJ  21.0
    x_4_47  sup_4  1.0
    x_4_47  dem_47  1.0
    x_4_48  OBJ  29.0
    x_4_48  sup_4  1.0
    x_4_48  dem_48  1.0
    x_4_49  OBJ  9.0
    x_4_49  sup_4  1.0
    x_4_49  dem_49  1.0
    x_4_50  OBJ  13.0
    x_4_50  sup_4  1.0
    x_4_50  dem_50  1.0
    x_4_51  OBJ  4.0
    x_4_51  sup_4  1.0
    x_4_51  dem_51  1.0
    x_4_52  OBJ  1.0
    x_4_52  sup_4  1.0
    x_4_52  dem_52  1.0
    x_4_53  OBJ  2.0
    x_4_53  sup_4  1.0
    x_4_53  dem_53  1.0
    x_4_54  OBJ  14.0
    x_4_54  sup_4  1.0
    x_4_54  dem_54  1.0
    x_4_55  OBJ  6.0
    x_4_55  sup_4  1.0
    x_4_55  dem_55  1.0
    x_4_56  OBJ  22.0
    x_4_56  sup_4  1.0
    x_4_56  dem_56  1.0
    x_4_57  OBJ  6.0
    x_4_57  sup_4  1.0
    x_4_57  dem_57  1.0
    x_4_58  OBJ  19.0
    x_4_58  sup_4  1.0
    x_4_58  dem_58  1.0
    x_4_59  OBJ  16.0
    x_4_59  sup_4  1.0
    x_4_59  dem_59  1.0
    x_5_0  OBJ  10.0
    x_5_0  sup_5  1.0
    x_5_0  dem_0  1.0
    x_5_1  OBJ  14.0
    x_5_1  sup_5  1.0
    x_5_1  dem_1  1.0
    x_5_2  OBJ  29.0
    x_5_2  sup_5  1.0
    x_5_2  dem_2  1.0
    x_5_3  OBJ  28.0
    x_5_3  sup_5  1.0
    x_5_3  dem_3  1.0
    x_5_4  OBJ  9.0
    x_5_4  sup_5  1.0
    x_5_4  dem_4  1.0
    x_5_5  OBJ  28.0
    x_5_5  sup_5  1.0
    x_5_5  dem_5  1.0
    x_5_6  OBJ  7.0
    x_5_6  sup_5  1.0
    x_5_6  dem_6  1.0
    x_5_7  OBJ  24.0
    x_5_7  sup_5  1.0
    x_5_7  dem_7  1.0
    x_5_8  OBJ  11.0
    x_5_8  sup_5  1.0
    x_5_8  dem_8  1.0
    x_5_9  OBJ  20.0
    x_5_9  sup_5  1.0
    x_5_9  dem_9  1.0
    x_5_10  OBJ  19.0
    x_5_10  sup_5  1.0
    x_5_10  dem_10  1.0
    x_5_11  OBJ  25.0
    x_5_11  sup_5  1.0
    x_5_11  dem_11  1.0
    x_5_12  OBJ  12.0
    x_5_12  sup_5  1.0
    x_5_12  dem_12  1.0
    x_5_13  OBJ  28.0
    x_5_13  sup_5  1.0
    x_5_13  dem_13  1.0
    x_5_14  OBJ  26.0
    x_5_14  sup_5  1.0
    x_5_14  dem_14  1.0
    x_5_15  OBJ  1.0
    x_5_15  sup_5  1.0
    x_5_15  dem_15  1.0
    x_5_16  OBJ  3.0
    x_5_16  sup_5  1.0
    x_5_16  dem_16  1.0
    x_5_17  OBJ  4.0
    x_5_17  sup_5  1.0
    x_5_17  dem_17  1.0
    x_5_18  OBJ  19.0
    x_5_18  sup_5  1.0
    x_5_18  dem_18  1.0
    x_5_19  OBJ  11.0
    x_5_19  sup_5  1.0
    x_5_19  dem_19  1.0
    x_5_20  OBJ  5.0
    x_5_20  sup_5  1.0
    x_5_20  dem_20  1.0
    x_5_21  OBJ  3.0
    x_5_21  sup_5  1.0
    x_5_21  dem_21  1.0
    x_5_22  OBJ  27.0
    x_5_22  sup_5  1.0
    x_5_22  dem_22  1.0
    x_5_23  OBJ  18.0
    x_5_23  sup_5  1.0
    x_5_23  dem_23  1.0
    x_5_24  OBJ  1.0
    x_5_24  sup_5  1.0
    x_5_24  dem_24  1.0
    x_5_25  OBJ  8.0
    x_5_25  sup_5  1.0
    x_5_25  dem_25  1.0
    x_5_26  OBJ  20.0
    x_5_26  sup_5  1.0
    x_5_26  dem_26  1.0
    x_5_27  OBJ  8.0
    x_5_27  sup_5  1.0
    x_5_27  dem_27  1.0
    x_5_28  OBJ  23.0
    x_5_28  sup_5  1.0
    x_5_28  dem_28  1.0
    x_5_29  OBJ  9.0
    x_5_29  sup_5  1.0
    x_5_29  dem_29  1.0
    x_5_30  OBJ  19.0
    x_5_30  sup_5  1.0
    x_5_30  dem_30  1.0
    x_5_31  OBJ  3.0
    x_5_31  sup_5  1.0
    x_5_31  dem_31  1.0
    x_5_32  OBJ  24.0
    x_5_32  sup_5  1.0
    x_5_32  dem_32  1.0
    x_5_33  OBJ  22.0
    x_5_33  sup_5  1.0
    x_5_33  dem_33  1.0
    x_5_34  OBJ  16.0
    x_5_34  sup_5  1.0
    x_5_34  dem_34  1.0
    x_5_35  OBJ  19.0
    x_5_35  sup_5  1.0
    x_5_35  dem_35  1.0
    x_5_36  OBJ  2.0
    x_5_36  sup_5  1.0
    x_5_36  dem_36  1.0
    x_5_37  OBJ  18.0
    x_5_37  sup_5  1.0
    x_5_37  dem_37  1.0
    x_5_38  OBJ  14.0
    x_5_38  sup_5  1.0
    x_5_38  dem_38  1.0
    x_5_39  OBJ  1.0
    x_5_39  sup_5  1.0
    x_5_39  dem_39  1.0
    x_5_40  OBJ  1.0
    x_5_40  sup_5  1.0
    x_5_40  dem_40  1.0
    x_5_41  OBJ  13.0
    x_5_41  sup_5  1.0
    x_5_41  dem_41  1.0
    x_5_42  OBJ  21.0
    x_5_42  sup_5  1.0
    x_5_42  dem_42  1.0
    x_5_43  OBJ  20.0
    x_5_43  sup_5  1.0
    x_5_43  dem_43  1.0
    x_5_44  OBJ  6.0
    x_5_44  sup_5  1.0
    x_5_44  dem_44  1.0
    x_5_45  OBJ  5.0
    x_5_45  sup_5  1.0
    x_5_45  dem_45  1.0
    x_5_46  OBJ  8.0
    x_5_46  sup_5  1.0
    x_5_46  dem_46  1.0
    x_5_47  OBJ  12.0
    x_5_47  sup_5  1.0
    x_5_47  dem_47  1.0
    x_5_48  OBJ  4.0
    x_5_48  sup_5  1.0
    x_5_48  dem_48  1.0
    x_5_49  OBJ  1.0
    x_5_49  sup_5  1.0
    x_5_49  dem_49  1.0
    x_5_50  OBJ  11.0
    x_5_50  sup_5  1.0
    x_5_50  dem_50  1.0
    x_5_51  OBJ  3.0
    x_5_51  sup_5  1.0
    x_5_51  dem_51  1.0
    x_5_52  OBJ  6.0
    x_5_52  sup_5  1.0
    x_5_52  dem_52  1.0
    x_5_53  OBJ  7.0
    x_5_53  sup_5  1.0
    x_5_53  dem_53  1.0
    x_5_54  OBJ  12.0
    x_5_54  sup_5  1.0
    x_5_54  dem_54  1.0
    x_5_55  OBJ  13.0
    x_5_55  sup_5  1.0
    x_5_55  dem_55  1.0
    x_5_56  OBJ  2.0
    x_5_56  sup_5  1.0
    x_5_56  dem_56  1.0
    x_5_57  OBJ  14.0
    x_5_57  sup_5  1.0
    x_5_57  dem_57  1.0
    x_5_58  OBJ  27.0
    x_5_58  sup_5  1.0
    x_5_58  dem_58  1.0
    x_5_59  OBJ  26.0
    x_5_59  sup_5  1.0
    x_5_59  dem_59  1.0
    x_6_0  OBJ  5.0
    x_6_0  sup_6  1.0
    x_6_0  dem_0  1.0
    x_6_1  OBJ  10.0
    x_6_1  sup_6  1.0
    x_6_1  dem_1  1.0
    x_6_2  OBJ  20.0
    x_6_2  sup_6  1.0
    x_6_2  dem_2  1.0
    x_6_3  OBJ  1.0
    x_6_3  sup_6  1.0
    x_6_3  dem_3  1.0
    x_6_4  OBJ  17.0
    x_6_4  sup_6  1.0
    x_6_4  dem_4  1.0
    x_6_5  OBJ  24.0
    x_6_5  sup_6  1.0
    x_6_5  dem_5  1.0
    x_6_6  OBJ  23.0
    x_6_6  sup_6  1.0
    x_6_6  dem_6  1.0
    x_6_7  OBJ  2.0
    x_6_7  sup_6  1.0
    x_6_7  dem_7  1.0
    x_6_8  OBJ  8.0
    x_6_8  sup_6  1.0
    x_6_8  dem_8  1.0
    x_6_9  OBJ  3.0
    x_6_9  sup_6  1.0
    x_6_9  dem_9  1.0
    x_6_10  OBJ  15.0
    x_6_10  sup_6  1.0
    x_6_10  dem_10  1.0
    x_6_11  OBJ  28.0
    x_6_11  sup_6  1.0
    x_6_11  dem_11  1.0
    x_6_12  OBJ  24.0
    x_6_12  sup_6  1.0
    x_6_12  dem_12  1.0
    x_6_13  OBJ  22.0
    x_6_13  sup_6  1.0
    x_6_13  dem_13  1.0
    x_6_14  OBJ  22.0
    x_6_14  sup_6  1.0
    x_6_14  dem_14  1.0
    x_6_15  OBJ  10.0
    x_6_15  sup_6  1.0
    x_6_15  dem_15  1.0
    x_6_16  OBJ  29.0
    x_6_16  sup_6  1.0
    x_6_16  dem_16  1.0
    x_6_17  OBJ  4.0
    x_6_17  sup_6  1.0
    x_6_17  dem_17  1.0
    x_6_18  OBJ  4.0
    x_6_18  sup_6  1.0
    x_6_18  dem_18  1.0
    x_6_19  OBJ  12.0
    x_6_19  sup_6  1.0
    x_6_19  dem_19  1.0
    x_6_20  OBJ  14.0
    x_6_20  sup_6  1.0
    x_6_20  dem_20  1.0
    x_6_21  OBJ  10.0
    x_6_21  sup_6  1.0
    x_6_21  dem_21  1.0
    x_6_22  OBJ  14.0
    x_6_22  sup_6  1.0
    x_6_22  dem_22  1.0
    x_6_23  OBJ  26.0
    x_6_23  sup_6  1.0
    x_6_23  dem_23  1.0
    x_6_24  OBJ  14.0
    x_6_24  sup_6  1.0
    x_6_24  dem_24  1.0
    x_6_25  OBJ  13.0
    x_6_25  sup_6  1.0
    x_6_25  dem_25  1.0
    x_6_26  OBJ  19.0
    x_6_26  sup_6  1.0
    x_6_26  dem_26  1.0
    x_6_27  OBJ  3.0
    x_6_27  sup_6  1.0
    x_6_27  dem_27  1.0
    x_6_28  OBJ  26.0
    x_6_28  sup_6  1.0
    x_6_28  dem_28  1.0
    x_6_29  OBJ  27.0
    x_6_29  sup_6  1.0
    x_6_29  dem_29  1.0
    x_6_30  OBJ  1.0
    x_6_30  sup_6  1.0
    x_6_30  dem_30  1.0
    x_6_31  OBJ  19.0
    x_6_31  sup_6  1.0
    x_6_31  dem_31  1.0
    x_6_32  OBJ  29.0
    x_6_32  sup_6  1.0
    x_6_32  dem_32  1.0
    x_6_33  OBJ  4.0
    x_6_33  sup_6  1.0
    x_6_33  dem_33  1.0
    x_6_34  OBJ  5.0
    x_6_34  sup_6  1.0
    x_6_34  dem_34  1.0
    x_6_35  OBJ  4.0
    x_6_35  sup_6  1.0
    x_6_35  dem_35  1.0
    x_6_36  OBJ  27.0
    x_6_36  sup_6  1.0
    x_6_36  dem_36  1.0
    x_6_37  OBJ  14.0
    x_6_37  sup_6  1.0
    x_6_37  dem_37  1.0
    x_6_38  OBJ  28.0
    x_6_38  sup_6  1.0
    x_6_38  dem_38  1.0
    x_6_39  OBJ  3.0
    x_6_39  sup_6  1.0
    x_6_39  dem_39  1.0
    x_6_40  OBJ  20.0
    x_6_40  sup_6  1.0
    x_6_40  dem_40  1.0
    x_6_41  OBJ  19.0
    x_6_41  sup_6  1.0
    x_6_41  dem_41  1.0
    x_6_42  OBJ  16.0
    x_6_42  sup_6  1.0
    x_6_42  dem_42  1.0
    x_6_43  OBJ  18.0
    x_6_43  sup_6  1.0
    x_6_43  dem_43  1.0
    x_6_44  OBJ  4.0
    x_6_44  sup_6  1.0
    x_6_44  dem_44  1.0
    x_6_45  OBJ  1.0
    x_6_45  sup_6  1.0
    x_6_45  dem_45  1.0
    x_6_46  OBJ  18.0
    x_6_46  sup_6  1.0
    x_6_46  dem_46  1.0
    x_6_47  OBJ  24.0
    x_6_47  sup_6  1.0
    x_6_47  dem_47  1.0
    x_6_48  OBJ  27.0
    x_6_48  sup_6  1.0
    x_6_48  dem_48  1.0
    x_6_49  OBJ  23.0
    x_6_49  sup_6  1.0
    x_6_49  dem_49  1.0
    x_6_50  OBJ  14.0
    x_6_50  sup_6  1.0
    x_6_50  dem_50  1.0
    x_6_51  OBJ  27.0
    x_6_51  sup_6  1.0
    x_6_51  dem_51  1.0
    x_6_52  OBJ  1.0
    x_6_52  sup_6  1.0
    x_6_52  dem_52  1.0
    x_6_53  OBJ  20.0
    x_6_53  sup_6  1.0
    x_6_53  dem_53  1.0
    x_6_54  OBJ  15.0
    x_6_54  sup_6  1.0
    x_6_54  dem_54  1.0
    x_6_55  OBJ  21.0
    x_6_55  sup_6  1.0
    x_6_55  dem_55  1.0
    x_6_56  OBJ  26.0
    x_6_56  sup_6  1.0
    x_6_56  dem_56  1.0
    x_6_57  OBJ  5.0
    x_6_57  sup_6  1.0
    x_6_57  dem_57  1.0
    x_6_58  OBJ  23.0
    x_6_58  sup_6  1.0
    x_6_58  dem_58  1.0
    x_6_59  OBJ  1.0
    x_6_59  sup_6  1.0
    x_6_59  dem_59  1.0
    x_7_0  OBJ  14.0
    x_7_0  sup_7  1.0
    x_7_0  dem_0  1.0
    x_7_1  OBJ  2.0
    x_7_1  sup_7  1.0
    x_7_1  dem_1  1.0
    x_7_2  OBJ  8.0
    x_7_2  sup_7  1.0
    x_7_2  dem_2  1.0
    x_7_3  OBJ  28.0
    x_7_3  sup_7  1.0
    x_7_3  dem_3  1.0
    x_7_4  OBJ  12.0
    x_7_4  sup_7  1.0
    x_7_4  dem_4  1.0
    x_7_5  OBJ  19.0
    x_7_5  sup_7  1.0
    x_7_5  dem_5  1.0
    x_7_6  OBJ  28.0
    x_7_6  sup_7  1.0
    x_7_6  dem_6  1.0
    x_7_7  OBJ  28.0
    x_7_7  sup_7  1.0
    x_7_7  dem_7  1.0
    x_7_8  OBJ  3.0
    x_7_8  sup_7  1.0
    x_7_8  dem_8  1.0
    x_7_9  OBJ  11.0
    x_7_9  sup_7  1.0
    x_7_9  dem_9  1.0
    x_7_10  OBJ  29.0
    x_7_10  sup_7  1.0
    x_7_10  dem_10  1.0
    x_7_11  OBJ  22.0
    x_7_11  sup_7  1.0
    x_7_11  dem_11  1.0
    x_7_12  OBJ  13.0
    x_7_12  sup_7  1.0
    x_7_12  dem_12  1.0
    x_7_13  OBJ  2.0
    x_7_13  sup_7  1.0
    x_7_13  dem_13  1.0
    x_7_14  OBJ  19.0
    x_7_14  sup_7  1.0
    x_7_14  dem_14  1.0
    x_7_15  OBJ  5.0
    x_7_15  sup_7  1.0
    x_7_15  dem_15  1.0
    x_7_16  OBJ  27.0
    x_7_16  sup_7  1.0
    x_7_16  dem_16  1.0
    x_7_17  OBJ  9.0
    x_7_17  sup_7  1.0
    x_7_17  dem_17  1.0
    x_7_18  OBJ  13.0
    x_7_18  sup_7  1.0
    x_7_18  dem_18  1.0
    x_7_19  OBJ  16.0
    x_7_19  sup_7  1.0
    x_7_19  dem_19  1.0
    x_7_20  OBJ  15.0
    x_7_20  sup_7  1.0
    x_7_20  dem_20  1.0
    x_7_21  OBJ  17.0
    x_7_21  sup_7  1.0
    x_7_21  dem_21  1.0
    x_7_22  OBJ  24.0
    x_7_22  sup_7  1.0
    x_7_22  dem_22  1.0
    x_7_23  OBJ  15.0
    x_7_23  sup_7  1.0
    x_7_23  dem_23  1.0
    x_7_24  OBJ  10.0
    x_7_24  sup_7  1.0
    x_7_24  dem_24  1.0
    x_7_25  OBJ  13.0
    x_7_25  sup_7  1.0
    x_7_25  dem_25  1.0
    x_7_26  OBJ  24.0
    x_7_26  sup_7  1.0
    x_7_26  dem_26  1.0
    x_7_27  OBJ  17.0
    x_7_27  sup_7  1.0
    x_7_27  dem_27  1.0
    x_7_28  OBJ  14.0
    x_7_28  sup_7  1.0
    x_7_28  dem_28  1.0
    x_7_29  OBJ  29.0
    x_7_29  sup_7  1.0
    x_7_29  dem_29  1.0
    x_7_30  OBJ  8.0
    x_7_30  sup_7  1.0
    x_7_30  dem_30  1.0
    x_7_31  OBJ  14.0
    x_7_31  sup_7  1.0
    x_7_31  dem_31  1.0
    x_7_32  OBJ  28.0
    x_7_32  sup_7  1.0
    x_7_32  dem_32  1.0
    x_7_33  OBJ  25.0
    x_7_33  sup_7  1.0
    x_7_33  dem_33  1.0
    x_7_34  OBJ  17.0
    x_7_34  sup_7  1.0
    x_7_34  dem_34  1.0
    x_7_35  OBJ  2.0
    x_7_35  sup_7  1.0
    x_7_35  dem_35  1.0
    x_7_36  OBJ  17.0
    x_7_36  sup_7  1.0
    x_7_36  dem_36  1.0
    x_7_37  OBJ  12.0
    x_7_37  sup_7  1.0
    x_7_37  dem_37  1.0
    x_7_38  OBJ  29.0
    x_7_38  sup_7  1.0
    x_7_38  dem_38  1.0
    x_7_39  OBJ  17.0
    x_7_39  sup_7  1.0
    x_7_39  dem_39  1.0
    x_7_40  OBJ  17.0
    x_7_40  sup_7  1.0
    x_7_40  dem_40  1.0
    x_7_41  OBJ  18.0
    x_7_41  sup_7  1.0
    x_7_41  dem_41  1.0
    x_7_42  OBJ  12.0
    x_7_42  sup_7  1.0
    x_7_42  dem_42  1.0
    x_7_43  OBJ  8.0
    x_7_43  sup_7  1.0
    x_7_43  dem_43  1.0
    x_7_44  OBJ  15.0
    x_7_44  sup_7  1.0
    x_7_44  dem_44  1.0
    x_7_45  OBJ  12.0
    x_7_45  sup_7  1.0
    x_7_45  dem_45  1.0
    x_7_46  OBJ  25.0
    x_7_46  sup_7  1.0
    x_7_46  dem_46  1.0
    x_7_47  OBJ  28.0
    x_7_47  sup_7  1.0
    x_7_47  dem_47  1.0
    x_7_48  OBJ  14.0
    x_7_48  sup_7  1.0
    x_7_48  dem_48  1.0
    x_7_49  OBJ  19.0
    x_7_49  sup_7  1.0
    x_7_49  dem_49  1.0
    x_7_50  OBJ  6.0
    x_7_50  sup_7  1.0
    x_7_50  dem_50  1.0
    x_7_51  OBJ  17.0
    x_7_51  sup_7  1.0
    x_7_51  dem_51  1.0
    x_7_52  OBJ  5.0
    x_7_52  sup_7  1.0
    x_7_52  dem_52  1.0
    x_7_53  OBJ  2.0
    x_7_53  sup_7  1.0
    x_7_53  dem_53  1.0
    x_7_54  OBJ  6.0
    x_7_54  sup_7  1.0
    x_7_54  dem_54  1.0
    x_7_55  OBJ  2.0
    x_7_55  sup_7  1.0
    x_7_55  dem_55  1.0
    x_7_56  OBJ  26.0
    x_7_56  sup_7  1.0
    x_7_56  dem_56  1.0
    x_7_57  OBJ  7.0
    x_7_57  sup_7  1.0
    x_7_57  dem_57  1.0
    x_7_58  OBJ  27.0
    x_7_58  sup_7  1.0
    x_7_58  dem_58  1.0
    x_7_59  OBJ  4.0
    x_7_59  sup_7  1.0
    x_7_59  dem_59  1.0
    x_8_0  OBJ  20.0
    x_8_0  sup_8  1.0
    x_8_0  dem_0  1.0
    x_8_1  OBJ  29.0
    x_8_1  sup_8  1.0
    x_8_1  dem_1  1.0
    x_8_2  OBJ  4.0
    x_8_2  sup_8  1.0
    x_8_2  dem_2  1.0
    x_8_3  OBJ  1.0
    x_8_3  sup_8  1.0
    x_8_3  dem_3  1.0
    x_8_4  OBJ  9.0
    x_8_4  sup_8  1.0
    x_8_4  dem_4  1.0
    x_8_5  OBJ  11.0
    x_8_5  sup_8  1.0
    x_8_5  dem_5  1.0
    x_8_6  OBJ  15.0
    x_8_6  sup_8  1.0
    x_8_6  dem_6  1.0
    x_8_7  OBJ  2.0
    x_8_7  sup_8  1.0
    x_8_7  dem_7  1.0
    x_8_8  OBJ  3.0
    x_8_8  sup_8  1.0
    x_8_8  dem_8  1.0
    x_8_9  OBJ  19.0
    x_8_9  sup_8  1.0
    x_8_9  dem_9  1.0
    x_8_10  OBJ  3.0
    x_8_10  sup_8  1.0
    x_8_10  dem_10  1.0
    x_8_11  OBJ  2.0
    x_8_11  sup_8  1.0
    x_8_11  dem_11  1.0
    x_8_12  OBJ  12.0
    x_8_12  sup_8  1.0
    x_8_12  dem_12  1.0
    x_8_13  OBJ  2.0
    x_8_13  sup_8  1.0
    x_8_13  dem_13  1.0
    x_8_14  OBJ  5.0
    x_8_14  sup_8  1.0
    x_8_14  dem_14  1.0
    x_8_15  OBJ  3.0
    x_8_15  sup_8  1.0
    x_8_15  dem_15  1.0
    x_8_16  OBJ  15.0
    x_8_16  sup_8  1.0
    x_8_16  dem_16  1.0
    x_8_17  OBJ  8.0
    x_8_17  sup_8  1.0
    x_8_17  dem_17  1.0
    x_8_18  OBJ  25.0
    x_8_18  sup_8  1.0
    x_8_18  dem_18  1.0
    x_8_19  OBJ  17.0
    x_8_19  sup_8  1.0
    x_8_19  dem_19  1.0
    x_8_20  OBJ  10.0
    x_8_20  sup_8  1.0
    x_8_20  dem_20  1.0
    x_8_21  OBJ  24.0
    x_8_21  sup_8  1.0
    x_8_21  dem_21  1.0
    x_8_22  OBJ  6.0
    x_8_22  sup_8  1.0
    x_8_22  dem_22  1.0
    x_8_23  OBJ  8.0
    x_8_23  sup_8  1.0
    x_8_23  dem_23  1.0
    x_8_24  OBJ  5.0
    x_8_24  sup_8  1.0
    x_8_24  dem_24  1.0
    x_8_25  OBJ  9.0
    x_8_25  sup_8  1.0
    x_8_25  dem_25  1.0
    x_8_26  OBJ  12.0
    x_8_26  sup_8  1.0
    x_8_26  dem_26  1.0
    x_8_27  OBJ  24.0
    x_8_27  sup_8  1.0
    x_8_27  dem_27  1.0
    x_8_28  OBJ  11.0
    x_8_28  sup_8  1.0
    x_8_28  dem_28  1.0
    x_8_29  OBJ  22.0
    x_8_29  sup_8  1.0
    x_8_29  dem_29  1.0
    x_8_30  OBJ  25.0
    x_8_30  sup_8  1.0
    x_8_30  dem_30  1.0
    x_8_31  OBJ  4.0
    x_8_31  sup_8  1.0
    x_8_31  dem_31  1.0
    x_8_32  OBJ  22.0
    x_8_32  sup_8  1.0
    x_8_32  dem_32  1.0
    x_8_33  OBJ  24.0
    x_8_33  sup_8  1.0
    x_8_33  dem_33  1.0
    x_8_34  OBJ  11.0
    x_8_34  sup_8  1.0
    x_8_34  dem_34  1.0
    x_8_35  OBJ  25.0
    x_8_35  sup_8  1.0
    x_8_35  dem_35  1.0
    x_8_36  OBJ  24.0
    x_8_36  sup_8  1.0
    x_8_36  dem_36  1.0
    x_8_37  OBJ  6.0
    x_8_37  sup_8  1.0
    x_8_37  dem_37  1.0
    x_8_38  OBJ  5.0
    x_8_38  sup_8  1.0
    x_8_38  dem_38  1.0
    x_8_39  OBJ  19.0
    x_8_39  sup_8  1.0
    x_8_39  dem_39  1.0
    x_8_40  OBJ  13.0
    x_8_40  sup_8  1.0
    x_8_40  dem_40  1.0
    x_8_41  OBJ  6.0
    x_8_41  sup_8  1.0
    x_8_41  dem_41  1.0
    x_8_42  OBJ  29.0
    x_8_42  sup_8  1.0
    x_8_42  dem_42  1.0
    x_8_43  OBJ  8.0
    x_8_43  sup_8  1.0
    x_8_43  dem_43  1.0
    x_8_44  OBJ  5.0
    x_8_44  sup_8  1.0
    x_8_44  dem_44  1.0
    x_8_45  OBJ  15.0
    x_8_45  sup_8  1.0
    x_8_45  dem_45  1.0
    x_8_46  OBJ  11.0
    x_8_46  sup_8  1.0
    x_8_46  dem_46  1.0
    x_8_47  OBJ  16.0
    x_8_47  sup_8  1.0
    x_8_47  dem_47  1.0
    x_8_48  OBJ  10.0
    x_8_48  sup_8  1.0
    x_8_48  dem_48  1.0
    x_8_49  OBJ  14.0
    x_8_49  sup_8  1.0
    x_8_49  dem_49  1.0
    x_8_50  OBJ  14.0
    x_8_50  sup_8  1.0
    x_8_50  dem_50  1.0
    x_8_51  OBJ  16.0
    x_8_51  sup_8  1.0
    x_8_51  dem_51  1.0
    x_8_52  OBJ  27.0
    x_8_52  sup_8  1.0
    x_8_52  dem_52  1.0
    x_8_53  OBJ  7.0
    x_8_53  sup_8  1.0
    x_8_53  dem_53  1.0
    x_8_54  OBJ  13.0
    x_8_54  sup_8  1.0
    x_8_54  dem_54  1.0
    x_8_55  OBJ  23.0
    x_8_55  sup_8  1.0
    x_8_55  dem_55  1.0
    x_8_56  OBJ  27.0
    x_8_56  sup_8  1.0
    x_8_56  dem_56  1.0
    x_8_57  OBJ  9.0
    x_8_57  sup_8  1.0
    x_8_57  dem_57  1.0
    x_8_58  OBJ  28.0
    x_8_58  sup_8  1.0
    x_8_58  dem_58  1.0
    x_8_59  OBJ  27.0
    x_8_59  sup_8  1.0
    x_8_59  dem_59  1.0
    x_9_0  OBJ  9.0
    x_9_0  sup_9  1.0
    x_9_0  dem_0  1.0
    x_9_1  OBJ  15.0
    x_9_1  sup_9  1.0
    x_9_1  dem_1  1.0
    x_9_2  OBJ  21.0
    x_9_2  sup_9  1.0
    x_9_2  dem_2  1.0
    x_9_3  OBJ  9.0
    x_9_3  sup_9  1.0
    x_9_3  dem_3  1.0
    x_9_4  OBJ  7.0
    x_9_4  sup_9  1.0
    x_9_4  dem_4  1.0
    x_9_5  OBJ  6.0
    x_9_5  sup_9  1.0
    x_9_5  dem_5  1.0
    x_9_6  OBJ  14.0
    x_9_6  sup_9  1.0
    x_9_6  dem_6  1.0
    x_9_7  OBJ  15.0
    x_9_7  sup_9  1.0
    x_9_7  dem_7  1.0
    x_9_8  OBJ  21.0
    x_9_8  sup_9  1.0
    x_9_8  dem_8  1.0
    x_9_9  OBJ  11.0
    x_9_9  sup_9  1.0
    x_9_9  dem_9  1.0
    x_9_10  OBJ  15.0
    x_9_10  sup_9  1.0
    x_9_10  dem_10  1.0
    x_9_11  OBJ  19.0
    x_9_11  sup_9  1.0
    x_9_11  dem_11  1.0
    x_9_12  OBJ  22.0
    x_9_12  sup_9  1.0
    x_9_12  dem_12  1.0
    x_9_13  OBJ  15.0
    x_9_13  sup_9  1.0
    x_9_13  dem_13  1.0
    x_9_14  OBJ  6.0
    x_9_14  sup_9  1.0
    x_9_14  dem_14  1.0
    x_9_15  OBJ  2.0
    x_9_15  sup_9  1.0
    x_9_15  dem_15  1.0
    x_9_16  OBJ  15.0
    x_9_16  sup_9  1.0
    x_9_16  dem_16  1.0
    x_9_17  OBJ  25.0
    x_9_17  sup_9  1.0
    x_9_17  dem_17  1.0
    x_9_18  OBJ  17.0
    x_9_18  sup_9  1.0
    x_9_18  dem_18  1.0
    x_9_19  OBJ  2.0
    x_9_19  sup_9  1.0
    x_9_19  dem_19  1.0
    x_9_20  OBJ  3.0
    x_9_20  sup_9  1.0
    x_9_20  dem_20  1.0
    x_9_21  OBJ  25.0
    x_9_21  sup_9  1.0
    x_9_21  dem_21  1.0
    x_9_22  OBJ  10.0
    x_9_22  sup_9  1.0
    x_9_22  dem_22  1.0
    x_9_23  OBJ  24.0
    x_9_23  sup_9  1.0
    x_9_23  dem_23  1.0
    x_9_24  OBJ  5.0
    x_9_24  sup_9  1.0
    x_9_24  dem_24  1.0
    x_9_25  OBJ  27.0
    x_9_25  sup_9  1.0
    x_9_25  dem_25  1.0
    x_9_26  OBJ  6.0
    x_9_26  sup_9  1.0
    x_9_26  dem_26  1.0
    x_9_27  OBJ  20.0
    x_9_27  sup_9  1.0
    x_9_27  dem_27  1.0
    x_9_28  OBJ  13.0
    x_9_28  sup_9  1.0
    x_9_28  dem_28  1.0
    x_9_29  OBJ  5.0
    x_9_29  sup_9  1.0
    x_9_29  dem_29  1.0
    x_9_30  OBJ  10.0
    x_9_30  sup_9  1.0
    x_9_30  dem_30  1.0
    x_9_31  OBJ  13.0
    x_9_31  sup_9  1.0
    x_9_31  dem_31  1.0
    x_9_32  OBJ  7.0
    x_9_32  sup_9  1.0
    x_9_32  dem_32  1.0
    x_9_33  OBJ  13.0
    x_9_33  sup_9  1.0
    x_9_33  dem_33  1.0
    x_9_34  OBJ  4.0
    x_9_34  sup_9  1.0
    x_9_34  dem_34  1.0
    x_9_35  OBJ  19.0
    x_9_35  sup_9  1.0
    x_9_35  dem_35  1.0
    x_9_36  OBJ  28.0
    x_9_36  sup_9  1.0
    x_9_36  dem_36  1.0
    x_9_37  OBJ  12.0
    x_9_37  sup_9  1.0
    x_9_37  dem_37  1.0
    x_9_38  OBJ  14.0
    x_9_38  sup_9  1.0
    x_9_38  dem_38  1.0
    x_9_39  OBJ  20.0
    x_9_39  sup_9  1.0
    x_9_39  dem_39  1.0
    x_9_40  OBJ  28.0
    x_9_40  sup_9  1.0
    x_9_40  dem_40  1.0
    x_9_41  OBJ  6.0
    x_9_41  sup_9  1.0
    x_9_41  dem_41  1.0
    x_9_42  OBJ  5.0
    x_9_42  sup_9  1.0
    x_9_42  dem_42  1.0
    x_9_43  OBJ  11.0
    x_9_43  sup_9  1.0
    x_9_43  dem_43  1.0
    x_9_44  OBJ  28.0
    x_9_44  sup_9  1.0
    x_9_44  dem_44  1.0
    x_9_45  OBJ  16.0
    x_9_45  sup_9  1.0
    x_9_45  dem_45  1.0
    x_9_46  OBJ  2.0
    x_9_46  sup_9  1.0
    x_9_46  dem_46  1.0
    x_9_47  OBJ  13.0
    x_9_47  sup_9  1.0
    x_9_47  dem_47  1.0
    x_9_48  OBJ  29.0
    x_9_48  sup_9  1.0
    x_9_48  dem_48  1.0
    x_9_49  OBJ  4.0
    x_9_49  sup_9  1.0
    x_9_49  dem_49  1.0
    x_9_50  OBJ  7.0
    x_9_50  sup_9  1.0
    x_9_50  dem_50  1.0
    x_9_51  OBJ  29.0
    x_9_51  sup_9  1.0
    x_9_51  dem_51  1.0
    x_9_52  OBJ  2.0
    x_9_52  sup_9  1.0
    x_9_52  dem_52  1.0
    x_9_53  OBJ  21.0
    x_9_53  sup_9  1.0
    x_9_53  dem_53  1.0
    x_9_54  OBJ  16.0
    x_9_54  sup_9  1.0
    x_9_54  dem_54  1.0
    x_9_55  OBJ  25.0
    x_9_55  sup_9  1.0
    x_9_55  dem_55  1.0
    x_9_56  OBJ  27.0
    x_9_56  sup_9  1.0
    x_9_56  dem_56  1.0
    x_9_57  OBJ  11.0
    x_9_57  sup_9  1.0
    x_9_57  dem_57  1.0
    x_9_58  OBJ  9.0
    x_9_58  sup_9  1.0
    x_9_58  dem_58  1.0
    x_9_59  OBJ  28.0
    x_9_59  sup_9  1.0
    x_9_59  dem_59  1.0
    x_10_0  OBJ  18.0
    x_10_0  sup_10  1.0
    x_10_0  dem_0  1.0
    x_10_1  OBJ  24.0
    x_10_1  sup_10  1.0
    x_10_1  dem_1  1.0
    x_10_2  OBJ  1.0
    x_10_2  sup_10  1.0
    x_10_2  dem_2  1.0
    x_10_3  OBJ  29.0
    x_10_3  sup_10  1.0
    x_10_3  dem_3  1.0
    x_10_4  OBJ  13.0
    x_10_4  sup_10  1.0
    x_10_4  dem_4  1.0
    x_10_5  OBJ  6.0
    x_10_5  sup_10  1.0
    x_10_5  dem_5  1.0
    x_10_6  OBJ  19.0
    x_10_6  sup_10  1.0
    x_10_6  dem_6  1.0
    x_10_7  OBJ  14.0
    x_10_7  sup_10  1.0
    x_10_7  dem_7  1.0
    x_10_8  OBJ  22.0
    x_10_8  sup_10  1.0
    x_10_8  dem_8  1.0
    x_10_9  OBJ  12.0
    x_10_9  sup_10  1.0
    x_10_9  dem_9  1.0
    x_10_10  OBJ  9.0
    x_10_10  sup_10  1.0
    x_10_10  dem_10  1.0
    x_10_11  OBJ  18.0
    x_10_11  sup_10  1.0
    x_10_11  dem_11  1.0
    x_10_12  OBJ  27.0
    x_10_12  sup_10  1.0
    x_10_12  dem_12  1.0
    x_10_13  OBJ  8.0
    x_10_13  sup_10  1.0
    x_10_13  dem_13  1.0
    x_10_14  OBJ  19.0
    x_10_14  sup_10  1.0
    x_10_14  dem_14  1.0
    x_10_15  OBJ  3.0
    x_10_15  sup_10  1.0
    x_10_15  dem_15  1.0
    x_10_16  OBJ  5.0
    x_10_16  sup_10  1.0
    x_10_16  dem_16  1.0
    x_10_17  OBJ  14.0
    x_10_17  sup_10  1.0
    x_10_17  dem_17  1.0
    x_10_18  OBJ  2.0
    x_10_18  sup_10  1.0
    x_10_18  dem_18  1.0
    x_10_19  OBJ  19.0
    x_10_19  sup_10  1.0
    x_10_19  dem_19  1.0
    x_10_20  OBJ  17.0
    x_10_20  sup_10  1.0
    x_10_20  dem_20  1.0
    x_10_21  OBJ  12.0
    x_10_21  sup_10  1.0
    x_10_21  dem_21  1.0
    x_10_22  OBJ  22.0
    x_10_22  sup_10  1.0
    x_10_22  dem_22  1.0
    x_10_23  OBJ  29.0
    x_10_23  sup_10  1.0
    x_10_23  dem_23  1.0
    x_10_24  OBJ  27.0
    x_10_24  sup_10  1.0
    x_10_24  dem_24  1.0
    x_10_25  OBJ  12.0
    x_10_25  sup_10  1.0
    x_10_25  dem_25  1.0
    x_10_26  OBJ  18.0
    x_10_26  sup_10  1.0
    x_10_26  dem_26  1.0
    x_10_27  OBJ  9.0
    x_10_27  sup_10  1.0
    x_10_27  dem_27  1.0
    x_10_28  OBJ  3.0
    x_10_28  sup_10  1.0
    x_10_28  dem_28  1.0
    x_10_29  OBJ  24.0
    x_10_29  sup_10  1.0
    x_10_29  dem_29  1.0
    x_10_30  OBJ  12.0
    x_10_30  sup_10  1.0
    x_10_30  dem_30  1.0
    x_10_31  OBJ  14.0
    x_10_31  sup_10  1.0
    x_10_31  dem_31  1.0
    x_10_32  OBJ  12.0
    x_10_32  sup_10  1.0
    x_10_32  dem_32  1.0
    x_10_33  OBJ  8.0
    x_10_33  sup_10  1.0
    x_10_33  dem_33  1.0
    x_10_34  OBJ  21.0
    x_10_34  sup_10  1.0
    x_10_34  dem_34  1.0
    x_10_35  OBJ  9.0
    x_10_35  sup_10  1.0
    x_10_35  dem_35  1.0
    x_10_36  OBJ  1.0
    x_10_36  sup_10  1.0
    x_10_36  dem_36  1.0
    x_10_37  OBJ  28.0
    x_10_37  sup_10  1.0
    x_10_37  dem_37  1.0
    x_10_38  OBJ  21.0
    x_10_38  sup_10  1.0
    x_10_38  dem_38  1.0
    x_10_39  OBJ  28.0
    x_10_39  sup_10  1.0
    x_10_39  dem_39  1.0
    x_10_40  OBJ  25.0
    x_10_40  sup_10  1.0
    x_10_40  dem_40  1.0
    x_10_41  OBJ  19.0
    x_10_41  sup_10  1.0
    x_10_41  dem_41  1.0
    x_10_42  OBJ  29.0
    x_10_42  sup_10  1.0
    x_10_42  dem_42  1.0
    x_10_43  OBJ  9.0
    x_10_43  sup_10  1.0
    x_10_43  dem_43  1.0
    x_10_44  OBJ  5.0
    x_10_44  sup_10  1.0
    x_10_44  dem_44  1.0
    x_10_45  OBJ  21.0
    x_10_45  sup_10  1.0
    x_10_45  dem_45  1.0
    x_10_46  OBJ  20.0
    x_10_46  sup_10  1.0
    x_10_46  dem_46  1.0
    x_10_47  OBJ  7.0
    x_10_47  sup_10  1.0
    x_10_47  dem_47  1.0
    x_10_48  OBJ  29.0
    x_10_48  sup_10  1.0
    x_10_48  dem_48  1.0
    x_10_49  OBJ  10.0
    x_10_49  sup_10  1.0
    x_10_49  dem_49  1.0
    x_10_50  OBJ  29.0
    x_10_50  sup_10  1.0
    x_10_50  dem_50  1.0
    x_10_51  OBJ  16.0
    x_10_51  sup_10  1.0
    x_10_51  dem_51  1.0
    x_10_52  OBJ  6.0
    x_10_52  sup_10  1.0
    x_10_52  dem_52  1.0
    x_10_53  OBJ  12.0
    x_10_53  sup_10  1.0
    x_10_53  dem_53  1.0
    x_10_54  OBJ  4.0
    x_10_54  sup_10  1.0
    x_10_54  dem_54  1.0
    x_10_55  OBJ  11.0
    x_10_55  sup_10  1.0
    x_10_55  dem_55  1.0
    x_10_56  OBJ  17.0
    x_10_56  sup_10  1.0
    x_10_56  dem_56  1.0
    x_10_57  OBJ  29.0
    x_10_57  sup_10  1.0
    x_10_57  dem_57  1.0
    x_10_58  OBJ  29.0
    x_10_58  sup_10  1.0
    x_10_58  dem_58  1.0
    x_10_59  OBJ  5.0
    x_10_59  sup_10  1.0
    x_10_59  dem_59  1.0
    x_11_0  OBJ  20.0
    x_11_0  sup_11  1.0
    x_11_0  dem_0  1.0
    x_11_1  OBJ  18.0
    x_11_1  sup_11  1.0
    x_11_1  dem_1  1.0
    x_11_2  OBJ  11.0
    x_11_2  sup_11  1.0
    x_11_2  dem_2  1.0
    x_11_3  OBJ  2.0
    x_11_3  sup_11  1.0
    x_11_3  dem_3  1.0
    x_11_4  OBJ  16.0
    x_11_4  sup_11  1.0
    x_11_4  dem_4  1.0
    x_11_5  OBJ  3.0
    x_11_5  sup_11  1.0
    x_11_5  dem_5  1.0
    x_11_6  OBJ  24.0
    x_11_6  sup_11  1.0
    x_11_6  dem_6  1.0
    x_11_7  OBJ  7.0
    x_11_7  sup_11  1.0
    x_11_7  dem_7  1.0
    x_11_8  OBJ  23.0
    x_11_8  sup_11  1.0
    x_11_8  dem_8  1.0
    x_11_9  OBJ  29.0
    x_11_9  sup_11  1.0
    x_11_9  dem_9  1.0
    x_11_10  OBJ  15.0
    x_11_10  sup_11  1.0
    x_11_10  dem_10  1.0
    x_11_11  OBJ  22.0
    x_11_11  sup_11  1.0
    x_11_11  dem_11  1.0
    x_11_12  OBJ  12.0
    x_11_12  sup_11  1.0
    x_11_12  dem_12  1.0
    x_11_13  OBJ  26.0
    x_11_13  sup_11  1.0
    x_11_13  dem_13  1.0
    x_11_14  OBJ  21.0
    x_11_14  sup_11  1.0
    x_11_14  dem_14  1.0
    x_11_15  OBJ  2.0
    x_11_15  sup_11  1.0
    x_11_15  dem_15  1.0
    x_11_16  OBJ  12.0
    x_11_16  sup_11  1.0
    x_11_16  dem_16  1.0
    x_11_17  OBJ  20.0
    x_11_17  sup_11  1.0
    x_11_17  dem_17  1.0
    x_11_18  OBJ  15.0
    x_11_18  sup_11  1.0
    x_11_18  dem_18  1.0
    x_11_19  OBJ  13.0
    x_11_19  sup_11  1.0
    x_11_19  dem_19  1.0
    x_11_20  OBJ  13.0
    x_11_20  sup_11  1.0
    x_11_20  dem_20  1.0
    x_11_21  OBJ  13.0
    x_11_21  sup_11  1.0
    x_11_21  dem_21  1.0
    x_11_22  OBJ  16.0
    x_11_22  sup_11  1.0
    x_11_22  dem_22  1.0
    x_11_23  OBJ  21.0
    x_11_23  sup_11  1.0
    x_11_23  dem_23  1.0
    x_11_24  OBJ  9.0
    x_11_24  sup_11  1.0
    x_11_24  dem_24  1.0
    x_11_25  OBJ  9.0
    x_11_25  sup_11  1.0
    x_11_25  dem_25  1.0
    x_11_26  OBJ  15.0
    x_11_26  sup_11  1.0
    x_11_26  dem_26  1.0
    x_11_27  OBJ  15.0
    x_11_27  sup_11  1.0
    x_11_27  dem_27  1.0
    x_11_28  OBJ  15.0
    x_11_28  sup_11  1.0
    x_11_28  dem_28  1.0
    x_11_29  OBJ  8.0
    x_11_29  sup_11  1.0
    x_11_29  dem_29  1.0
    x_11_30  OBJ  21.0
    x_11_30  sup_11  1.0
    x_11_30  dem_30  1.0
    x_11_31  OBJ  12.0
    x_11_31  sup_11  1.0
    x_11_31  dem_31  1.0
    x_11_32  OBJ  18.0
    x_11_32  sup_11  1.0
    x_11_32  dem_32  1.0
    x_11_33  OBJ  16.0
    x_11_33  sup_11  1.0
    x_11_33  dem_33  1.0
    x_11_34  OBJ  24.0
    x_11_34  sup_11  1.0
    x_11_34  dem_34  1.0
    x_11_35  OBJ  5.0
    x_11_35  sup_11  1.0
    x_11_35  dem_35  1.0
    x_11_36  OBJ  5.0
    x_11_36  sup_11  1.0
    x_11_36  dem_36  1.0
    x_11_37  OBJ  9.0
    x_11_37  sup_11  1.0
    x_11_37  dem_37  1.0
    x_11_38  OBJ  29.0
    x_11_38  sup_11  1.0
    x_11_38  dem_38  1.0
    x_11_39  OBJ  13.0
    x_11_39  sup_11  1.0
    x_11_39  dem_39  1.0
    x_11_40  OBJ  1.0
    x_11_40  sup_11  1.0
    x_11_40  dem_40  1.0
    x_11_41  OBJ  14.0
    x_11_41  sup_11  1.0
    x_11_41  dem_41  1.0
    x_11_42  OBJ  9.0
    x_11_42  sup_11  1.0
    x_11_42  dem_42  1.0
    x_11_43  OBJ  24.0
    x_11_43  sup_11  1.0
    x_11_43  dem_43  1.0
    x_11_44  OBJ  1.0
    x_11_44  sup_11  1.0
    x_11_44  dem_44  1.0
    x_11_45  OBJ  19.0
    x_11_45  sup_11  1.0
    x_11_45  dem_45  1.0
    x_11_46  OBJ  2.0
    x_11_46  sup_11  1.0
    x_11_46  dem_46  1.0
    x_11_47  OBJ  17.0
    x_11_47  sup_11  1.0
    x_11_47  dem_47  1.0
    x_11_48  OBJ  24.0
    x_11_48  sup_11  1.0
    x_11_48  dem_48  1.0
    x_11_49  OBJ  26.0
    x_11_49  sup_11  1.0
    x_11_49  dem_49  1.0
    x_11_50  OBJ  4.0
    x_11_50  sup_11  1.0
    x_11_50  dem_50  1.0
    x_11_51  OBJ  6.0
    x_11_51  sup_11  1.0
    x_11_51  dem_51  1.0
    x_11_52  OBJ  5.0
    x_11_52  sup_11  1.0
    x_11_52  dem_52  1.0
    x_11_53  OBJ  4.0
    x_11_53  sup_11  1.0
    x_11_53  dem_53  1.0
    x_11_54  OBJ  1.0
    x_11_54  sup_11  1.0
    x_11_54  dem_54  1.0
    x_11_55  OBJ  12.0
    x_11_55  sup_11  1.0
    x_11_55  dem_55  1.0
    x_11_56  OBJ  14.0
    x_11_56  sup_11  1.0
    x_11_56  dem_56  1.0
    x_11_57  OBJ  4.0
    x_11_57  sup_11  1.0
    x_11_57  dem_57  1.0
    x_11_58  OBJ  25.0
    x_11_58  sup_11  1.0
    x_11_58  dem_58  1.0
    x_11_59  OBJ  17.0
    x_11_59  sup_11  1.0
    x_11_59  dem_59  1.0
    x_12_0  OBJ  23.0
    x_12_0  sup_12  1.0
    x_12_0  dem_0  1.0
    x_12_1  OBJ  17.0
    x_12_1  sup_12  1.0
    x_12_1  dem_1  1.0
    x_12_2  OBJ  16.0
    x_12_2  sup_12  1.0
    x_12_2  dem_2  1.0
    x_12_3  OBJ  4.0
    x_12_3  sup_12  1.0
    x_12_3  dem_3  1.0
    x_12_4  OBJ  12.0
    x_12_4  sup_12  1.0
    x_12_4  dem_4  1.0
    x_12_5  OBJ  21.0
    x_12_5  sup_12  1.0
    x_12_5  dem_5  1.0
    x_12_6  OBJ  8.0
    x_12_6  sup_12  1.0
    x_12_6  dem_6  1.0
    x_12_7  OBJ  17.0
    x_12_7  sup_12  1.0
    x_12_7  dem_7  1.0
    x_12_8  OBJ  19.0
    x_12_8  sup_12  1.0
    x_12_8  dem_8  1.0
    x_12_9  OBJ  13.0
    x_12_9  sup_12  1.0
    x_12_9  dem_9  1.0
    x_12_10  OBJ  29.0
    x_12_10  sup_12  1.0
    x_12_10  dem_10  1.0
    x_12_11  OBJ  27.0
    x_12_11  sup_12  1.0
    x_12_11  dem_11  1.0
    x_12_12  OBJ  19.0
    x_12_12  sup_12  1.0
    x_12_12  dem_12  1.0
    x_12_13  OBJ  25.0
    x_12_13  sup_12  1.0
    x_12_13  dem_13  1.0
    x_12_14  OBJ  24.0
    x_12_14  sup_12  1.0
    x_12_14  dem_14  1.0
    x_12_15  OBJ  7.0
    x_12_15  sup_12  1.0
    x_12_15  dem_15  1.0
    x_12_16  OBJ  8.0
    x_12_16  sup_12  1.0
    x_12_16  dem_16  1.0
    x_12_17  OBJ  5.0
    x_12_17  sup_12  1.0
    x_12_17  dem_17  1.0
    x_12_18  OBJ  4.0
    x_12_18  sup_12  1.0
    x_12_18  dem_18  1.0
    x_12_19  OBJ  27.0
    x_12_19  sup_12  1.0
    x_12_19  dem_19  1.0
    x_12_20  OBJ  12.0
    x_12_20  sup_12  1.0
    x_12_20  dem_20  1.0
    x_12_21  OBJ  5.0
    x_12_21  sup_12  1.0
    x_12_21  dem_21  1.0
    x_12_22  OBJ  9.0
    x_12_22  sup_12  1.0
    x_12_22  dem_22  1.0
    x_12_23  OBJ  22.0
    x_12_23  sup_12  1.0
    x_12_23  dem_23  1.0
    x_12_24  OBJ  11.0
    x_12_24  sup_12  1.0
    x_12_24  dem_24  1.0
    x_12_25  OBJ  10.0
    x_12_25  sup_12  1.0
    x_12_25  dem_25  1.0
    x_12_26  OBJ  17.0
    x_12_26  sup_12  1.0
    x_12_26  dem_26  1.0
    x_12_27  OBJ  11.0
    x_12_27  sup_12  1.0
    x_12_27  dem_27  1.0
    x_12_28  OBJ  13.0
    x_12_28  sup_12  1.0
    x_12_28  dem_28  1.0
    x_12_29  OBJ  17.0
    x_12_29  sup_12  1.0
    x_12_29  dem_29  1.0
    x_12_30  OBJ  11.0
    x_12_30  sup_12  1.0
    x_12_30  dem_30  1.0
    x_12_31  OBJ  27.0
    x_12_31  sup_12  1.0
    x_12_31  dem_31  1.0
    x_12_32  OBJ  21.0
    x_12_32  sup_12  1.0
    x_12_32  dem_32  1.0
    x_12_33  OBJ  1.0
    x_12_33  sup_12  1.0
    x_12_33  dem_33  1.0
    x_12_34  OBJ  24.0
    x_12_34  sup_12  1.0
    x_12_34  dem_34  1.0
    x_12_35  OBJ  5.0
    x_12_35  sup_12  1.0
    x_12_35  dem_35  1.0
    x_12_36  OBJ  16.0
    x_12_36  sup_12  1.0
    x_12_36  dem_36  1.0
    x_12_37  OBJ  21.0
    x_12_37  sup_12  1.0
    x_12_37  dem_37  1.0
    x_12_38  OBJ  8.0
    x_12_38  sup_12  1.0
    x_12_38  dem_38  1.0
    x_12_39  OBJ  12.0
    x_12_39  sup_12  1.0
    x_12_39  dem_39  1.0
    x_12_40  OBJ  27.0
    x_12_40  sup_12  1.0
    x_12_40  dem_40  1.0
    x_12_41  OBJ  9.0
    x_12_41  sup_12  1.0
    x_12_41  dem_41  1.0
    x_12_42  OBJ  4.0
    x_12_42  sup_12  1.0
    x_12_42  dem_42  1.0
    x_12_43  OBJ  28.0
    x_12_43  sup_12  1.0
    x_12_43  dem_43  1.0
    x_12_44  OBJ  12.0
    x_12_44  sup_12  1.0
    x_12_44  dem_44  1.0
    x_12_45  OBJ  8.0
    x_12_45  sup_12  1.0
    x_12_45  dem_45  1.0
    x_12_46  OBJ  27.0
    x_12_46  sup_12  1.0
    x_12_46  dem_46  1.0
    x_12_47  OBJ  21.0
    x_12_47  sup_12  1.0
    x_12_47  dem_47  1.0
    x_12_48  OBJ  21.0
    x_12_48  sup_12  1.0
    x_12_48  dem_48  1.0
    x_12_49  OBJ  28.0
    x_12_49  sup_12  1.0
    x_12_49  dem_49  1.0
    x_12_50  OBJ  3.0
    x_12_50  sup_12  1.0
    x_12_50  dem_50  1.0
    x_12_51  OBJ  23.0
    x_12_51  sup_12  1.0
    x_12_51  dem_51  1.0
    x_12_52  OBJ  18.0
    x_12_52  sup_12  1.0
    x_12_52  dem_52  1.0
    x_12_53  OBJ  21.0
    x_12_53  sup_12  1.0
    x_12_53  dem_53  1.0
    x_12_54  OBJ  17.0
    x_12_54  sup_12  1.0
    x_12_54  dem_54  1.0
    x_12_55  OBJ  21.0
    x_12_55  sup_12  1.0
    x_12_55  dem_55  1.0
    x_12_56  OBJ  22.0
    x_12_56  sup_12  1.0
    x_12_56  dem_56  1.0
    x_12_57  OBJ  24.0
    x_12_57  sup_12  1.0
    x_12_57  dem_57  1.0
    x_12_58  OBJ  10.0
    x_12_58  sup_12  1.0
    x_12_58  dem_58  1.0
    x_12_59  OBJ  8.0
    x_12_59  sup_12  1.0
    x_12_59  dem_59  1.0
    x_13_0  OBJ  14.0
    x_13_0  sup_13  1.0
    x_13_0  dem_0  1.0
    x_13_1  OBJ  19.0
    x_13_1  sup_13  1.0
    x_13_1  dem_1  1.0
    x_13_2  OBJ  10.0
    x_13_2  sup_13  1.0
    x_13_2  dem_2  1.0
    x_13_3  OBJ  24.0
    x_13_3  sup_13  1.0
    x_13_3  dem_3  1.0
    x_13_4  OBJ  21.0
    x_13_4  sup_13  1.0
    x_13_4  dem_4  1.0
    x_13_5  OBJ  26.0
    x_13_5  sup_13  1.0
    x_13_5  dem_5  1.0
    x_13_6  OBJ  19.0
    x_13_6  sup_13  1.0
    x_13_6  dem_6  1.0
    x_13_7  OBJ  27.0
    x_13_7  sup_13  1.0
    x_13_7  dem_7  1.0
    x_13_8  OBJ  13.0
    x_13_8  sup_13  1.0
    x_13_8  dem_8  1.0
    x_13_9  OBJ  27.0
    x_13_9  sup_13  1.0
    x_13_9  dem_9  1.0
    x_13_10  OBJ  20.0
    x_13_10  sup_13  1.0
    x_13_10  dem_10  1.0
    x_13_11  OBJ  3.0
    x_13_11  sup_13  1.0
    x_13_11  dem_11  1.0
    x_13_12  OBJ  9.0
    x_13_12  sup_13  1.0
    x_13_12  dem_12  1.0
    x_13_13  OBJ  11.0
    x_13_13  sup_13  1.0
    x_13_13  dem_13  1.0
    x_13_14  OBJ  22.0
    x_13_14  sup_13  1.0
    x_13_14  dem_14  1.0
    x_13_15  OBJ  14.0
    x_13_15  sup_13  1.0
    x_13_15  dem_15  1.0
    x_13_16  OBJ  11.0
    x_13_16  sup_13  1.0
    x_13_16  dem_16  1.0
    x_13_17  OBJ  26.0
    x_13_17  sup_13  1.0
    x_13_17  dem_17  1.0
    x_13_18  OBJ  29.0
    x_13_18  sup_13  1.0
    x_13_18  dem_18  1.0
    x_13_19  OBJ  13.0
    x_13_19  sup_13  1.0
    x_13_19  dem_19  1.0
    x_13_20  OBJ  8.0
    x_13_20  sup_13  1.0
    x_13_20  dem_20  1.0
    x_13_21  OBJ  8.0
    x_13_21  sup_13  1.0
    x_13_21  dem_21  1.0
    x_13_22  OBJ  8.0
    x_13_22  sup_13  1.0
    x_13_22  dem_22  1.0
    x_13_23  OBJ  1.0
    x_13_23  sup_13  1.0
    x_13_23  dem_23  1.0
    x_13_24  OBJ  17.0
    x_13_24  sup_13  1.0
    x_13_24  dem_24  1.0
    x_13_25  OBJ  9.0
    x_13_25  sup_13  1.0
    x_13_25  dem_25  1.0
    x_13_26  OBJ  19.0
    x_13_26  sup_13  1.0
    x_13_26  dem_26  1.0
    x_13_27  OBJ  23.0
    x_13_27  sup_13  1.0
    x_13_27  dem_27  1.0
    x_13_28  OBJ  9.0
    x_13_28  sup_13  1.0
    x_13_28  dem_28  1.0
    x_13_29  OBJ  1.0
    x_13_29  sup_13  1.0
    x_13_29  dem_29  1.0
    x_13_30  OBJ  17.0
    x_13_30  sup_13  1.0
    x_13_30  dem_30  1.0
    x_13_31  OBJ  5.0
    x_13_31  sup_13  1.0
    x_13_31  dem_31  1.0
    x_13_32  OBJ  19.0
    x_13_32  sup_13  1.0
    x_13_32  dem_32  1.0
    x_13_33  OBJ  10.0
    x_13_33  sup_13  1.0
    x_13_33  dem_33  1.0
    x_13_34  OBJ  25.0
    x_13_34  sup_13  1.0
    x_13_34  dem_34  1.0
    x_13_35  OBJ  16.0
    x_13_35  sup_13  1.0
    x_13_35  dem_35  1.0
    x_13_36  OBJ  20.0
    x_13_36  sup_13  1.0
    x_13_36  dem_36  1.0
    x_13_37  OBJ  11.0
    x_13_37  sup_13  1.0
    x_13_37  dem_37  1.0
    x_13_38  OBJ  13.0
    x_13_38  sup_13  1.0
    x_13_38  dem_38  1.0
    x_13_39  OBJ  26.0
    x_13_39  sup_13  1.0
    x_13_39  dem_39  1.0
    x_13_40  OBJ  17.0
    x_13_40  sup_13  1.0
    x_13_40  dem_40  1.0
    x_13_41  OBJ  7.0
    x_13_41  sup_13  1.0
    x_13_41  dem_41  1.0
    x_13_42  OBJ  4.0
    x_13_42  sup_13  1.0
    x_13_42  dem_42  1.0
    x_13_43  OBJ  17.0
    x_13_43  sup_13  1.0
    x_13_43  dem_43  1.0
    x_13_44  OBJ  24.0
    x_13_44  sup_13  1.0
    x_13_44  dem_44  1.0
    x_13_45  OBJ  23.0
    x_13_45  sup_13  1.0
    x_13_45  dem_45  1.0
    x_13_46  OBJ  2.0
    x_13_46  sup_13  1.0
    x_13_46  dem_46  1.0
    x_13_47  OBJ  27.0
    x_13_47  sup_13  1.0
    x_13_47  dem_47  1.0
    x_13_48  OBJ  21.0
    x_13_48  sup_13  1.0
    x_13_48  dem_48  1.0
    x_13_49  OBJ  26.0
    x_13_49  sup_13  1.0
    x_13_49  dem_49  1.0
    x_13_50  OBJ  29.0
    x_13_50  sup_13  1.0
    x_13_50  dem_50  1.0
    x_13_51  OBJ  4.0
    x_13_51  sup_13  1.0
    x_13_51  dem_51  1.0
    x_13_52  OBJ  2.0
    x_13_52  sup_13  1.0
    x_13_52  dem_52  1.0
    x_13_53  OBJ  23.0
    x_13_53  sup_13  1.0
    x_13_53  dem_53  1.0
    x_13_54  OBJ  29.0
    x_13_54  sup_13  1.0
    x_13_54  dem_54  1.0
    x_13_55  OBJ  20.0
    x_13_55  sup_13  1.0
    x_13_55  dem_55  1.0
    x_13_56  OBJ  25.0
    x_13_56  sup_13  1.0
    x_13_56  dem_56  1.0
    x_13_57  OBJ  13.0
    x_13_57  sup_13  1.0
    x_13_57  dem_57  1.0
    x_13_58  OBJ  27.0
    x_13_58  sup_13  1.0
    x_13_58  dem_58  1.0
    x_13_59  OBJ  1.0
    x_13_59  sup_13  1.0
    x_13_59  dem_59  1.0
    x_14_0  OBJ  3.0
    x_14_0  sup_14  1.0
    x_14_0  dem_0  1.0
    x_14_1  OBJ  5.0
    x_14_1  sup_14  1.0
    x_14_1  dem_1  1.0
    x_14_2  OBJ  9.0
    x_14_2  sup_14  1.0
    x_14_2  dem_2  1.0
    x_14_3  OBJ  22.0
    x_14_3  sup_14  1.0
    x_14_3  dem_3  1.0
    x_14_4  OBJ  9.0
    x_14_4  sup_14  1.0
    x_14_4  dem_4  1.0
    x_14_5  OBJ  3.0
    x_14_5  sup_14  1.0
    x_14_5  dem_5  1.0
    x_14_6  OBJ  27.0
    x_14_6  sup_14  1.0
    x_14_6  dem_6  1.0
    x_14_7  OBJ  10.0
    x_14_7  sup_14  1.0
    x_14_7  dem_7  1.0
    x_14_8  OBJ  27.0
    x_14_8  sup_14  1.0
    x_14_8  dem_8  1.0
    x_14_9  OBJ  8.0
    x_14_9  sup_14  1.0
    x_14_9  dem_9  1.0
    x_14_10  OBJ  21.0
    x_14_10  sup_14  1.0
    x_14_10  dem_10  1.0
    x_14_11  OBJ  22.0
    x_14_11  sup_14  1.0
    x_14_11  dem_11  1.0
    x_14_12  OBJ  18.0
    x_14_12  sup_14  1.0
    x_14_12  dem_12  1.0
    x_14_13  OBJ  11.0
    x_14_13  sup_14  1.0
    x_14_13  dem_13  1.0
    x_14_14  OBJ  19.0
    x_14_14  sup_14  1.0
    x_14_14  dem_14  1.0
    x_14_15  OBJ  3.0
    x_14_15  sup_14  1.0
    x_14_15  dem_15  1.0
    x_14_16  OBJ  11.0
    x_14_16  sup_14  1.0
    x_14_16  dem_16  1.0
    x_14_17  OBJ  11.0
    x_14_17  sup_14  1.0
    x_14_17  dem_17  1.0
    x_14_18  OBJ  26.0
    x_14_18  sup_14  1.0
    x_14_18  dem_18  1.0
    x_14_19  OBJ  10.0
    x_14_19  sup_14  1.0
    x_14_19  dem_19  1.0
    x_14_20  OBJ  5.0
    x_14_20  sup_14  1.0
    x_14_20  dem_20  1.0
    x_14_21  OBJ  21.0
    x_14_21  sup_14  1.0
    x_14_21  dem_21  1.0
    x_14_22  OBJ  14.0
    x_14_22  sup_14  1.0
    x_14_22  dem_22  1.0
    x_14_23  OBJ  10.0
    x_14_23  sup_14  1.0
    x_14_23  dem_23  1.0
    x_14_24  OBJ  25.0
    x_14_24  sup_14  1.0
    x_14_24  dem_24  1.0
    x_14_25  OBJ  21.0
    x_14_25  sup_14  1.0
    x_14_25  dem_25  1.0
    x_14_26  OBJ  9.0
    x_14_26  sup_14  1.0
    x_14_26  dem_26  1.0
    x_14_27  OBJ  16.0
    x_14_27  sup_14  1.0
    x_14_27  dem_27  1.0
    x_14_28  OBJ  28.0
    x_14_28  sup_14  1.0
    x_14_28  dem_28  1.0
    x_14_29  OBJ  26.0
    x_14_29  sup_14  1.0
    x_14_29  dem_29  1.0
    x_14_30  OBJ  24.0
    x_14_30  sup_14  1.0
    x_14_30  dem_30  1.0
    x_14_31  OBJ  22.0
    x_14_31  sup_14  1.0
    x_14_31  dem_31  1.0
    x_14_32  OBJ  18.0
    x_14_32  sup_14  1.0
    x_14_32  dem_32  1.0
    x_14_33  OBJ  12.0
    x_14_33  sup_14  1.0
    x_14_33  dem_33  1.0
    x_14_34  OBJ  6.0
    x_14_34  sup_14  1.0
    x_14_34  dem_34  1.0
    x_14_35  OBJ  15.0
    x_14_35  sup_14  1.0
    x_14_35  dem_35  1.0
    x_14_36  OBJ  13.0
    x_14_36  sup_14  1.0
    x_14_36  dem_36  1.0
    x_14_37  OBJ  14.0
    x_14_37  sup_14  1.0
    x_14_37  dem_37  1.0
    x_14_38  OBJ  6.0
    x_14_38  sup_14  1.0
    x_14_38  dem_38  1.0
    x_14_39  OBJ  26.0
    x_14_39  sup_14  1.0
    x_14_39  dem_39  1.0
    x_14_40  OBJ  5.0
    x_14_40  sup_14  1.0
    x_14_40  dem_40  1.0
    x_14_41  OBJ  5.0
    x_14_41  sup_14  1.0
    x_14_41  dem_41  1.0
    x_14_42  OBJ  11.0
    x_14_42  sup_14  1.0
    x_14_42  dem_42  1.0
    x_14_43  OBJ  13.0
    x_14_43  sup_14  1.0
    x_14_43  dem_43  1.0
    x_14_44  OBJ  4.0
    x_14_44  sup_14  1.0
    x_14_44  dem_44  1.0
    x_14_45  OBJ  16.0
    x_14_45  sup_14  1.0
    x_14_45  dem_45  1.0
    x_14_46  OBJ  7.0
    x_14_46  sup_14  1.0
    x_14_46  dem_46  1.0
    x_14_47  OBJ  13.0
    x_14_47  sup_14  1.0
    x_14_47  dem_47  1.0
    x_14_48  OBJ  4.0
    x_14_48  sup_14  1.0
    x_14_48  dem_48  1.0
    x_14_49  OBJ  18.0
    x_14_49  sup_14  1.0
    x_14_49  dem_49  1.0
    x_14_50  OBJ  20.0
    x_14_50  sup_14  1.0
    x_14_50  dem_50  1.0
    x_14_51  OBJ  15.0
    x_14_51  sup_14  1.0
    x_14_51  dem_51  1.0
    x_14_52  OBJ  7.0
    x_14_52  sup_14  1.0
    x_14_52  dem_52  1.0
    x_14_53  OBJ  12.0
    x_14_53  sup_14  1.0
    x_14_53  dem_53  1.0
    x_14_54  OBJ  25.0
    x_14_54  sup_14  1.0
    x_14_54  dem_54  1.0
    x_14_55  OBJ  20.0
    x_14_55  sup_14  1.0
    x_14_55  dem_55  1.0
    x_14_56  OBJ  2.0
    x_14_56  sup_14  1.0
    x_14_56  dem_56  1.0
    x_14_57  OBJ  10.0
    x_14_57  sup_14  1.0
    x_14_57  dem_57  1.0
    x_14_58  OBJ  18.0
    x_14_58  sup_14  1.0
    x_14_58  dem_58  1.0
    x_14_59  OBJ  18.0
    x_14_59  sup_14  1.0
    x_14_59  dem_59  1.0
    x_15_0  OBJ  1.0
    x_15_0  sup_15  1.0
    x_15_0  dem_0  1.0
    x_15_1  OBJ  22.0
    x_15_1  sup_15  1.0
    x_15_1  dem_1  1.0
    x_15_2  OBJ  2.0
    x_15_2  sup_15  1.0
    x_15_2  dem_2  1.0
    x_15_3  OBJ  4.0
    x_15_3  sup_15  1.0
    x_15_3  dem_3  1.0
    x_15_4  OBJ  20.0
    x_15_4  sup_15  1.0
    x_15_4  dem_4  1.0
    x_15_5  OBJ  10.0
    x_15_5  sup_15  1.0
    x_15_5  dem_5  1.0
    x_15_6  OBJ  20.0
    x_15_6  sup_15  1.0
    x_15_6  dem_6  1.0
    x_15_7  OBJ  28.0
    x_15_7  sup_15  1.0
    x_15_7  dem_7  1.0
    x_15_8  OBJ  10.0
    x_15_8  sup_15  1.0
    x_15_8  dem_8  1.0
    x_15_9  OBJ  29.0
    x_15_9  sup_15  1.0
    x_15_9  dem_9  1.0
    x_15_10  OBJ  17.0
    x_15_10  sup_15  1.0
    x_15_10  dem_10  1.0
    x_15_11  OBJ  29.0
    x_15_11  sup_15  1.0
    x_15_11  dem_11  1.0
    x_15_12  OBJ  23.0
    x_15_12  sup_15  1.0
    x_15_12  dem_12  1.0
    x_15_13  OBJ  2.0
    x_15_13  sup_15  1.0
    x_15_13  dem_13  1.0
    x_15_14  OBJ  10.0
    x_15_14  sup_15  1.0
    x_15_14  dem_14  1.0
    x_15_15  OBJ  24.0
    x_15_15  sup_15  1.0
    x_15_15  dem_15  1.0
    x_15_16  OBJ  23.0
    x_15_16  sup_15  1.0
    x_15_16  dem_16  1.0
    x_15_17  OBJ  28.0
    x_15_17  sup_15  1.0
    x_15_17  dem_17  1.0
    x_15_18  OBJ  25.0
    x_15_18  sup_15  1.0
    x_15_18  dem_18  1.0
    x_15_19  OBJ  27.0
    x_15_19  sup_15  1.0
    x_15_19  dem_19  1.0
    x_15_20  OBJ  1.0
    x_15_20  sup_15  1.0
    x_15_20  dem_20  1.0
    x_15_21  OBJ  21.0
    x_15_21  sup_15  1.0
    x_15_21  dem_21  1.0
    x_15_22  OBJ  8.0
    x_15_22  sup_15  1.0
    x_15_22  dem_22  1.0
    x_15_23  OBJ  20.0
    x_15_23  sup_15  1.0
    x_15_23  dem_23  1.0
    x_15_24  OBJ  24.0
    x_15_24  sup_15  1.0
    x_15_24  dem_24  1.0
    x_15_25  OBJ  21.0
    x_15_25  sup_15  1.0
    x_15_25  dem_25  1.0
    x_15_26  OBJ  26.0
    x_15_26  sup_15  1.0
    x_15_26  dem_26  1.0
    x_15_27  OBJ  17.0
    x_15_27  sup_15  1.0
    x_15_27  dem_27  1.0
    x_15_28  OBJ  13.0
    x_15_28  sup_15  1.0
    x_15_28  dem_28  1.0
    x_15_29  OBJ  23.0
    x_15_29  sup_15  1.0
    x_15_29  dem_29  1.0
    x_15_30  OBJ  7.0
    x_15_30  sup_15  1.0
    x_15_30  dem_30  1.0
    x_15_31  OBJ  15.0
    x_15_31  sup_15  1.0
    x_15_31  dem_31  1.0
    x_15_32  OBJ  29.0
    x_15_32  sup_15  1.0
    x_15_32  dem_32  1.0
    x_15_33  OBJ  7.0
    x_15_33  sup_15  1.0
    x_15_33  dem_33  1.0
    x_15_34  OBJ  21.0
    x_15_34  sup_15  1.0
    x_15_34  dem_34  1.0
    x_15_35  OBJ  3.0
    x_15_35  sup_15  1.0
    x_15_35  dem_35  1.0
    x_15_36  OBJ  29.0
    x_15_36  sup_15  1.0
    x_15_36  dem_36  1.0
    x_15_37  OBJ  27.0
    x_15_37  sup_15  1.0
    x_15_37  dem_37  1.0
    x_15_38  OBJ  17.0
    x_15_38  sup_15  1.0
    x_15_38  dem_38  1.0
    x_15_39  OBJ  22.0
    x_15_39  sup_15  1.0
    x_15_39  dem_39  1.0
    x_15_40  OBJ  17.0
    x_15_40  sup_15  1.0
    x_15_40  dem_40  1.0
    x_15_41  OBJ  6.0
    x_15_41  sup_15  1.0
    x_15_41  dem_41  1.0
    x_15_42  OBJ  13.0
    x_15_42  sup_15  1.0
    x_15_42  dem_42  1.0
    x_15_43  OBJ  24.0
    x_15_43  sup_15  1.0
    x_15_43  dem_43  1.0
    x_15_44  OBJ  8.0
    x_15_44  sup_15  1.0
    x_15_44  dem_44  1.0
    x_15_45  OBJ  9.0
    x_15_45  sup_15  1.0
    x_15_45  dem_45  1.0
    x_15_46  OBJ  22.0
    x_15_46  sup_15  1.0
    x_15_46  dem_46  1.0
    x_15_47  OBJ  19.0
    x_15_47  sup_15  1.0
    x_15_47  dem_47  1.0
    x_15_48  OBJ  12.0
    x_15_48  sup_15  1.0
    x_15_48  dem_48  1.0
    x_15_49  OBJ  11.0
    x_15_49  sup_15  1.0
    x_15_49  dem_49  1.0
    x_15_50  OBJ  24.0
    x_15_50  sup_15  1.0
    x_15_50  dem_50  1.0
    x_15_51  OBJ  7.0
    x_15_51  sup_15  1.0
    x_15_51  dem_51  1.0
    x_15_52  OBJ  10.0
    x_15_52  sup_15  1.0
    x_15_52  dem_52  1.0
    x_15_53  OBJ  6.0
    x_15_53  sup_15  1.0
    x_15_53  dem_53  1.0
    x_15_54  OBJ  9.0
    x_15_54  sup_15  1.0
    x_15_54  dem_54  1.0
    x_15_55  OBJ  3.0
    x_15_55  sup_15  1.0
    x_15_55  dem_55  1.0
    x_15_56  OBJ  9.0
    x_15_56  sup_15  1.0
    x_15_56  dem_56  1.0
    x_15_57  OBJ  3.0
    x_15_57  sup_15  1.0
    x_15_57  dem_57  1.0
    x_15_58  OBJ  17.0
    x_15_58  sup_15  1.0
    x_15_58  dem_58  1.0
    x_15_59  OBJ  3.0
    x_15_59  sup_15  1.0
    x_15_59  dem_59  1.0
    x_16_0  OBJ  1.0
    x_16_0  sup_16  1.0
    x_16_0  dem_0  1.0
    x_16_1  OBJ  3.0
    x_16_1  sup_16  1.0
    x_16_1  dem_1  1.0
    x_16_2  OBJ  5.0
    x_16_2  sup_16  1.0
    x_16_2  dem_2  1.0
    x_16_3  OBJ  25.0
    x_16_3  sup_16  1.0
    x_16_3  dem_3  1.0
    x_16_4  OBJ  20.0
    x_16_4  sup_16  1.0
    x_16_4  dem_4  1.0
    x_16_5  OBJ  16.0
    x_16_5  sup_16  1.0
    x_16_5  dem_5  1.0
    x_16_6  OBJ  11.0
    x_16_6  sup_16  1.0
    x_16_6  dem_6  1.0
    x_16_7  OBJ  4.0
    x_16_7  sup_16  1.0
    x_16_7  dem_7  1.0
    x_16_8  OBJ  16.0
    x_16_8  sup_16  1.0
    x_16_8  dem_8  1.0
    x_16_9  OBJ  16.0
    x_16_9  sup_16  1.0
    x_16_9  dem_9  1.0
    x_16_10  OBJ  15.0
    x_16_10  sup_16  1.0
    x_16_10  dem_10  1.0
    x_16_11  OBJ  16.0
    x_16_11  sup_16  1.0
    x_16_11  dem_11  1.0
    x_16_12  OBJ  16.0
    x_16_12  sup_16  1.0
    x_16_12  dem_12  1.0
    x_16_13  OBJ  15.0
    x_16_13  sup_16  1.0
    x_16_13  dem_13  1.0
    x_16_14  OBJ  3.0
    x_16_14  sup_16  1.0
    x_16_14  dem_14  1.0
    x_16_15  OBJ  6.0
    x_16_15  sup_16  1.0
    x_16_15  dem_15  1.0
    x_16_16  OBJ  3.0
    x_16_16  sup_16  1.0
    x_16_16  dem_16  1.0
    x_16_17  OBJ  13.0
    x_16_17  sup_16  1.0
    x_16_17  dem_17  1.0
    x_16_18  OBJ  18.0
    x_16_18  sup_16  1.0
    x_16_18  dem_18  1.0
    x_16_19  OBJ  26.0
    x_16_19  sup_16  1.0
    x_16_19  dem_19  1.0
    x_16_20  OBJ  12.0
    x_16_20  sup_16  1.0
    x_16_20  dem_20  1.0
    x_16_21  OBJ  12.0
    x_16_21  sup_16  1.0
    x_16_21  dem_21  1.0
    x_16_22  OBJ  29.0
    x_16_22  sup_16  1.0
    x_16_22  dem_22  1.0
    x_16_23  OBJ  15.0
    x_16_23  sup_16  1.0
    x_16_23  dem_23  1.0
    x_16_24  OBJ  12.0
    x_16_24  sup_16  1.0
    x_16_24  dem_24  1.0
    x_16_25  OBJ  27.0
    x_16_25  sup_16  1.0
    x_16_25  dem_25  1.0
    x_16_26  OBJ  19.0
    x_16_26  sup_16  1.0
    x_16_26  dem_26  1.0
    x_16_27  OBJ  7.0
    x_16_27  sup_16  1.0
    x_16_27  dem_27  1.0
    x_16_28  OBJ  25.0
    x_16_28  sup_16  1.0
    x_16_28  dem_28  1.0
    x_16_29  OBJ  22.0
    x_16_29  sup_16  1.0
    x_16_29  dem_29  1.0
    x_16_30  OBJ  5.0
    x_16_30  sup_16  1.0
    x_16_30  dem_30  1.0
    x_16_31  OBJ  15.0
    x_16_31  sup_16  1.0
    x_16_31  dem_31  1.0
    x_16_32  OBJ  16.0
    x_16_32  sup_16  1.0
    x_16_32  dem_32  1.0
    x_16_33  OBJ  23.0
    x_16_33  sup_16  1.0
    x_16_33  dem_33  1.0
    x_16_34  OBJ  13.0
    x_16_34  sup_16  1.0
    x_16_34  dem_34  1.0
    x_16_35  OBJ  11.0
    x_16_35  sup_16  1.0
    x_16_35  dem_35  1.0
    x_16_36  OBJ  18.0
    x_16_36  sup_16  1.0
    x_16_36  dem_36  1.0
    x_16_37  OBJ  16.0
    x_16_37  sup_16  1.0
    x_16_37  dem_37  1.0
    x_16_38  OBJ  17.0
    x_16_38  sup_16  1.0
    x_16_38  dem_38  1.0
    x_16_39  OBJ  11.0
    x_16_39  sup_16  1.0
    x_16_39  dem_39  1.0
    x_16_40  OBJ  6.0
    x_16_40  sup_16  1.0
    x_16_40  dem_40  1.0
    x_16_41  OBJ  26.0
    x_16_41  sup_16  1.0
    x_16_41  dem_41  1.0
    x_16_42  OBJ  26.0
    x_16_42  sup_16  1.0
    x_16_42  dem_42  1.0
    x_16_43  OBJ  27.0
    x_16_43  sup_16  1.0
    x_16_43  dem_43  1.0
    x_16_44  OBJ  3.0
    x_16_44  sup_16  1.0
    x_16_44  dem_44  1.0
    x_16_45  OBJ  19.0
    x_16_45  sup_16  1.0
    x_16_45  dem_45  1.0
    x_16_46  OBJ  10.0
    x_16_46  sup_16  1.0
    x_16_46  dem_46  1.0
    x_16_47  OBJ  29.0
    x_16_47  sup_16  1.0
    x_16_47  dem_47  1.0
    x_16_48  OBJ  19.0
    x_16_48  sup_16  1.0
    x_16_48  dem_48  1.0
    x_16_49  OBJ  22.0
    x_16_49  sup_16  1.0
    x_16_49  dem_49  1.0
    x_16_50  OBJ  18.0
    x_16_50  sup_16  1.0
    x_16_50  dem_50  1.0
    x_16_51  OBJ  25.0
    x_16_51  sup_16  1.0
    x_16_51  dem_51  1.0
    x_16_52  OBJ  7.0
    x_16_52  sup_16  1.0
    x_16_52  dem_52  1.0
    x_16_53  OBJ  26.0
    x_16_53  sup_16  1.0
    x_16_53  dem_53  1.0
    x_16_54  OBJ  12.0
    x_16_54  sup_16  1.0
    x_16_54  dem_54  1.0
    x_16_55  OBJ  8.0
    x_16_55  sup_16  1.0
    x_16_55  dem_55  1.0
    x_16_56  OBJ  12.0
    x_16_56  sup_16  1.0
    x_16_56  dem_56  1.0
    x_16_57  OBJ  29.0
    x_16_57  sup_16  1.0
    x_16_57  dem_57  1.0
    x_16_58  OBJ  5.0
    x_16_58  sup_16  1.0
    x_16_58  dem_58  1.0
    x_16_59  OBJ  12.0
    x_16_59  sup_16  1.0
    x_16_59  dem_59  1.0
    x_17_0  OBJ  25.0
    x_17_0  sup_17  1.0
    x_17_0  dem_0  1.0
    x_17_1  OBJ  15.0
    x_17_1  sup_17  1.0
    x_17_1  dem_1  1.0
    x_17_2  OBJ  6.0
    x_17_2  sup_17  1.0
    x_17_2  dem_2  1.0
    x_17_3  OBJ  6.0
    x_17_3  sup_17  1.0
    x_17_3  dem_3  1.0
    x_17_4  OBJ  28.0
    x_17_4  sup_17  1.0
    x_17_4  dem_4  1.0
    x_17_5  OBJ  24.0
    x_17_5  sup_17  1.0
    x_17_5  dem_5  1.0
    x_17_6  OBJ  22.0
    x_17_6  sup_17  1.0
    x_17_6  dem_6  1.0
    x_17_7  OBJ  10.0
    x_17_7  sup_17  1.0
    x_17_7  dem_7  1.0
    x_17_8  OBJ  2.0
    x_17_8  sup_17  1.0
    x_17_8  dem_8  1.0
    x_17_9  OBJ  20.0
    x_17_9  sup_17  1.0
    x_17_9  dem_9  1.0
    x_17_10  OBJ  25.0
    x_17_10  sup_17  1.0
    x_17_10  dem_10  1.0
    x_17_11  OBJ  7.0
    x_17_11  sup_17  1.0
    x_17_11  dem_11  1.0
    x_17_12  OBJ  4.0
    x_17_12  sup_17  1.0
    x_17_12  dem_12  1.0
    x_17_13  OBJ  11.0
    x_17_13  sup_17  1.0
    x_17_13  dem_13  1.0
    x_17_14  OBJ  8.0
    x_17_14  sup_17  1.0
    x_17_14  dem_14  1.0
    x_17_15  OBJ  12.0
    x_17_15  sup_17  1.0
    x_17_15  dem_15  1.0
    x_17_16  OBJ  12.0
    x_17_16  sup_17  1.0
    x_17_16  dem_16  1.0
    x_17_17  OBJ  7.0
    x_17_17  sup_17  1.0
    x_17_17  dem_17  1.0
    x_17_18  OBJ  29.0
    x_17_18  sup_17  1.0
    x_17_18  dem_18  1.0
    x_17_19  OBJ  2.0
    x_17_19  sup_17  1.0
    x_17_19  dem_19  1.0
    x_17_20  OBJ  22.0
    x_17_20  sup_17  1.0
    x_17_20  dem_20  1.0
    x_17_21  OBJ  23.0
    x_17_21  sup_17  1.0
    x_17_21  dem_21  1.0
    x_17_22  OBJ  13.0
    x_17_22  sup_17  1.0
    x_17_22  dem_22  1.0
    x_17_23  OBJ  28.0
    x_17_23  sup_17  1.0
    x_17_23  dem_23  1.0
    x_17_24  OBJ  29.0
    x_17_24  sup_17  1.0
    x_17_24  dem_24  1.0
    x_17_25  OBJ  7.0
    x_17_25  sup_17  1.0
    x_17_25  dem_25  1.0
    x_17_26  OBJ  6.0
    x_17_26  sup_17  1.0
    x_17_26  dem_26  1.0
    x_17_27  OBJ  5.0
    x_17_27  sup_17  1.0
    x_17_27  dem_27  1.0
    x_17_28  OBJ  4.0
    x_17_28  sup_17  1.0
    x_17_28  dem_28  1.0
    x_17_29  OBJ  11.0
    x_17_29  sup_17  1.0
    x_17_29  dem_29  1.0
    x_17_30  OBJ  7.0
    x_17_30  sup_17  1.0
    x_17_30  dem_30  1.0
    x_17_31  OBJ  3.0
    x_17_31  sup_17  1.0
    x_17_31  dem_31  1.0
    x_17_32  OBJ  16.0
    x_17_32  sup_17  1.0
    x_17_32  dem_32  1.0
    x_17_33  OBJ  19.0
    x_17_33  sup_17  1.0
    x_17_33  dem_33  1.0
    x_17_34  OBJ  24.0
    x_17_34  sup_17  1.0
    x_17_34  dem_34  1.0
    x_17_35  OBJ  11.0
    x_17_35  sup_17  1.0
    x_17_35  dem_35  1.0
    x_17_36  OBJ  9.0
    x_17_36  sup_17  1.0
    x_17_36  dem_36  1.0
    x_17_37  OBJ  17.0
    x_17_37  sup_17  1.0
    x_17_37  dem_37  1.0
    x_17_38  OBJ  16.0
    x_17_38  sup_17  1.0
    x_17_38  dem_38  1.0
    x_17_39  OBJ  27.0
    x_17_39  sup_17  1.0
    x_17_39  dem_39  1.0
    x_17_40  OBJ  15.0
    x_17_40  sup_17  1.0
    x_17_40  dem_40  1.0
    x_17_41  OBJ  25.0
    x_17_41  sup_17  1.0
    x_17_41  dem_41  1.0
    x_17_42  OBJ  3.0
    x_17_42  sup_17  1.0
    x_17_42  dem_42  1.0
    x_17_43  OBJ  27.0
    x_17_43  sup_17  1.0
    x_17_43  dem_43  1.0
    x_17_44  OBJ  12.0
    x_17_44  sup_17  1.0
    x_17_44  dem_44  1.0
    x_17_45  OBJ  28.0
    x_17_45  sup_17  1.0
    x_17_45  dem_45  1.0
    x_17_46  OBJ  4.0
    x_17_46  sup_17  1.0
    x_17_46  dem_46  1.0
    x_17_47  OBJ  18.0
    x_17_47  sup_17  1.0
    x_17_47  dem_47  1.0
    x_17_48  OBJ  17.0
    x_17_48  sup_17  1.0
    x_17_48  dem_48  1.0
    x_17_49  OBJ  15.0
    x_17_49  sup_17  1.0
    x_17_49  dem_49  1.0
    x_17_50  OBJ  8.0
    x_17_50  sup_17  1.0
    x_17_50  dem_50  1.0
    x_17_51  OBJ  2.0
    x_17_51  sup_17  1.0
    x_17_51  dem_51  1.0
    x_17_52  OBJ  4.0
    x_17_52  sup_17  1.0
    x_17_52  dem_52  1.0
    x_17_53  OBJ  3.0
    x_17_53  sup_17  1.0
    x_17_53  dem_53  1.0
    x_17_54  OBJ  18.0
    x_17_54  sup_17  1.0
    x_17_54  dem_54  1.0
    x_17_55  OBJ  16.0
    x_17_55  sup_17  1.0
    x_17_55  dem_55  1.0
    x_17_56  OBJ  12.0
    x_17_56  sup_17  1.0
    x_17_56  dem_56  1.0
    x_17_57  OBJ  25.0
    x_17_57  sup_17  1.0
    x_17_57  dem_57  1.0
    x_17_58  OBJ  11.0
    x_17_58  sup_17  1.0
    x_17_58  dem_58  1.0
    x_17_59  OBJ  13.0
    x_17_59  sup_17  1.0
    x_17_59  dem_59  1.0
    x_18_0  OBJ  2.0
    x_18_0  sup_18  1.0
    x_18_0  dem_0  1.0
    x_18_1  OBJ  1.0
    x_18_1  sup_18  1.0
    x_18_1  dem_1  1.0
    x_18_2  OBJ  28.0
    x_18_2  sup_18  1.0
    x_18_2  dem_2  1.0
    x_18_3  OBJ  7.0
    x_18_3  sup_18  1.0
    x_18_3  dem_3  1.0
    x_18_4  OBJ  6.0
    x_18_4  sup_18  1.0
    x_18_4  dem_4  1.0
    x_18_5  OBJ  23.0
    x_18_5  sup_18  1.0
    x_18_5  dem_5  1.0
    x_18_6  OBJ  25.0
    x_18_6  sup_18  1.0
    x_18_6  dem_6  1.0
    x_18_7  OBJ  5.0
    x_18_7  sup_18  1.0
    x_18_7  dem_7  1.0
    x_18_8  OBJ  16.0
    x_18_8  sup_18  1.0
    x_18_8  dem_8  1.0
    x_18_9  OBJ  6.0
    x_18_9  sup_18  1.0
    x_18_9  dem_9  1.0
    x_18_10  OBJ  17.0
    x_18_10  sup_18  1.0
    x_18_10  dem_10  1.0
    x_18_11  OBJ  9.0
    x_18_11  sup_18  1.0
    x_18_11  dem_11  1.0
    x_18_12  OBJ  10.0
    x_18_12  sup_18  1.0
    x_18_12  dem_12  1.0
    x_18_13  OBJ  18.0
    x_18_13  sup_18  1.0
    x_18_13  dem_13  1.0
    x_18_14  OBJ  28.0
    x_18_14  sup_18  1.0
    x_18_14  dem_14  1.0
    x_18_15  OBJ  25.0
    x_18_15  sup_18  1.0
    x_18_15  dem_15  1.0
    x_18_16  OBJ  1.0
    x_18_16  sup_18  1.0
    x_18_16  dem_16  1.0
    x_18_17  OBJ  7.0
    x_18_17  sup_18  1.0
    x_18_17  dem_17  1.0
    x_18_18  OBJ  26.0
    x_18_18  sup_18  1.0
    x_18_18  dem_18  1.0
    x_18_19  OBJ  18.0
    x_18_19  sup_18  1.0
    x_18_19  dem_19  1.0
    x_18_20  OBJ  9.0
    x_18_20  sup_18  1.0
    x_18_20  dem_20  1.0
    x_18_21  OBJ  16.0
    x_18_21  sup_18  1.0
    x_18_21  dem_21  1.0
    x_18_22  OBJ  29.0
    x_18_22  sup_18  1.0
    x_18_22  dem_22  1.0
    x_18_23  OBJ  13.0
    x_18_23  sup_18  1.0
    x_18_23  dem_23  1.0
    x_18_24  OBJ  1.0
    x_18_24  sup_18  1.0
    x_18_24  dem_24  1.0
    x_18_25  OBJ  17.0
    x_18_25  sup_18  1.0
    x_18_25  dem_25  1.0
    x_18_26  OBJ  24.0
    x_18_26  sup_18  1.0
    x_18_26  dem_26  1.0
    x_18_27  OBJ  24.0
    x_18_27  sup_18  1.0
    x_18_27  dem_27  1.0
    x_18_28  OBJ  21.0
    x_18_28  sup_18  1.0
    x_18_28  dem_28  1.0
    x_18_29  OBJ  7.0
    x_18_29  sup_18  1.0
    x_18_29  dem_29  1.0
    x_18_30  OBJ  14.0
    x_18_30  sup_18  1.0
    x_18_30  dem_30  1.0
    x_18_31  OBJ  15.0
    x_18_31  sup_18  1.0
    x_18_31  dem_31  1.0
    x_18_32  OBJ  22.0
    x_18_32  sup_18  1.0
    x_18_32  dem_32  1.0
    x_18_33  OBJ  3.0
    x_18_33  sup_18  1.0
    x_18_33  dem_33  1.0
    x_18_34  OBJ  3.0
    x_18_34  sup_18  1.0
    x_18_34  dem_34  1.0
    x_18_35  OBJ  15.0
    x_18_35  sup_18  1.0
    x_18_35  dem_35  1.0
    x_18_36  OBJ  3.0
    x_18_36  sup_18  1.0
    x_18_36  dem_36  1.0
    x_18_37  OBJ  23.0
    x_18_37  sup_18  1.0
    x_18_37  dem_37  1.0
    x_18_38  OBJ  14.0
    x_18_38  sup_18  1.0
    x_18_38  dem_38  1.0
    x_18_39  OBJ  29.0
    x_18_39  sup_18  1.0
    x_18_39  dem_39  1.0
    x_18_40  OBJ  7.0
    x_18_40  sup_18  1.0
    x_18_40  dem_40  1.0
    x_18_41  OBJ  14.0
    x_18_41  sup_18  1.0
    x_18_41  dem_41  1.0
    x_18_42  OBJ  26.0
    x_18_42  sup_18  1.0
    x_18_42  dem_42  1.0
    x_18_43  OBJ  9.0
    x_18_43  sup_18  1.0
    x_18_43  dem_43  1.0
    x_18_44  OBJ  8.0
    x_18_44  sup_18  1.0
    x_18_44  dem_44  1.0
    x_18_45  OBJ  17.0
    x_18_45  sup_18  1.0
    x_18_45  dem_45  1.0
    x_18_46  OBJ  19.0
    x_18_46  sup_18  1.0
    x_18_46  dem_46  1.0
    x_18_47  OBJ  11.0
    x_18_47  sup_18  1.0
    x_18_47  dem_47  1.0
    x_18_48  OBJ  24.0
    x_18_48  sup_18  1.0
    x_18_48  dem_48  1.0
    x_18_49  OBJ  4.0
    x_18_49  sup_18  1.0
    x_18_49  dem_49  1.0
    x_18_50  OBJ  20.0
    x_18_50  sup_18  1.0
    x_18_50  dem_50  1.0
    x_18_51  OBJ  16.0
    x_18_51  sup_18  1.0
    x_18_51  dem_51  1.0
    x_18_52  OBJ  28.0
    x_18_52  sup_18  1.0
    x_18_52  dem_52  1.0
    x_18_53  OBJ  24.0
    x_18_53  sup_18  1.0
    x_18_53  dem_53  1.0
    x_18_54  OBJ  25.0
    x_18_54  sup_18  1.0
    x_18_54  dem_54  1.0
    x_18_55  OBJ  26.0
    x_18_55  sup_18  1.0
    x_18_55  dem_55  1.0
    x_18_56  OBJ  1.0
    x_18_56  sup_18  1.0
    x_18_56  dem_56  1.0
    x_18_57  OBJ  29.0
    x_18_57  sup_18  1.0
    x_18_57  dem_57  1.0
    x_18_58  OBJ  4.0
    x_18_58  sup_18  1.0
    x_18_58  dem_58  1.0
    x_18_59  OBJ  11.0
    x_18_59  sup_18  1.0
    x_18_59  dem_59  1.0
    x_19_0  OBJ  8.0
    x_19_0  sup_19  1.0
    x_19_0  dem_0  1.0
    x_19_1  OBJ  8.0
    x_19_1  sup_19  1.0
    x_19_1  dem_1  1.0
    x_19_2  OBJ  3.0
    x_19_2  sup_19  1.0
    x_19_2  dem_2  1.0
    x_19_3  OBJ  4.0
    x_19_3  sup_19  1.0
    x_19_3  dem_3  1.0
    x_19_4  OBJ  8.0
    x_19_4  sup_19  1.0
    x_19_4  dem_4  1.0
    x_19_5  OBJ  13.0
    x_19_5  sup_19  1.0
    x_19_5  dem_5  1.0
    x_19_6  OBJ  8.0
    x_19_6  sup_19  1.0
    x_19_6  dem_6  1.0
    x_19_7  OBJ  24.0
    x_19_7  sup_19  1.0
    x_19_7  dem_7  1.0
    x_19_8  OBJ  1.0
    x_19_8  sup_19  1.0
    x_19_8  dem_8  1.0
    x_19_9  OBJ  7.0
    x_19_9  sup_19  1.0
    x_19_9  dem_9  1.0
    x_19_10  OBJ  29.0
    x_19_10  sup_19  1.0
    x_19_10  dem_10  1.0
    x_19_11  OBJ  25.0
    x_19_11  sup_19  1.0
    x_19_11  dem_11  1.0
    x_19_12  OBJ  26.0
    x_19_12  sup_19  1.0
    x_19_12  dem_12  1.0
    x_19_13  OBJ  21.0
    x_19_13  sup_19  1.0
    x_19_13  dem_13  1.0
    x_19_14  OBJ  16.0
    x_19_14  sup_19  1.0
    x_19_14  dem_14  1.0
    x_19_15  OBJ  6.0
    x_19_15  sup_19  1.0
    x_19_15  dem_15  1.0
    x_19_16  OBJ  24.0
    x_19_16  sup_19  1.0
    x_19_16  dem_16  1.0
    x_19_17  OBJ  19.0
    x_19_17  sup_19  1.0
    x_19_17  dem_17  1.0
    x_19_18  OBJ  26.0
    x_19_18  sup_19  1.0
    x_19_18  dem_18  1.0
    x_19_19  OBJ  24.0
    x_19_19  sup_19  1.0
    x_19_19  dem_19  1.0
    x_19_20  OBJ  27.0
    x_19_20  sup_19  1.0
    x_19_20  dem_20  1.0
    x_19_21  OBJ  28.0
    x_19_21  sup_19  1.0
    x_19_21  dem_21  1.0
    x_19_22  OBJ  1.0
    x_19_22  sup_19  1.0
    x_19_22  dem_22  1.0
    x_19_23  OBJ  5.0
    x_19_23  sup_19  1.0
    x_19_23  dem_23  1.0
    x_19_24  OBJ  17.0
    x_19_24  sup_19  1.0
    x_19_24  dem_24  1.0
    x_19_25  OBJ  24.0
    x_19_25  sup_19  1.0
    x_19_25  dem_25  1.0
    x_19_26  OBJ  26.0
    x_19_26  sup_19  1.0
    x_19_26  dem_26  1.0
    x_19_27  OBJ  23.0
    x_19_27  sup_19  1.0
    x_19_27  dem_27  1.0
    x_19_28  OBJ  26.0
    x_19_28  sup_19  1.0
    x_19_28  dem_28  1.0
    x_19_29  OBJ  8.0
    x_19_29  sup_19  1.0
    x_19_29  dem_29  1.0
    x_19_30  OBJ  25.0
    x_19_30  sup_19  1.0
    x_19_30  dem_30  1.0
    x_19_31  OBJ  9.0
    x_19_31  sup_19  1.0
    x_19_31  dem_31  1.0
    x_19_32  OBJ  2.0
    x_19_32  sup_19  1.0
    x_19_32  dem_32  1.0
    x_19_33  OBJ  28.0
    x_19_33  sup_19  1.0
    x_19_33  dem_33  1.0
    x_19_34  OBJ  17.0
    x_19_34  sup_19  1.0
    x_19_34  dem_34  1.0
    x_19_35  OBJ  11.0
    x_19_35  sup_19  1.0
    x_19_35  dem_35  1.0
    x_19_36  OBJ  11.0
    x_19_36  sup_19  1.0
    x_19_36  dem_36  1.0
    x_19_37  OBJ  9.0
    x_19_37  sup_19  1.0
    x_19_37  dem_37  1.0
    x_19_38  OBJ  22.0
    x_19_38  sup_19  1.0
    x_19_38  dem_38  1.0
    x_19_39  OBJ  21.0
    x_19_39  sup_19  1.0
    x_19_39  dem_39  1.0
    x_19_40  OBJ  11.0
    x_19_40  sup_19  1.0
    x_19_40  dem_40  1.0
    x_19_41  OBJ  4.0
    x_19_41  sup_19  1.0
    x_19_41  dem_41  1.0
    x_19_42  OBJ  10.0
    x_19_42  sup_19  1.0
    x_19_42  dem_42  1.0
    x_19_43  OBJ  15.0
    x_19_43  sup_19  1.0
    x_19_43  dem_43  1.0
    x_19_44  OBJ  24.0
    x_19_44  sup_19  1.0
    x_19_44  dem_44  1.0
    x_19_45  OBJ  11.0
    x_19_45  sup_19  1.0
    x_19_45  dem_45  1.0
    x_19_46  OBJ  15.0
    x_19_46  sup_19  1.0
    x_19_46  dem_46  1.0
    x_19_47  OBJ  16.0
    x_19_47  sup_19  1.0
    x_19_47  dem_47  1.0
    x_19_48  OBJ  5.0
    x_19_48  sup_19  1.0
    x_19_48  dem_48  1.0
    x_19_49  OBJ  18.0
    x_19_49  sup_19  1.0
    x_19_49  dem_49  1.0
    x_19_50  OBJ  13.0
    x_19_50  sup_19  1.0
    x_19_50  dem_50  1.0
    x_19_51  OBJ  19.0
    x_19_51  sup_19  1.0
    x_19_51  dem_51  1.0
    x_19_52  OBJ  22.0
    x_19_52  sup_19  1.0
    x_19_52  dem_52  1.0
    x_19_53  OBJ  13.0
    x_19_53  sup_19  1.0
    x_19_53  dem_53  1.0
    x_19_54  OBJ  11.0
    x_19_54  sup_19  1.0
    x_19_54  dem_54  1.0
    x_19_55  OBJ  26.0
    x_19_55  sup_19  1.0
    x_19_55  dem_55  1.0
    x_19_56  OBJ  22.0
    x_19_56  sup_19  1.0
    x_19_56  dem_56  1.0
    x_19_57  OBJ  25.0
    x_19_57  sup_19  1.0
    x_19_57  dem_57  1.0
    x_19_58  OBJ  22.0
    x_19_58  sup_19  1.0
    x_19_58  dem_58  1.0
    x_19_59  OBJ  28.0
    x_19_59  sup_19  1.0
    x_19_59  dem_59  1.0
    x_20_0  OBJ  26.0
    x_20_0  sup_20  1.0
    x_20_0  dem_0  1.0
    x_20_1  OBJ  13.0
    x_20_1  sup_20  1.0
    x_20_1  dem_1  1.0
    x_20_2  OBJ  28.0
    x_20_2  sup_20  1.0
    x_20_2  dem_2  1.0
    x_20_3  OBJ  22.0
    x_20_3  sup_20  1.0
    x_20_3  dem_3  1.0
    x_20_4  OBJ  23.0
    x_20_4  sup_20  1.0
    x_20_4  dem_4  1.0
    x_20_5  OBJ  13.0
    x_20_5  sup_20  1.0
    x_20_5  dem_5  1.0
    x_20_6  OBJ  12.0
    x_20_6  sup_20  1.0
    x_20_6  dem_6  1.0
    x_20_7  OBJ  9.0
    x_20_7  sup_20  1.0
    x_20_7  dem_7  1.0
    x_20_8  OBJ  3.0
    x_20_8  sup_20  1.0
    x_20_8  dem_8  1.0
    x_20_9  OBJ  19.0
    x_20_9  sup_20  1.0
    x_20_9  dem_9  1.0
    x_20_10  OBJ  28.0
    x_20_10  sup_20  1.0
    x_20_10  dem_10  1.0
    x_20_11  OBJ  28.0
    x_20_11  sup_20  1.0
    x_20_11  dem_11  1.0
    x_20_12  OBJ  12.0
    x_20_12  sup_20  1.0
    x_20_12  dem_12  1.0
    x_20_13  OBJ  24.0
    x_20_13  sup_20  1.0
    x_20_13  dem_13  1.0
    x_20_14  OBJ  20.0
    x_20_14  sup_20  1.0
    x_20_14  dem_14  1.0
    x_20_15  OBJ  9.0
    x_20_15  sup_20  1.0
    x_20_15  dem_15  1.0
    x_20_16  OBJ  18.0
    x_20_16  sup_20  1.0
    x_20_16  dem_16  1.0
    x_20_17  OBJ  7.0
    x_20_17  sup_20  1.0
    x_20_17  dem_17  1.0
    x_20_18  OBJ  27.0
    x_20_18  sup_20  1.0
    x_20_18  dem_18  1.0
    x_20_19  OBJ  23.0
    x_20_19  sup_20  1.0
    x_20_19  dem_19  1.0
    x_20_20  OBJ  20.0
    x_20_20  sup_20  1.0
    x_20_20  dem_20  1.0
    x_20_21  OBJ  21.0
    x_20_21  sup_20  1.0
    x_20_21  dem_21  1.0
    x_20_22  OBJ  28.0
    x_20_22  sup_20  1.0
    x_20_22  dem_22  1.0
    x_20_23  OBJ  26.0
    x_20_23  sup_20  1.0
    x_20_23  dem_23  1.0
    x_20_24  OBJ  14.0
    x_20_24  sup_20  1.0
    x_20_24  dem_24  1.0
    x_20_25  OBJ  5.0
    x_20_25  sup_20  1.0
    x_20_25  dem_25  1.0
    x_20_26  OBJ  27.0
    x_20_26  sup_20  1.0
    x_20_26  dem_26  1.0
    x_20_27  OBJ  25.0
    x_20_27  sup_20  1.0
    x_20_27  dem_27  1.0
    x_20_28  OBJ  18.0
    x_20_28  sup_20  1.0
    x_20_28  dem_28  1.0
    x_20_29  OBJ  13.0
    x_20_29  sup_20  1.0
    x_20_29  dem_29  1.0
    x_20_30  OBJ  6.0
    x_20_30  sup_20  1.0
    x_20_30  dem_30  1.0
    x_20_31  OBJ  8.0
    x_20_31  sup_20  1.0
    x_20_31  dem_31  1.0
    x_20_32  OBJ  28.0
    x_20_32  sup_20  1.0
    x_20_32  dem_32  1.0
    x_20_33  OBJ  10.0
    x_20_33  sup_20  1.0
    x_20_33  dem_33  1.0
    x_20_34  OBJ  6.0
    x_20_34  sup_20  1.0
    x_20_34  dem_34  1.0
    x_20_35  OBJ  29.0
    x_20_35  sup_20  1.0
    x_20_35  dem_35  1.0
    x_20_36  OBJ  26.0
    x_20_36  sup_20  1.0
    x_20_36  dem_36  1.0
    x_20_37  OBJ  28.0
    x_20_37  sup_20  1.0
    x_20_37  dem_37  1.0
    x_20_38  OBJ  17.0
    x_20_38  sup_20  1.0
    x_20_38  dem_38  1.0
    x_20_39  OBJ  3.0
    x_20_39  sup_20  1.0
    x_20_39  dem_39  1.0
    x_20_40  OBJ  27.0
    x_20_40  sup_20  1.0
    x_20_40  dem_40  1.0
    x_20_41  OBJ  10.0
    x_20_41  sup_20  1.0
    x_20_41  dem_41  1.0
    x_20_42  OBJ  23.0
    x_20_42  sup_20  1.0
    x_20_42  dem_42  1.0
    x_20_43  OBJ  21.0
    x_20_43  sup_20  1.0
    x_20_43  dem_43  1.0
    x_20_44  OBJ  29.0
    x_20_44  sup_20  1.0
    x_20_44  dem_44  1.0
    x_20_45  OBJ  2.0
    x_20_45  sup_20  1.0
    x_20_45  dem_45  1.0
    x_20_46  OBJ  28.0
    x_20_46  sup_20  1.0
    x_20_46  dem_46  1.0
    x_20_47  OBJ  2.0
    x_20_47  sup_20  1.0
    x_20_47  dem_47  1.0
    x_20_48  OBJ  5.0
    x_20_48  sup_20  1.0
    x_20_48  dem_48  1.0
    x_20_49  OBJ  2.0
    x_20_49  sup_20  1.0
    x_20_49  dem_49  1.0
    x_20_50  OBJ  7.0
    x_20_50  sup_20  1.0
    x_20_50  dem_50  1.0
    x_20_51  OBJ  26.0
    x_20_51  sup_20  1.0
    x_20_51  dem_51  1.0
    x_20_52  OBJ  28.0
    x_20_52  sup_20  1.0
    x_20_52  dem_52  1.0
    x_20_53  OBJ  10.0
    x_20_53  sup_20  1.0
    x_20_53  dem_53  1.0
    x_20_54  OBJ  20.0
    x_20_54  sup_20  1.0
    x_20_54  dem_54  1.0
    x_20_55  OBJ  10.0
    x_20_55  sup_20  1.0
    x_20_55  dem_55  1.0
    x_20_56  OBJ  26.0
    x_20_56  sup_20  1.0
    x_20_56  dem_56  1.0
    x_20_57  OBJ  24.0
    x_20_57  sup_20  1.0
    x_20_57  dem_57  1.0
    x_20_58  OBJ  15.0
    x_20_58  sup_20  1.0
    x_20_58  dem_58  1.0
    x_20_59  OBJ  10.0
    x_20_59  sup_20  1.0
    x_20_59  dem_59  1.0
    x_21_0  OBJ  5.0
    x_21_0  sup_21  1.0
    x_21_0  dem_0  1.0
    x_21_1  OBJ  22.0
    x_21_1  sup_21  1.0
    x_21_1  dem_1  1.0
    x_21_2  OBJ  17.0
    x_21_2  sup_21  1.0
    x_21_2  dem_2  1.0
    x_21_3  OBJ  11.0
    x_21_3  sup_21  1.0
    x_21_3  dem_3  1.0
    x_21_4  OBJ  26.0
    x_21_4  sup_21  1.0
    x_21_4  dem_4  1.0
    x_21_5  OBJ  9.0
    x_21_5  sup_21  1.0
    x_21_5  dem_5  1.0
    x_21_6  OBJ  2.0
    x_21_6  sup_21  1.0
    x_21_6  dem_6  1.0
    x_21_7  OBJ  12.0
    x_21_7  sup_21  1.0
    x_21_7  dem_7  1.0
    x_21_8  OBJ  15.0
    x_21_8  sup_21  1.0
    x_21_8  dem_8  1.0
    x_21_9  OBJ  5.0
    x_21_9  sup_21  1.0
    x_21_9  dem_9  1.0
    x_21_10  OBJ  7.0
    x_21_10  sup_21  1.0
    x_21_10  dem_10  1.0
    x_21_11  OBJ  3.0
    x_21_11  sup_21  1.0
    x_21_11  dem_11  1.0
    x_21_12  OBJ  28.0
    x_21_12  sup_21  1.0
    x_21_12  dem_12  1.0
    x_21_13  OBJ  26.0
    x_21_13  sup_21  1.0
    x_21_13  dem_13  1.0
    x_21_14  OBJ  15.0
    x_21_14  sup_21  1.0
    x_21_14  dem_14  1.0
    x_21_15  OBJ  26.0
    x_21_15  sup_21  1.0
    x_21_15  dem_15  1.0
    x_21_16  OBJ  27.0
    x_21_16  sup_21  1.0
    x_21_16  dem_16  1.0
    x_21_17  OBJ  14.0
    x_21_17  sup_21  1.0
    x_21_17  dem_17  1.0
    x_21_18  OBJ  25.0
    x_21_18  sup_21  1.0
    x_21_18  dem_18  1.0
    x_21_19  OBJ  20.0
    x_21_19  sup_21  1.0
    x_21_19  dem_19  1.0
    x_21_20  OBJ  22.0
    x_21_20  sup_21  1.0
    x_21_20  dem_20  1.0
    x_21_21  OBJ  26.0
    x_21_21  sup_21  1.0
    x_21_21  dem_21  1.0
    x_21_22  OBJ  8.0
    x_21_22  sup_21  1.0
    x_21_22  dem_22  1.0
    x_21_23  OBJ  12.0
    x_21_23  sup_21  1.0
    x_21_23  dem_23  1.0
    x_21_24  OBJ  16.0
    x_21_24  sup_21  1.0
    x_21_24  dem_24  1.0
    x_21_25  OBJ  21.0
    x_21_25  sup_21  1.0
    x_21_25  dem_25  1.0
    x_21_26  OBJ  20.0
    x_21_26  sup_21  1.0
    x_21_26  dem_26  1.0
    x_21_27  OBJ  22.0
    x_21_27  sup_21  1.0
    x_21_27  dem_27  1.0
    x_21_28  OBJ  22.0
    x_21_28  sup_21  1.0
    x_21_28  dem_28  1.0
    x_21_29  OBJ  3.0
    x_21_29  sup_21  1.0
    x_21_29  dem_29  1.0
    x_21_30  OBJ  10.0
    x_21_30  sup_21  1.0
    x_21_30  dem_30  1.0
    x_21_31  OBJ  5.0
    x_21_31  sup_21  1.0
    x_21_31  dem_31  1.0
    x_21_32  OBJ  29.0
    x_21_32  sup_21  1.0
    x_21_32  dem_32  1.0
    x_21_33  OBJ  22.0
    x_21_33  sup_21  1.0
    x_21_33  dem_33  1.0
    x_21_34  OBJ  15.0
    x_21_34  sup_21  1.0
    x_21_34  dem_34  1.0
    x_21_35  OBJ  21.0
    x_21_35  sup_21  1.0
    x_21_35  dem_35  1.0
    x_21_36  OBJ  4.0
    x_21_36  sup_21  1.0
    x_21_36  dem_36  1.0
    x_21_37  OBJ  6.0
    x_21_37  sup_21  1.0
    x_21_37  dem_37  1.0
    x_21_38  OBJ  19.0
    x_21_38  sup_21  1.0
    x_21_38  dem_38  1.0
    x_21_39  OBJ  24.0
    x_21_39  sup_21  1.0
    x_21_39  dem_39  1.0
    x_21_40  OBJ  21.0
    x_21_40  sup_21  1.0
    x_21_40  dem_40  1.0
    x_21_41  OBJ  24.0
    x_21_41  sup_21  1.0
    x_21_41  dem_41  1.0
    x_21_42  OBJ  12.0
    x_21_42  sup_21  1.0
    x_21_42  dem_42  1.0
    x_21_43  OBJ  10.0
    x_21_43  sup_21  1.0
    x_21_43  dem_43  1.0
    x_21_44  OBJ  15.0
    x_21_44  sup_21  1.0
    x_21_44  dem_44  1.0
    x_21_45  OBJ  10.0
    x_21_45  sup_21  1.0
    x_21_45  dem_45  1.0
    x_21_46  OBJ  7.0
    x_21_46  sup_21  1.0
    x_21_46  dem_46  1.0
    x_21_47  OBJ  4.0
    x_21_47  sup_21  1.0
    x_21_47  dem_47  1.0
    x_21_48  OBJ  24.0
    x_21_48  sup_21  1.0
    x_21_48  dem_48  1.0
    x_21_49  OBJ  13.0
    x_21_49  sup_21  1.0
    x_21_49  dem_49  1.0
    x_21_50  OBJ  12.0
    x_21_50  sup_21  1.0
    x_21_50  dem_50  1.0
    x_21_51  OBJ  4.0
    x_21_51  sup_21  1.0
    x_21_51  dem_51  1.0
    x_21_52  OBJ  29.0
    x_21_52  sup_21  1.0
    x_21_52  dem_52  1.0
    x_21_53  OBJ  16.0
    x_21_53  sup_21  1.0
    x_21_53  dem_53  1.0
    x_21_54  OBJ  18.0
    x_21_54  sup_21  1.0
    x_21_54  dem_54  1.0
    x_21_55  OBJ  19.0
    x_21_55  sup_21  1.0
    x_21_55  dem_55  1.0
    x_21_56  OBJ  4.0
    x_21_56  sup_21  1.0
    x_21_56  dem_56  1.0
    x_21_57  OBJ  17.0
    x_21_57  sup_21  1.0
    x_21_57  dem_57  1.0
    x_21_58  OBJ  19.0
    x_21_58  sup_21  1.0
    x_21_58  dem_58  1.0
    x_21_59  OBJ  3.0
    x_21_59  sup_21  1.0
    x_21_59  dem_59  1.0
    x_22_0  OBJ  22.0
    x_22_0  sup_22  1.0
    x_22_0  dem_0  1.0
    x_22_1  OBJ  19.0
    x_22_1  sup_22  1.0
    x_22_1  dem_1  1.0
    x_22_2  OBJ  26.0
    x_22_2  sup_22  1.0
    x_22_2  dem_2  1.0
    x_22_3  OBJ  22.0
    x_22_3  sup_22  1.0
    x_22_3  dem_3  1.0
    x_22_4  OBJ  11.0
    x_22_4  sup_22  1.0
    x_22_4  dem_4  1.0
    x_22_5  OBJ  5.0
    x_22_5  sup_22  1.0
    x_22_5  dem_5  1.0
    x_22_6  OBJ  25.0
    x_22_6  sup_22  1.0
    x_22_6  dem_6  1.0
    x_22_7  OBJ  18.0
    x_22_7  sup_22  1.0
    x_22_7  dem_7  1.0
    x_22_8  OBJ  23.0
    x_22_8  sup_22  1.0
    x_22_8  dem_8  1.0
    x_22_9  OBJ  24.0
    x_22_9  sup_22  1.0
    x_22_9  dem_9  1.0
    x_22_10  OBJ  18.0
    x_22_10  sup_22  1.0
    x_22_10  dem_10  1.0
    x_22_11  OBJ  6.0
    x_22_11  sup_22  1.0
    x_22_11  dem_11  1.0
    x_22_12  OBJ  15.0
    x_22_12  sup_22  1.0
    x_22_12  dem_12  1.0
    x_22_13  OBJ  27.0
    x_22_13  sup_22  1.0
    x_22_13  dem_13  1.0
    x_22_14  OBJ  6.0
    x_22_14  sup_22  1.0
    x_22_14  dem_14  1.0
    x_22_15  OBJ  29.0
    x_22_15  sup_22  1.0
    x_22_15  dem_15  1.0
    x_22_16  OBJ  5.0
    x_22_16  sup_22  1.0
    x_22_16  dem_16  1.0
    x_22_17  OBJ  21.0
    x_22_17  sup_22  1.0
    x_22_17  dem_17  1.0
    x_22_18  OBJ  18.0
    x_22_18  sup_22  1.0
    x_22_18  dem_18  1.0
    x_22_19  OBJ  26.0
    x_22_19  sup_22  1.0
    x_22_19  dem_19  1.0
    x_22_20  OBJ  8.0
    x_22_20  sup_22  1.0
    x_22_20  dem_20  1.0
    x_22_21  OBJ  8.0
    x_22_21  sup_22  1.0
    x_22_21  dem_21  1.0
    x_22_22  OBJ  6.0
    x_22_22  sup_22  1.0
    x_22_22  dem_22  1.0
    x_22_23  OBJ  20.0
    x_22_23  sup_22  1.0
    x_22_23  dem_23  1.0
    x_22_24  OBJ  8.0
    x_22_24  sup_22  1.0
    x_22_24  dem_24  1.0
    x_22_25  OBJ  27.0
    x_22_25  sup_22  1.0
    x_22_25  dem_25  1.0
    x_22_26  OBJ  9.0
    x_22_26  sup_22  1.0
    x_22_26  dem_26  1.0
    x_22_27  OBJ  2.0
    x_22_27  sup_22  1.0
    x_22_27  dem_27  1.0
    x_22_28  OBJ  8.0
    x_22_28  sup_22  1.0
    x_22_28  dem_28  1.0
    x_22_29  OBJ  24.0
    x_22_29  sup_22  1.0
    x_22_29  dem_29  1.0
    x_22_30  OBJ  6.0
    x_22_30  sup_22  1.0
    x_22_30  dem_30  1.0
    x_22_31  OBJ  7.0
    x_22_31  sup_22  1.0
    x_22_31  dem_31  1.0
    x_22_32  OBJ  4.0
    x_22_32  sup_22  1.0
    x_22_32  dem_32  1.0
    x_22_33  OBJ  24.0
    x_22_33  sup_22  1.0
    x_22_33  dem_33  1.0
    x_22_34  OBJ  20.0
    x_22_34  sup_22  1.0
    x_22_34  dem_34  1.0
    x_22_35  OBJ  19.0
    x_22_35  sup_22  1.0
    x_22_35  dem_35  1.0
    x_22_36  OBJ  10.0
    x_22_36  sup_22  1.0
    x_22_36  dem_36  1.0
    x_22_37  OBJ  24.0
    x_22_37  sup_22  1.0
    x_22_37  dem_37  1.0
    x_22_38  OBJ  6.0
    x_22_38  sup_22  1.0
    x_22_38  dem_38  1.0
    x_22_39  OBJ  12.0
    x_22_39  sup_22  1.0
    x_22_39  dem_39  1.0
    x_22_40  OBJ  6.0
    x_22_40  sup_22  1.0
    x_22_40  dem_40  1.0
    x_22_41  OBJ  14.0
    x_22_41  sup_22  1.0
    x_22_41  dem_41  1.0
    x_22_42  OBJ  12.0
    x_22_42  sup_22  1.0
    x_22_42  dem_42  1.0
    x_22_43  OBJ  27.0
    x_22_43  sup_22  1.0
    x_22_43  dem_43  1.0
    x_22_44  OBJ  15.0
    x_22_44  sup_22  1.0
    x_22_44  dem_44  1.0
    x_22_45  OBJ  3.0
    x_22_45  sup_22  1.0
    x_22_45  dem_45  1.0
    x_22_46  OBJ  7.0
    x_22_46  sup_22  1.0
    x_22_46  dem_46  1.0
    x_22_47  OBJ  5.0
    x_22_47  sup_22  1.0
    x_22_47  dem_47  1.0
    x_22_48  OBJ  19.0
    x_22_48  sup_22  1.0
    x_22_48  dem_48  1.0
    x_22_49  OBJ  29.0
    x_22_49  sup_22  1.0
    x_22_49  dem_49  1.0
    x_22_50  OBJ  7.0
    x_22_50  sup_22  1.0
    x_22_50  dem_50  1.0
    x_22_51  OBJ  27.0
    x_22_51  sup_22  1.0
    x_22_51  dem_51  1.0
    x_22_52  OBJ  27.0
    x_22_52  sup_22  1.0
    x_22_52  dem_52  1.0
    x_22_53  OBJ  5.0
    x_22_53  sup_22  1.0
    x_22_53  dem_53  1.0
    x_22_54  OBJ  2.0
    x_22_54  sup_22  1.0
    x_22_54  dem_54  1.0
    x_22_55  OBJ  29.0
    x_22_55  sup_22  1.0
    x_22_55  dem_55  1.0
    x_22_56  OBJ  27.0
    x_22_56  sup_22  1.0
    x_22_56  dem_56  1.0
    x_22_57  OBJ  8.0
    x_22_57  sup_22  1.0
    x_22_57  dem_57  1.0
    x_22_58  OBJ  5.0
    x_22_58  sup_22  1.0
    x_22_58  dem_58  1.0
    x_22_59  OBJ  26.0
    x_22_59  sup_22  1.0
    x_22_59  dem_59  1.0
    x_23_0  OBJ  20.0
    x_23_0  sup_23  1.0
    x_23_0  dem_0  1.0
    x_23_1  OBJ  27.0
    x_23_1  sup_23  1.0
    x_23_1  dem_1  1.0
    x_23_2  OBJ  4.0
    x_23_2  sup_23  1.0
    x_23_2  dem_2  1.0
    x_23_3  OBJ  1.0
    x_23_3  sup_23  1.0
    x_23_3  dem_3  1.0
    x_23_4  OBJ  17.0
    x_23_4  sup_23  1.0
    x_23_4  dem_4  1.0
    x_23_5  OBJ  1.0
    x_23_5  sup_23  1.0
    x_23_5  dem_5  1.0
    x_23_6  OBJ  8.0
    x_23_6  sup_23  1.0
    x_23_6  dem_6  1.0
    x_23_7  OBJ  10.0
    x_23_7  sup_23  1.0
    x_23_7  dem_7  1.0
    x_23_8  OBJ  29.0
    x_23_8  sup_23  1.0
    x_23_8  dem_8  1.0
    x_23_9  OBJ  28.0
    x_23_9  sup_23  1.0
    x_23_9  dem_9  1.0
    x_23_10  OBJ  11.0
    x_23_10  sup_23  1.0
    x_23_10  dem_10  1.0
    x_23_11  OBJ  23.0
    x_23_11  sup_23  1.0
    x_23_11  dem_11  1.0
    x_23_12  OBJ  27.0
    x_23_12  sup_23  1.0
    x_23_12  dem_12  1.0
    x_23_13  OBJ  12.0
    x_23_13  sup_23  1.0
    x_23_13  dem_13  1.0
    x_23_14  OBJ  29.0
    x_23_14  sup_23  1.0
    x_23_14  dem_14  1.0
    x_23_15  OBJ  25.0
    x_23_15  sup_23  1.0
    x_23_15  dem_15  1.0
    x_23_16  OBJ  18.0
    x_23_16  sup_23  1.0
    x_23_16  dem_16  1.0
    x_23_17  OBJ  9.0
    x_23_17  sup_23  1.0
    x_23_17  dem_17  1.0
    x_23_18  OBJ  8.0
    x_23_18  sup_23  1.0
    x_23_18  dem_18  1.0
    x_23_19  OBJ  11.0
    x_23_19  sup_23  1.0
    x_23_19  dem_19  1.0
    x_23_20  OBJ  26.0
    x_23_20  sup_23  1.0
    x_23_20  dem_20  1.0
    x_23_21  OBJ  6.0
    x_23_21  sup_23  1.0
    x_23_21  dem_21  1.0
    x_23_22  OBJ  11.0
    x_23_22  sup_23  1.0
    x_23_22  dem_22  1.0
    x_23_23  OBJ  28.0
    x_23_23  sup_23  1.0
    x_23_23  dem_23  1.0
    x_23_24  OBJ  20.0
    x_23_24  sup_23  1.0
    x_23_24  dem_24  1.0
    x_23_25  OBJ  24.0
    x_23_25  sup_23  1.0
    x_23_25  dem_25  1.0
    x_23_26  OBJ  3.0
    x_23_26  sup_23  1.0
    x_23_26  dem_26  1.0
    x_23_27  OBJ  14.0
    x_23_27  sup_23  1.0
    x_23_27  dem_27  1.0
    x_23_28  OBJ  23.0
    x_23_28  sup_23  1.0
    x_23_28  dem_28  1.0
    x_23_29  OBJ  8.0
    x_23_29  sup_23  1.0
    x_23_29  dem_29  1.0
    x_23_30  OBJ  26.0
    x_23_30  sup_23  1.0
    x_23_30  dem_30  1.0
    x_23_31  OBJ  29.0
    x_23_31  sup_23  1.0
    x_23_31  dem_31  1.0
    x_23_32  OBJ  14.0
    x_23_32  sup_23  1.0
    x_23_32  dem_32  1.0
    x_23_33  OBJ  12.0
    x_23_33  sup_23  1.0
    x_23_33  dem_33  1.0
    x_23_34  OBJ  14.0
    x_23_34  sup_23  1.0
    x_23_34  dem_34  1.0
    x_23_35  OBJ  7.0
    x_23_35  sup_23  1.0
    x_23_35  dem_35  1.0
    x_23_36  OBJ  3.0
    x_23_36  sup_23  1.0
    x_23_36  dem_36  1.0
    x_23_37  OBJ  13.0
    x_23_37  sup_23  1.0
    x_23_37  dem_37  1.0
    x_23_38  OBJ  11.0
    x_23_38  sup_23  1.0
    x_23_38  dem_38  1.0
    x_23_39  OBJ  21.0
    x_23_39  sup_23  1.0
    x_23_39  dem_39  1.0
    x_23_40  OBJ  5.0
    x_23_40  sup_23  1.0
    x_23_40  dem_40  1.0
    x_23_41  OBJ  23.0
    x_23_41  sup_23  1.0
    x_23_41  dem_41  1.0
    x_23_42  OBJ  5.0
    x_23_42  sup_23  1.0
    x_23_42  dem_42  1.0
    x_23_43  OBJ  4.0
    x_23_43  sup_23  1.0
    x_23_43  dem_43  1.0
    x_23_44  OBJ  27.0
    x_23_44  sup_23  1.0
    x_23_44  dem_44  1.0
    x_23_45  OBJ  28.0
    x_23_45  sup_23  1.0
    x_23_45  dem_45  1.0
    x_23_46  OBJ  10.0
    x_23_46  sup_23  1.0
    x_23_46  dem_46  1.0
    x_23_47  OBJ  20.0
    x_23_47  sup_23  1.0
    x_23_47  dem_47  1.0
    x_23_48  OBJ  7.0
    x_23_48  sup_23  1.0
    x_23_48  dem_48  1.0
    x_23_49  OBJ  2.0
    x_23_49  sup_23  1.0
    x_23_49  dem_49  1.0
    x_23_50  OBJ  7.0
    x_23_50  sup_23  1.0
    x_23_50  dem_50  1.0
    x_23_51  OBJ  25.0
    x_23_51  sup_23  1.0
    x_23_51  dem_51  1.0
    x_23_52  OBJ  24.0
    x_23_52  sup_23  1.0
    x_23_52  dem_52  1.0
    x_23_53  OBJ  29.0
    x_23_53  sup_23  1.0
    x_23_53  dem_53  1.0
    x_23_54  OBJ  25.0
    x_23_54  sup_23  1.0
    x_23_54  dem_54  1.0
    x_23_55  OBJ  25.0
    x_23_55  sup_23  1.0
    x_23_55  dem_55  1.0
    x_23_56  OBJ  17.0
    x_23_56  sup_23  1.0
    x_23_56  dem_56  1.0
    x_23_57  OBJ  1.0
    x_23_57  sup_23  1.0
    x_23_57  dem_57  1.0
    x_23_58  OBJ  22.0
    x_23_58  sup_23  1.0
    x_23_58  dem_58  1.0
    x_23_59  OBJ  14.0
    x_23_59  sup_23  1.0
    x_23_59  dem_59  1.0
    x_24_0  OBJ  24.0
    x_24_0  sup_24  1.0
    x_24_0  dem_0  1.0
    x_24_1  OBJ  18.0
    x_24_1  sup_24  1.0
    x_24_1  dem_1  1.0
    x_24_2  OBJ  10.0
    x_24_2  sup_24  1.0
    x_24_2  dem_2  1.0
    x_24_3  OBJ  26.0
    x_24_3  sup_24  1.0
    x_24_3  dem_3  1.0
    x_24_4  OBJ  17.0
    x_24_4  sup_24  1.0
    x_24_4  dem_4  1.0
    x_24_5  OBJ  15.0
    x_24_5  sup_24  1.0
    x_24_5  dem_5  1.0
    x_24_6  OBJ  8.0
    x_24_6  sup_24  1.0
    x_24_6  dem_6  1.0
    x_24_7  OBJ  3.0
    x_24_7  sup_24  1.0
    x_24_7  dem_7  1.0
    x_24_8  OBJ  4.0
    x_24_8  sup_24  1.0
    x_24_8  dem_8  1.0
    x_24_9  OBJ  28.0
    x_24_9  sup_24  1.0
    x_24_9  dem_9  1.0
    x_24_10  OBJ  2.0
    x_24_10  sup_24  1.0
    x_24_10  dem_10  1.0
    x_24_11  OBJ  28.0
    x_24_11  sup_24  1.0
    x_24_11  dem_11  1.0
    x_24_12  OBJ  2.0
    x_24_12  sup_24  1.0
    x_24_12  dem_12  1.0
    x_24_13  OBJ  15.0
    x_24_13  sup_24  1.0
    x_24_13  dem_13  1.0
    x_24_14  OBJ  12.0
    x_24_14  sup_24  1.0
    x_24_14  dem_14  1.0
    x_24_15  OBJ  2.0
    x_24_15  sup_24  1.0
    x_24_15  dem_15  1.0
    x_24_16  OBJ  28.0
    x_24_16  sup_24  1.0
    x_24_16  dem_16  1.0
    x_24_17  OBJ  25.0
    x_24_17  sup_24  1.0
    x_24_17  dem_17  1.0
    x_24_18  OBJ  19.0
    x_24_18  sup_24  1.0
    x_24_18  dem_18  1.0
    x_24_19  OBJ  22.0
    x_24_19  sup_24  1.0
    x_24_19  dem_19  1.0
    x_24_20  OBJ  15.0
    x_24_20  sup_24  1.0
    x_24_20  dem_20  1.0
    x_24_21  OBJ  29.0
    x_24_21  sup_24  1.0
    x_24_21  dem_21  1.0
    x_24_22  OBJ  25.0
    x_24_22  sup_24  1.0
    x_24_22  dem_22  1.0
    x_24_23  OBJ  1.0
    x_24_23  sup_24  1.0
    x_24_23  dem_23  1.0
    x_24_24  OBJ  9.0
    x_24_24  sup_24  1.0
    x_24_24  dem_24  1.0
    x_24_25  OBJ  13.0
    x_24_25  sup_24  1.0
    x_24_25  dem_25  1.0
    x_24_26  OBJ  19.0
    x_24_26  sup_24  1.0
    x_24_26  dem_26  1.0
    x_24_27  OBJ  9.0
    x_24_27  sup_24  1.0
    x_24_27  dem_27  1.0
    x_24_28  OBJ  17.0
    x_24_28  sup_24  1.0
    x_24_28  dem_28  1.0
    x_24_29  OBJ  4.0
    x_24_29  sup_24  1.0
    x_24_29  dem_29  1.0
    x_24_30  OBJ  19.0
    x_24_30  sup_24  1.0
    x_24_30  dem_30  1.0
    x_24_31  OBJ  22.0
    x_24_31  sup_24  1.0
    x_24_31  dem_31  1.0
    x_24_32  OBJ  22.0
    x_24_32  sup_24  1.0
    x_24_32  dem_32  1.0
    x_24_33  OBJ  10.0
    x_24_33  sup_24  1.0
    x_24_33  dem_33  1.0
    x_24_34  OBJ  3.0
    x_24_34  sup_24  1.0
    x_24_34  dem_34  1.0
    x_24_35  OBJ  2.0
    x_24_35  sup_24  1.0
    x_24_35  dem_35  1.0
    x_24_36  OBJ  14.0
    x_24_36  sup_24  1.0
    x_24_36  dem_36  1.0
    x_24_37  OBJ  4.0
    x_24_37  sup_24  1.0
    x_24_37  dem_37  1.0
    x_24_38  OBJ  5.0
    x_24_38  sup_24  1.0
    x_24_38  dem_38  1.0
    x_24_39  OBJ  24.0
    x_24_39  sup_24  1.0
    x_24_39  dem_39  1.0
    x_24_40  OBJ  25.0
    x_24_40  sup_24  1.0
    x_24_40  dem_40  1.0
    x_24_41  OBJ  18.0
    x_24_41  sup_24  1.0
    x_24_41  dem_41  1.0
    x_24_42  OBJ  4.0
    x_24_42  sup_24  1.0
    x_24_42  dem_42  1.0
    x_24_43  OBJ  7.0
    x_24_43  sup_24  1.0
    x_24_43  dem_43  1.0
    x_24_44  OBJ  27.0
    x_24_44  sup_24  1.0
    x_24_44  dem_44  1.0
    x_24_45  OBJ  21.0
    x_24_45  sup_24  1.0
    x_24_45  dem_45  1.0
    x_24_46  OBJ  7.0
    x_24_46  sup_24  1.0
    x_24_46  dem_46  1.0
    x_24_47  OBJ  4.0
    x_24_47  sup_24  1.0
    x_24_47  dem_47  1.0
    x_24_48  OBJ  16.0
    x_24_48  sup_24  1.0
    x_24_48  dem_48  1.0
    x_24_49  OBJ  20.0
    x_24_49  sup_24  1.0
    x_24_49  dem_49  1.0
    x_24_50  OBJ  18.0
    x_24_50  sup_24  1.0
    x_24_50  dem_50  1.0
    x_24_51  OBJ  19.0
    x_24_51  sup_24  1.0
    x_24_51  dem_51  1.0
    x_24_52  OBJ  7.0
    x_24_52  sup_24  1.0
    x_24_52  dem_52  1.0
    x_24_53  OBJ  1.0
    x_24_53  sup_24  1.0
    x_24_53  dem_53  1.0
    x_24_54  OBJ  5.0
    x_24_54  sup_24  1.0
    x_24_54  dem_54  1.0
    x_24_55  OBJ  15.0
    x_24_55  sup_24  1.0
    x_24_55  dem_55  1.0
    x_24_56  OBJ  22.0
    x_24_56  sup_24  1.0
    x_24_56  dem_56  1.0
    x_24_57  OBJ  22.0
    x_24_57  sup_24  1.0
    x_24_57  dem_57  1.0
    x_24_58  OBJ  18.0
    x_24_58  sup_24  1.0
    x_24_58  dem_58  1.0
    x_24_59  OBJ  22.0
    x_24_59  sup_24  1.0
    x_24_59  dem_59  1.0
    x_25_0  OBJ  15.0
    x_25_0  sup_25  1.0
    x_25_0  dem_0  1.0
    x_25_1  OBJ  21.0
    x_25_1  sup_25  1.0
    x_25_1  dem_1  1.0
    x_25_2  OBJ  2.0
    x_25_2  sup_25  1.0
    x_25_2  dem_2  1.0
    x_25_3  OBJ  26.0
    x_25_3  sup_25  1.0
    x_25_3  dem_3  1.0
    x_25_4  OBJ  24.0
    x_25_4  sup_25  1.0
    x_25_4  dem_4  1.0
    x_25_5  OBJ  22.0
    x_25_5  sup_25  1.0
    x_25_5  dem_5  1.0
    x_25_6  OBJ  25.0
    x_25_6  sup_25  1.0
    x_25_6  dem_6  1.0
    x_25_7  OBJ  27.0
    x_25_7  sup_25  1.0
    x_25_7  dem_7  1.0
    x_25_8  OBJ  16.0
    x_25_8  sup_25  1.0
    x_25_8  dem_8  1.0
    x_25_9  OBJ  13.0
    x_25_9  sup_25  1.0
    x_25_9  dem_9  1.0
    x_25_10  OBJ  16.0
    x_25_10  sup_25  1.0
    x_25_10  dem_10  1.0
    x_25_11  OBJ  1.0
    x_25_11  sup_25  1.0
    x_25_11  dem_11  1.0
    x_25_12  OBJ  27.0
    x_25_12  sup_25  1.0
    x_25_12  dem_12  1.0
    x_25_13  OBJ  6.0
    x_25_13  sup_25  1.0
    x_25_13  dem_13  1.0
    x_25_14  OBJ  27.0
    x_25_14  sup_25  1.0
    x_25_14  dem_14  1.0
    x_25_15  OBJ  9.0
    x_25_15  sup_25  1.0
    x_25_15  dem_15  1.0
    x_25_16  OBJ  16.0
    x_25_16  sup_25  1.0
    x_25_16  dem_16  1.0
    x_25_17  OBJ  2.0
    x_25_17  sup_25  1.0
    x_25_17  dem_17  1.0
    x_25_18  OBJ  1.0
    x_25_18  sup_25  1.0
    x_25_18  dem_18  1.0
    x_25_19  OBJ  4.0
    x_25_19  sup_25  1.0
    x_25_19  dem_19  1.0
    x_25_20  OBJ  4.0
    x_25_20  sup_25  1.0
    x_25_20  dem_20  1.0
    x_25_21  OBJ  16.0
    x_25_21  sup_25  1.0
    x_25_21  dem_21  1.0
    x_25_22  OBJ  5.0
    x_25_22  sup_25  1.0
    x_25_22  dem_22  1.0
    x_25_23  OBJ  8.0
    x_25_23  sup_25  1.0
    x_25_23  dem_23  1.0
    x_25_24  OBJ  7.0
    x_25_24  sup_25  1.0
    x_25_24  dem_24  1.0
    x_25_25  OBJ  9.0
    x_25_25  sup_25  1.0
    x_25_25  dem_25  1.0
    x_25_26  OBJ  25.0
    x_25_26  sup_25  1.0
    x_25_26  dem_26  1.0
    x_25_27  OBJ  22.0
    x_25_27  sup_25  1.0
    x_25_27  dem_27  1.0
    x_25_28  OBJ  28.0
    x_25_28  sup_25  1.0
    x_25_28  dem_28  1.0
    x_25_29  OBJ  25.0
    x_25_29  sup_25  1.0
    x_25_29  dem_29  1.0
    x_25_30  OBJ  7.0
    x_25_30  sup_25  1.0
    x_25_30  dem_30  1.0
    x_25_31  OBJ  25.0
    x_25_31  sup_25  1.0
    x_25_31  dem_31  1.0
    x_25_32  OBJ  2.0
    x_25_32  sup_25  1.0
    x_25_32  dem_32  1.0
    x_25_33  OBJ  11.0
    x_25_33  sup_25  1.0
    x_25_33  dem_33  1.0
    x_25_34  OBJ  4.0
    x_25_34  sup_25  1.0
    x_25_34  dem_34  1.0
    x_25_35  OBJ  21.0
    x_25_35  sup_25  1.0
    x_25_35  dem_35  1.0
    x_25_36  OBJ  18.0
    x_25_36  sup_25  1.0
    x_25_36  dem_36  1.0
    x_25_37  OBJ  25.0
    x_25_37  sup_25  1.0
    x_25_37  dem_37  1.0
    x_25_38  OBJ  19.0
    x_25_38  sup_25  1.0
    x_25_38  dem_38  1.0
    x_25_39  OBJ  5.0
    x_25_39  sup_25  1.0
    x_25_39  dem_39  1.0
    x_25_40  OBJ  26.0
    x_25_40  sup_25  1.0
    x_25_40  dem_40  1.0
    x_25_41  OBJ  6.0
    x_25_41  sup_25  1.0
    x_25_41  dem_41  1.0
    x_25_42  OBJ  28.0
    x_25_42  sup_25  1.0
    x_25_42  dem_42  1.0
    x_25_43  OBJ  19.0
    x_25_43  sup_25  1.0
    x_25_43  dem_43  1.0
    x_25_44  OBJ  9.0
    x_25_44  sup_25  1.0
    x_25_44  dem_44  1.0
    x_25_45  OBJ  8.0
    x_25_45  sup_25  1.0
    x_25_45  dem_45  1.0
    x_25_46  OBJ  9.0
    x_25_46  sup_25  1.0
    x_25_46  dem_46  1.0
    x_25_47  OBJ  6.0
    x_25_47  sup_25  1.0
    x_25_47  dem_47  1.0
    x_25_48  OBJ  29.0
    x_25_48  sup_25  1.0
    x_25_48  dem_48  1.0
    x_25_49  OBJ  11.0
    x_25_49  sup_25  1.0
    x_25_49  dem_49  1.0
    x_25_50  OBJ  26.0
    x_25_50  sup_25  1.0
    x_25_50  dem_50  1.0
    x_25_51  OBJ  1.0
    x_25_51  sup_25  1.0
    x_25_51  dem_51  1.0
    x_25_52  OBJ  18.0
    x_25_52  sup_25  1.0
    x_25_52  dem_52  1.0
    x_25_53  OBJ  13.0
    x_25_53  sup_25  1.0
    x_25_53  dem_53  1.0
    x_25_54  OBJ  26.0
    x_25_54  sup_25  1.0
    x_25_54  dem_54  1.0
    x_25_55  OBJ  2.0
    x_25_55  sup_25  1.0
    x_25_55  dem_55  1.0
    x_25_56  OBJ  26.0
    x_25_56  sup_25  1.0
    x_25_56  dem_56  1.0
    x_25_57  OBJ  8.0
    x_25_57  sup_25  1.0
    x_25_57  dem_57  1.0
    x_25_58  OBJ  6.0
    x_25_58  sup_25  1.0
    x_25_58  dem_58  1.0
    x_25_59  OBJ  7.0
    x_25_59  sup_25  1.0
    x_25_59  dem_59  1.0
    x_26_0  OBJ  10.0
    x_26_0  sup_26  1.0
    x_26_0  dem_0  1.0
    x_26_1  OBJ  10.0
    x_26_1  sup_26  1.0
    x_26_1  dem_1  1.0
    x_26_2  OBJ  10.0
    x_26_2  sup_26  1.0
    x_26_2  dem_2  1.0
    x_26_3  OBJ  4.0
    x_26_3  sup_26  1.0
    x_26_3  dem_3  1.0
    x_26_4  OBJ  16.0
    x_26_4  sup_26  1.0
    x_26_4  dem_4  1.0
    x_26_5  OBJ  14.0
    x_26_5  sup_26  1.0
    x_26_5  dem_5  1.0
    x_26_6  OBJ  13.0
    x_26_6  sup_26  1.0
    x_26_6  dem_6  1.0
    x_26_7  OBJ  20.0
    x_26_7  sup_26  1.0
    x_26_7  dem_7  1.0
    x_26_8  OBJ  4.0
    x_26_8  sup_26  1.0
    x_26_8  dem_8  1.0
    x_26_9  OBJ  10.0
    x_26_9  sup_26  1.0
    x_26_9  dem_9  1.0
    x_26_10  OBJ  22.0
    x_26_10  sup_26  1.0
    x_26_10  dem_10  1.0
    x_26_11  OBJ  27.0
    x_26_11  sup_26  1.0
    x_26_11  dem_11  1.0
    x_26_12  OBJ  1.0
    x_26_12  sup_26  1.0
    x_26_12  dem_12  1.0
    x_26_13  OBJ  25.0
    x_26_13  sup_26  1.0
    x_26_13  dem_13  1.0
    x_26_14  OBJ  23.0
    x_26_14  sup_26  1.0
    x_26_14  dem_14  1.0
    x_26_15  OBJ  9.0
    x_26_15  sup_26  1.0
    x_26_15  dem_15  1.0
    x_26_16  OBJ  27.0
    x_26_16  sup_26  1.0
    x_26_16  dem_16  1.0
    x_26_17  OBJ  2.0
    x_26_17  sup_26  1.0
    x_26_17  dem_17  1.0
    x_26_18  OBJ  26.0
    x_26_18  sup_26  1.0
    x_26_18  dem_18  1.0
    x_26_19  OBJ  23.0
    x_26_19  sup_26  1.0
    x_26_19  dem_19  1.0
    x_26_20  OBJ  17.0
    x_26_20  sup_26  1.0
    x_26_20  dem_20  1.0
    x_26_21  OBJ  7.0
    x_26_21  sup_26  1.0
    x_26_21  dem_21  1.0
    x_26_22  OBJ  9.0
    x_26_22  sup_26  1.0
    x_26_22  dem_22  1.0
    x_26_23  OBJ  10.0
    x_26_23  sup_26  1.0
    x_26_23  dem_23  1.0
    x_26_24  OBJ  17.0
    x_26_24  sup_26  1.0
    x_26_24  dem_24  1.0
    x_26_25  OBJ  17.0
    x_26_25  sup_26  1.0
    x_26_25  dem_25  1.0
    x_26_26  OBJ  26.0
    x_26_26  sup_26  1.0
    x_26_26  dem_26  1.0
    x_26_27  OBJ  29.0
    x_26_27  sup_26  1.0
    x_26_27  dem_27  1.0
    x_26_28  OBJ  28.0
    x_26_28  sup_26  1.0
    x_26_28  dem_28  1.0
    x_26_29  OBJ  9.0
    x_26_29  sup_26  1.0
    x_26_29  dem_29  1.0
    x_26_30  OBJ  29.0
    x_26_30  sup_26  1.0
    x_26_30  dem_30  1.0
    x_26_31  OBJ  14.0
    x_26_31  sup_26  1.0
    x_26_31  dem_31  1.0
    x_26_32  OBJ  22.0
    x_26_32  sup_26  1.0
    x_26_32  dem_32  1.0
    x_26_33  OBJ  19.0
    x_26_33  sup_26  1.0
    x_26_33  dem_33  1.0
    x_26_34  OBJ  14.0
    x_26_34  sup_26  1.0
    x_26_34  dem_34  1.0
    x_26_35  OBJ  20.0
    x_26_35  sup_26  1.0
    x_26_35  dem_35  1.0
    x_26_36  OBJ  7.0
    x_26_36  sup_26  1.0
    x_26_36  dem_36  1.0
    x_26_37  OBJ  7.0
    x_26_37  sup_26  1.0
    x_26_37  dem_37  1.0
    x_26_38  OBJ  4.0
    x_26_38  sup_26  1.0
    x_26_38  dem_38  1.0
    x_26_39  OBJ  18.0
    x_26_39  sup_26  1.0
    x_26_39  dem_39  1.0
    x_26_40  OBJ  24.0
    x_26_40  sup_26  1.0
    x_26_40  dem_40  1.0
    x_26_41  OBJ  16.0
    x_26_41  sup_26  1.0
    x_26_41  dem_41  1.0
    x_26_42  OBJ  17.0
    x_26_42  sup_26  1.0
    x_26_42  dem_42  1.0
    x_26_43  OBJ  20.0
    x_26_43  sup_26  1.0
    x_26_43  dem_43  1.0
    x_26_44  OBJ  27.0
    x_26_44  sup_26  1.0
    x_26_44  dem_44  1.0
    x_26_45  OBJ  4.0
    x_26_45  sup_26  1.0
    x_26_45  dem_45  1.0
    x_26_46  OBJ  18.0
    x_26_46  sup_26  1.0
    x_26_46  dem_46  1.0
    x_26_47  OBJ  4.0
    x_26_47  sup_26  1.0
    x_26_47  dem_47  1.0
    x_26_48  OBJ  20.0
    x_26_48  sup_26  1.0
    x_26_48  dem_48  1.0
    x_26_49  OBJ  29.0
    x_26_49  sup_26  1.0
    x_26_49  dem_49  1.0
    x_26_50  OBJ  26.0
    x_26_50  sup_26  1.0
    x_26_50  dem_50  1.0
    x_26_51  OBJ  24.0
    x_26_51  sup_26  1.0
    x_26_51  dem_51  1.0
    x_26_52  OBJ  27.0
    x_26_52  sup_26  1.0
    x_26_52  dem_52  1.0
    x_26_53  OBJ  24.0
    x_26_53  sup_26  1.0
    x_26_53  dem_53  1.0
    x_26_54  OBJ  25.0
    x_26_54  sup_26  1.0
    x_26_54  dem_54  1.0
    x_26_55  OBJ  28.0
    x_26_55  sup_26  1.0
    x_26_55  dem_55  1.0
    x_26_56  OBJ  8.0
    x_26_56  sup_26  1.0
    x_26_56  dem_56  1.0
    x_26_57  OBJ  28.0
    x_26_57  sup_26  1.0
    x_26_57  dem_57  1.0
    x_26_58  OBJ  22.0
    x_26_58  sup_26  1.0
    x_26_58  dem_58  1.0
    x_26_59  OBJ  12.0
    x_26_59  sup_26  1.0
    x_26_59  dem_59  1.0
    x_27_0  OBJ  27.0
    x_27_0  sup_27  1.0
    x_27_0  dem_0  1.0
    x_27_1  OBJ  22.0
    x_27_1  sup_27  1.0
    x_27_1  dem_1  1.0
    x_27_2  OBJ  29.0
    x_27_2  sup_27  1.0
    x_27_2  dem_2  1.0
    x_27_3  OBJ  19.0
    x_27_3  sup_27  1.0
    x_27_3  dem_3  1.0
    x_27_4  OBJ  29.0
    x_27_4  sup_27  1.0
    x_27_4  dem_4  1.0
    x_27_5  OBJ  17.0
    x_27_5  sup_27  1.0
    x_27_5  dem_5  1.0
    x_27_6  OBJ  28.0
    x_27_6  sup_27  1.0
    x_27_6  dem_6  1.0
    x_27_7  OBJ  20.0
    x_27_7  sup_27  1.0
    x_27_7  dem_7  1.0
    x_27_8  OBJ  25.0
    x_27_8  sup_27  1.0
    x_27_8  dem_8  1.0
    x_27_9  OBJ  10.0
    x_27_9  sup_27  1.0
    x_27_9  dem_9  1.0
    x_27_10  OBJ  25.0
    x_27_10  sup_27  1.0
    x_27_10  dem_10  1.0
    x_27_11  OBJ  26.0
    x_27_11  sup_27  1.0
    x_27_11  dem_11  1.0
    x_27_12  OBJ  12.0
    x_27_12  sup_27  1.0
    x_27_12  dem_12  1.0
    x_27_13  OBJ  12.0
    x_27_13  sup_27  1.0
    x_27_13  dem_13  1.0
    x_27_14  OBJ  20.0
    x_27_14  sup_27  1.0
    x_27_14  dem_14  1.0
    x_27_15  OBJ  5.0
    x_27_15  sup_27  1.0
    x_27_15  dem_15  1.0
    x_27_16  OBJ  29.0
    x_27_16  sup_27  1.0
    x_27_16  dem_16  1.0
    x_27_17  OBJ  1.0
    x_27_17  sup_27  1.0
    x_27_17  dem_17  1.0
    x_27_18  OBJ  6.0
    x_27_18  sup_27  1.0
    x_27_18  dem_18  1.0
    x_27_19  OBJ  19.0
    x_27_19  sup_27  1.0
    x_27_19  dem_19  1.0
    x_27_20  OBJ  24.0
    x_27_20  sup_27  1.0
    x_27_20  dem_20  1.0
    x_27_21  OBJ  7.0
    x_27_21  sup_27  1.0
    x_27_21  dem_21  1.0
    x_27_22  OBJ  19.0
    x_27_22  sup_27  1.0
    x_27_22  dem_22  1.0
    x_27_23  OBJ  28.0
    x_27_23  sup_27  1.0
    x_27_23  dem_23  1.0
    x_27_24  OBJ  5.0
    x_27_24  sup_27  1.0
    x_27_24  dem_24  1.0
    x_27_25  OBJ  6.0
    x_27_25  sup_27  1.0
    x_27_25  dem_25  1.0
    x_27_26  OBJ  8.0
    x_27_26  sup_27  1.0
    x_27_26  dem_26  1.0
    x_27_27  OBJ  10.0
    x_27_27  sup_27  1.0
    x_27_27  dem_27  1.0
    x_27_28  OBJ  18.0
    x_27_28  sup_27  1.0
    x_27_28  dem_28  1.0
    x_27_29  OBJ  29.0
    x_27_29  sup_27  1.0
    x_27_29  dem_29  1.0
    x_27_30  OBJ  24.0
    x_27_30  sup_27  1.0
    x_27_30  dem_30  1.0
    x_27_31  OBJ  16.0
    x_27_31  sup_27  1.0
    x_27_31  dem_31  1.0
    x_27_32  OBJ  19.0
    x_27_32  sup_27  1.0
    x_27_32  dem_32  1.0
    x_27_33  OBJ  27.0
    x_27_33  sup_27  1.0
    x_27_33  dem_33  1.0
    x_27_34  OBJ  28.0
    x_27_34  sup_27  1.0
    x_27_34  dem_34  1.0
    x_27_35  OBJ  23.0
    x_27_35  sup_27  1.0
    x_27_35  dem_35  1.0
    x_27_36  OBJ  24.0
    x_27_36  sup_27  1.0
    x_27_36  dem_36  1.0
    x_27_37  OBJ  4.0
    x_27_37  sup_27  1.0
    x_27_37  dem_37  1.0
    x_27_38  OBJ  9.0
    x_27_38  sup_27  1.0
    x_27_38  dem_38  1.0
    x_27_39  OBJ  7.0
    x_27_39  sup_27  1.0
    x_27_39  dem_39  1.0
    x_27_40  OBJ  24.0
    x_27_40  sup_27  1.0
    x_27_40  dem_40  1.0
    x_27_41  OBJ  12.0
    x_27_41  sup_27  1.0
    x_27_41  dem_41  1.0
    x_27_42  OBJ  2.0
    x_27_42  sup_27  1.0
    x_27_42  dem_42  1.0
    x_27_43  OBJ  26.0
    x_27_43  sup_27  1.0
    x_27_43  dem_43  1.0
    x_27_44  OBJ  27.0
    x_27_44  sup_27  1.0
    x_27_44  dem_44  1.0
    x_27_45  OBJ  10.0
    x_27_45  sup_27  1.0
    x_27_45  dem_45  1.0
    x_27_46  OBJ  28.0
    x_27_46  sup_27  1.0
    x_27_46  dem_46  1.0
    x_27_47  OBJ  14.0
    x_27_47  sup_27  1.0
    x_27_47  dem_47  1.0
    x_27_48  OBJ  10.0
    x_27_48  sup_27  1.0
    x_27_48  dem_48  1.0
    x_27_49  OBJ  14.0
    x_27_49  sup_27  1.0
    x_27_49  dem_49  1.0
    x_27_50  OBJ  15.0
    x_27_50  sup_27  1.0
    x_27_50  dem_50  1.0
    x_27_51  OBJ  10.0
    x_27_51  sup_27  1.0
    x_27_51  dem_51  1.0
    x_27_52  OBJ  19.0
    x_27_52  sup_27  1.0
    x_27_52  dem_52  1.0
    x_27_53  OBJ  23.0
    x_27_53  sup_27  1.0
    x_27_53  dem_53  1.0
    x_27_54  OBJ  25.0
    x_27_54  sup_27  1.0
    x_27_54  dem_54  1.0
    x_27_55  OBJ  2.0
    x_27_55  sup_27  1.0
    x_27_55  dem_55  1.0
    x_27_56  OBJ  12.0
    x_27_56  sup_27  1.0
    x_27_56  dem_56  1.0
    x_27_57  OBJ  7.0
    x_27_57  sup_27  1.0
    x_27_57  dem_57  1.0
    x_27_58  OBJ  26.0
    x_27_58  sup_27  1.0
    x_27_58  dem_58  1.0
    x_27_59  OBJ  24.0
    x_27_59  sup_27  1.0
    x_27_59  dem_59  1.0
    x_28_0  OBJ  9.0
    x_28_0  sup_28  1.0
    x_28_0  dem_0  1.0
    x_28_1  OBJ  18.0
    x_28_1  sup_28  1.0
    x_28_1  dem_1  1.0
    x_28_2  OBJ  6.0
    x_28_2  sup_28  1.0
    x_28_2  dem_2  1.0
    x_28_3  OBJ  15.0
    x_28_3  sup_28  1.0
    x_28_3  dem_3  1.0
    x_28_4  OBJ  29.0
    x_28_4  sup_28  1.0
    x_28_4  dem_4  1.0
    x_28_5  OBJ  11.0
    x_28_5  sup_28  1.0
    x_28_5  dem_5  1.0
    x_28_6  OBJ  7.0
    x_28_6  sup_28  1.0
    x_28_6  dem_6  1.0
    x_28_7  OBJ  4.0
    x_28_7  sup_28  1.0
    x_28_7  dem_7  1.0
    x_28_8  OBJ  11.0
    x_28_8  sup_28  1.0
    x_28_8  dem_8  1.0
    x_28_9  OBJ  14.0
    x_28_9  sup_28  1.0
    x_28_9  dem_9  1.0
    x_28_10  OBJ  20.0
    x_28_10  sup_28  1.0
    x_28_10  dem_10  1.0
    x_28_11  OBJ  29.0
    x_28_11  sup_28  1.0
    x_28_11  dem_11  1.0
    x_28_12  OBJ  10.0
    x_28_12  sup_28  1.0
    x_28_12  dem_12  1.0
    x_28_13  OBJ  18.0
    x_28_13  sup_28  1.0
    x_28_13  dem_13  1.0
    x_28_14  OBJ  29.0
    x_28_14  sup_28  1.0
    x_28_14  dem_14  1.0
    x_28_15  OBJ  17.0
    x_28_15  sup_28  1.0
    x_28_15  dem_15  1.0
    x_28_16  OBJ  16.0
    x_28_16  sup_28  1.0
    x_28_16  dem_16  1.0
    x_28_17  OBJ  29.0
    x_28_17  sup_28  1.0
    x_28_17  dem_17  1.0
    x_28_18  OBJ  28.0
    x_28_18  sup_28  1.0
    x_28_18  dem_18  1.0
    x_28_19  OBJ  26.0
    x_28_19  sup_28  1.0
    x_28_19  dem_19  1.0
    x_28_20  OBJ  6.0
    x_28_20  sup_28  1.0
    x_28_20  dem_20  1.0
    x_28_21  OBJ  29.0
    x_28_21  sup_28  1.0
    x_28_21  dem_21  1.0
    x_28_22  OBJ  23.0
    x_28_22  sup_28  1.0
    x_28_22  dem_22  1.0
    x_28_23  OBJ  28.0
    x_28_23  sup_28  1.0
    x_28_23  dem_23  1.0
    x_28_24  OBJ  12.0
    x_28_24  sup_28  1.0
    x_28_24  dem_24  1.0
    x_28_25  OBJ  20.0
    x_28_25  sup_28  1.0
    x_28_25  dem_25  1.0
    x_28_26  OBJ  25.0
    x_28_26  sup_28  1.0
    x_28_26  dem_26  1.0
    x_28_27  OBJ  9.0
    x_28_27  sup_28  1.0
    x_28_27  dem_27  1.0
    x_28_28  OBJ  25.0
    x_28_28  sup_28  1.0
    x_28_28  dem_28  1.0
    x_28_29  OBJ  19.0
    x_28_29  sup_28  1.0
    x_28_29  dem_29  1.0
    x_28_30  OBJ  29.0
    x_28_30  sup_28  1.0
    x_28_30  dem_30  1.0
    x_28_31  OBJ  11.0
    x_28_31  sup_28  1.0
    x_28_31  dem_31  1.0
    x_28_32  OBJ  10.0
    x_28_32  sup_28  1.0
    x_28_32  dem_32  1.0
    x_28_33  OBJ  24.0
    x_28_33  sup_28  1.0
    x_28_33  dem_33  1.0
    x_28_34  OBJ  2.0
    x_28_34  sup_28  1.0
    x_28_34  dem_34  1.0
    x_28_35  OBJ  4.0
    x_28_35  sup_28  1.0
    x_28_35  dem_35  1.0
    x_28_36  OBJ  6.0
    x_28_36  sup_28  1.0
    x_28_36  dem_36  1.0
    x_28_37  OBJ  14.0
    x_28_37  sup_28  1.0
    x_28_37  dem_37  1.0
    x_28_38  OBJ  12.0
    x_28_38  sup_28  1.0
    x_28_38  dem_38  1.0
    x_28_39  OBJ  25.0
    x_28_39  sup_28  1.0
    x_28_39  dem_39  1.0
    x_28_40  OBJ  28.0
    x_28_40  sup_28  1.0
    x_28_40  dem_40  1.0
    x_28_41  OBJ  14.0
    x_28_41  sup_28  1.0
    x_28_41  dem_41  1.0
    x_28_42  OBJ  17.0
    x_28_42  sup_28  1.0
    x_28_42  dem_42  1.0
    x_28_43  OBJ  18.0
    x_28_43  sup_28  1.0
    x_28_43  dem_43  1.0
    x_28_44  OBJ  12.0
    x_28_44  sup_28  1.0
    x_28_44  dem_44  1.0
    x_28_45  OBJ  3.0
    x_28_45  sup_28  1.0
    x_28_45  dem_45  1.0
    x_28_46  OBJ  26.0
    x_28_46  sup_28  1.0
    x_28_46  dem_46  1.0
    x_28_47  OBJ  9.0
    x_28_47  sup_28  1.0
    x_28_47  dem_47  1.0
    x_28_48  OBJ  22.0
    x_28_48  sup_28  1.0
    x_28_48  dem_48  1.0
    x_28_49  OBJ  28.0
    x_28_49  sup_28  1.0
    x_28_49  dem_49  1.0
    x_28_50  OBJ  19.0
    x_28_50  sup_28  1.0
    x_28_50  dem_50  1.0
    x_28_51  OBJ  20.0
    x_28_51  sup_28  1.0
    x_28_51  dem_51  1.0
    x_28_52  OBJ  21.0
    x_28_52  sup_28  1.0
    x_28_52  dem_52  1.0
    x_28_53  OBJ  11.0
    x_28_53  sup_28  1.0
    x_28_53  dem_53  1.0
    x_28_54  OBJ  21.0
    x_28_54  sup_28  1.0
    x_28_54  dem_54  1.0
    x_28_55  OBJ  15.0
    x_28_55  sup_28  1.0
    x_28_55  dem_55  1.0
    x_28_56  OBJ  23.0
    x_28_56  sup_28  1.0
    x_28_56  dem_56  1.0
    x_28_57  OBJ  23.0
    x_28_57  sup_28  1.0
    x_28_57  dem_57  1.0
    x_28_58  OBJ  18.0
    x_28_58  sup_28  1.0
    x_28_58  dem_58  1.0
    x_28_59  OBJ  23.0
    x_28_59  sup_28  1.0
    x_28_59  dem_59  1.0
    x_29_0  OBJ  2.0
    x_29_0  sup_29  1.0
    x_29_0  dem_0  1.0
    x_29_1  OBJ  25.0
    x_29_1  sup_29  1.0
    x_29_1  dem_1  1.0
    x_29_2  OBJ  28.0
    x_29_2  sup_29  1.0
    x_29_2  dem_2  1.0
    x_29_3  OBJ  9.0
    x_29_3  sup_29  1.0
    x_29_3  dem_3  1.0
    x_29_4  OBJ  17.0
    x_29_4  sup_29  1.0
    x_29_4  dem_4  1.0
    x_29_5  OBJ  7.0
    x_29_5  sup_29  1.0
    x_29_5  dem_5  1.0
    x_29_6  OBJ  17.0
    x_29_6  sup_29  1.0
    x_29_6  dem_6  1.0
    x_29_7  OBJ  19.0
    x_29_7  sup_29  1.0
    x_29_7  dem_7  1.0
    x_29_8  OBJ  27.0
    x_29_8  sup_29  1.0
    x_29_8  dem_8  1.0
    x_29_9  OBJ  16.0
    x_29_9  sup_29  1.0
    x_29_9  dem_9  1.0
    x_29_10  OBJ  19.0
    x_29_10  sup_29  1.0
    x_29_10  dem_10  1.0
    x_29_11  OBJ  17.0
    x_29_11  sup_29  1.0
    x_29_11  dem_11  1.0
    x_29_12  OBJ  27.0
    x_29_12  sup_29  1.0
    x_29_12  dem_12  1.0
    x_29_13  OBJ  7.0
    x_29_13  sup_29  1.0
    x_29_13  dem_13  1.0
    x_29_14  OBJ  6.0
    x_29_14  sup_29  1.0
    x_29_14  dem_14  1.0
    x_29_15  OBJ  10.0
    x_29_15  sup_29  1.0
    x_29_15  dem_15  1.0
    x_29_16  OBJ  12.0
    x_29_16  sup_29  1.0
    x_29_16  dem_16  1.0
    x_29_17  OBJ  22.0
    x_29_17  sup_29  1.0
    x_29_17  dem_17  1.0
    x_29_18  OBJ  3.0
    x_29_18  sup_29  1.0
    x_29_18  dem_18  1.0
    x_29_19  OBJ  11.0
    x_29_19  sup_29  1.0
    x_29_19  dem_19  1.0
    x_29_20  OBJ  3.0
    x_29_20  sup_29  1.0
    x_29_20  dem_20  1.0
    x_29_21  OBJ  22.0
    x_29_21  sup_29  1.0
    x_29_21  dem_21  1.0
    x_29_22  OBJ  11.0
    x_29_22  sup_29  1.0
    x_29_22  dem_22  1.0
    x_29_23  OBJ  2.0
    x_29_23  sup_29  1.0
    x_29_23  dem_23  1.0
    x_29_24  OBJ  21.0
    x_29_24  sup_29  1.0
    x_29_24  dem_24  1.0
    x_29_25  OBJ  28.0
    x_29_25  sup_29  1.0
    x_29_25  dem_25  1.0
    x_29_26  OBJ  11.0
    x_29_26  sup_29  1.0
    x_29_26  dem_26  1.0
    x_29_27  OBJ  7.0
    x_29_27  sup_29  1.0
    x_29_27  dem_27  1.0
    x_29_28  OBJ  19.0
    x_29_28  sup_29  1.0
    x_29_28  dem_28  1.0
    x_29_29  OBJ  14.0
    x_29_29  sup_29  1.0
    x_29_29  dem_29  1.0
    x_29_30  OBJ  1.0
    x_29_30  sup_29  1.0
    x_29_30  dem_30  1.0
    x_29_31  OBJ  27.0
    x_29_31  sup_29  1.0
    x_29_31  dem_31  1.0
    x_29_32  OBJ  4.0
    x_29_32  sup_29  1.0
    x_29_32  dem_32  1.0
    x_29_33  OBJ  8.0
    x_29_33  sup_29  1.0
    x_29_33  dem_33  1.0
    x_29_34  OBJ  11.0
    x_29_34  sup_29  1.0
    x_29_34  dem_34  1.0
    x_29_35  OBJ  7.0
    x_29_35  sup_29  1.0
    x_29_35  dem_35  1.0
    x_29_36  OBJ  17.0
    x_29_36  sup_29  1.0
    x_29_36  dem_36  1.0
    x_29_37  OBJ  29.0
    x_29_37  sup_29  1.0
    x_29_37  dem_37  1.0
    x_29_38  OBJ  22.0
    x_29_38  sup_29  1.0
    x_29_38  dem_38  1.0
    x_29_39  OBJ  27.0
    x_29_39  sup_29  1.0
    x_29_39  dem_39  1.0
    x_29_40  OBJ  14.0
    x_29_40  sup_29  1.0
    x_29_40  dem_40  1.0
    x_29_41  OBJ  16.0
    x_29_41  sup_29  1.0
    x_29_41  dem_41  1.0
    x_29_42  OBJ  11.0
    x_29_42  sup_29  1.0
    x_29_42  dem_42  1.0
    x_29_43  OBJ  2.0
    x_29_43  sup_29  1.0
    x_29_43  dem_43  1.0
    x_29_44  OBJ  20.0
    x_29_44  sup_29  1.0
    x_29_44  dem_44  1.0
    x_29_45  OBJ  18.0
    x_29_45  sup_29  1.0
    x_29_45  dem_45  1.0
    x_29_46  OBJ  1.0
    x_29_46  sup_29  1.0
    x_29_46  dem_46  1.0
    x_29_47  OBJ  8.0
    x_29_47  sup_29  1.0
    x_29_47  dem_47  1.0
    x_29_48  OBJ  1.0
    x_29_48  sup_29  1.0
    x_29_48  dem_48  1.0
    x_29_49  OBJ  7.0
    x_29_49  sup_29  1.0
    x_29_49  dem_49  1.0
    x_29_50  OBJ  21.0
    x_29_50  sup_29  1.0
    x_29_50  dem_50  1.0
    x_29_51  OBJ  28.0
    x_29_51  sup_29  1.0
    x_29_51  dem_51  1.0
    x_29_52  OBJ  21.0
    x_29_52  sup_29  1.0
    x_29_52  dem_52  1.0
    x_29_53  OBJ  18.0
    x_29_53  sup_29  1.0
    x_29_53  dem_53  1.0
    x_29_54  OBJ  27.0
    x_29_54  sup_29  1.0
    x_29_54  dem_54  1.0
    x_29_55  OBJ  13.0
    x_29_55  sup_29  1.0
    x_29_55  dem_55  1.0
    x_29_56  OBJ  13.0
    x_29_56  sup_29  1.0
    x_29_56  dem_56  1.0
    x_29_57  OBJ  2.0
    x_29_57  sup_29  1.0
    x_29_57  dem_57  1.0
    x_29_58  OBJ  15.0
    x_29_58  sup_29  1.0
    x_29_58  dem_58  1.0
    x_29_59  OBJ  11.0
    x_29_59  sup_29  1.0
    x_29_59  dem_59  1.0
    x_30_0  OBJ  16.0
    x_30_0  sup_30  1.0
    x_30_0  dem_0  1.0
    x_30_1  OBJ  26.0
    x_30_1  sup_30  1.0
    x_30_1  dem_1  1.0
    x_30_2  OBJ  5.0
    x_30_2  sup_30  1.0
    x_30_2  dem_2  1.0
    x_30_3  OBJ  9.0
    x_30_3  sup_30  1.0
    x_30_3  dem_3  1.0
    x_30_4  OBJ  5.0
    x_30_4  sup_30  1.0
    x_30_4  dem_4  1.0
    x_30_5  OBJ  10.0
    x_30_5  sup_30  1.0
    x_30_5  dem_5  1.0
    x_30_6  OBJ  10.0
    x_30_6  sup_30  1.0
    x_30_6  dem_6  1.0
    x_30_7  OBJ  18.0
    x_30_7  sup_30  1.0
    x_30_7  dem_7  1.0
    x_30_8  OBJ  20.0
    x_30_8  sup_30  1.0
    x_30_8  dem_8  1.0
    x_30_9  OBJ  8.0
    x_30_9  sup_30  1.0
    x_30_9  dem_9  1.0
    x_30_10  OBJ  8.0
    x_30_10  sup_30  1.0
    x_30_10  dem_10  1.0
    x_30_11  OBJ  17.0
    x_30_11  sup_30  1.0
    x_30_11  dem_11  1.0
    x_30_12  OBJ  23.0
    x_30_12  sup_30  1.0
    x_30_12  dem_12  1.0
    x_30_13  OBJ  23.0
    x_30_13  sup_30  1.0
    x_30_13  dem_13  1.0
    x_30_14  OBJ  11.0
    x_30_14  sup_30  1.0
    x_30_14  dem_14  1.0
    x_30_15  OBJ  9.0
    x_30_15  sup_30  1.0
    x_30_15  dem_15  1.0
    x_30_16  OBJ  7.0
    x_30_16  sup_30  1.0
    x_30_16  dem_16  1.0
    x_30_17  OBJ  14.0
    x_30_17  sup_30  1.0
    x_30_17  dem_17  1.0
    x_30_18  OBJ  18.0
    x_30_18  sup_30  1.0
    x_30_18  dem_18  1.0
    x_30_19  OBJ  17.0
    x_30_19  sup_30  1.0
    x_30_19  dem_19  1.0
    x_30_20  OBJ  26.0
    x_30_20  sup_30  1.0
    x_30_20  dem_20  1.0
    x_30_21  OBJ  11.0
    x_30_21  sup_30  1.0
    x_30_21  dem_21  1.0
    x_30_22  OBJ  15.0
    x_30_22  sup_30  1.0
    x_30_22  dem_22  1.0
    x_30_23  OBJ  7.0
    x_30_23  sup_30  1.0
    x_30_23  dem_23  1.0
    x_30_24  OBJ  13.0
    x_30_24  sup_30  1.0
    x_30_24  dem_24  1.0
    x_30_25  OBJ  4.0
    x_30_25  sup_30  1.0
    x_30_25  dem_25  1.0
    x_30_26  OBJ  14.0
    x_30_26  sup_30  1.0
    x_30_26  dem_26  1.0
    x_30_27  OBJ  17.0
    x_30_27  sup_30  1.0
    x_30_27  dem_27  1.0
    x_30_28  OBJ  3.0
    x_30_28  sup_30  1.0
    x_30_28  dem_28  1.0
    x_30_29  OBJ  28.0
    x_30_29  sup_30  1.0
    x_30_29  dem_29  1.0
    x_30_30  OBJ  2.0
    x_30_30  sup_30  1.0
    x_30_30  dem_30  1.0
    x_30_31  OBJ  1.0
    x_30_31  sup_30  1.0
    x_30_31  dem_31  1.0
    x_30_32  OBJ  3.0
    x_30_32  sup_30  1.0
    x_30_32  dem_32  1.0
    x_30_33  OBJ  26.0
    x_30_33  sup_30  1.0
    x_30_33  dem_33  1.0
    x_30_34  OBJ  23.0
    x_30_34  sup_30  1.0
    x_30_34  dem_34  1.0
    x_30_35  OBJ  28.0
    x_30_35  sup_30  1.0
    x_30_35  dem_35  1.0
    x_30_36  OBJ  19.0
    x_30_36  sup_30  1.0
    x_30_36  dem_36  1.0
    x_30_37  OBJ  16.0
    x_30_37  sup_30  1.0
    x_30_37  dem_37  1.0
    x_30_38  OBJ  11.0
    x_30_38  sup_30  1.0
    x_30_38  dem_38  1.0
    x_30_39  OBJ  29.0
    x_30_39  sup_30  1.0
    x_30_39  dem_39  1.0
    x_30_40  OBJ  19.0
    x_30_40  sup_30  1.0
    x_30_40  dem_40  1.0
    x_30_41  OBJ  21.0
    x_30_41  sup_30  1.0
    x_30_41  dem_41  1.0
    x_30_42  OBJ  13.0
    x_30_42  sup_30  1.0
    x_30_42  dem_42  1.0
    x_30_43  OBJ  16.0
    x_30_43  sup_30  1.0
    x_30_43  dem_43  1.0
    x_30_44  OBJ  25.0
    x_30_44  sup_30  1.0
    x_30_44  dem_44  1.0
    x_30_45  OBJ  14.0
    x_30_45  sup_30  1.0
    x_30_45  dem_45  1.0
    x_30_46  OBJ  20.0
    x_30_46  sup_30  1.0
    x_30_46  dem_46  1.0
    x_30_47  OBJ  14.0
    x_30_47  sup_30  1.0
    x_30_47  dem_47  1.0
    x_30_48  OBJ  23.0
    x_30_48  sup_30  1.0
    x_30_48  dem_48  1.0
    x_30_49  OBJ  20.0
    x_30_49  sup_30  1.0
    x_30_49  dem_49  1.0
    x_30_50  OBJ  19.0
    x_30_50  sup_30  1.0
    x_30_50  dem_50  1.0
    x_30_51  OBJ  7.0
    x_30_51  sup_30  1.0
    x_30_51  dem_51  1.0
    x_30_52  OBJ  8.0
    x_30_52  sup_30  1.0
    x_30_52  dem_52  1.0
    x_30_53  OBJ  21.0
    x_30_53  sup_30  1.0
    x_30_53  dem_53  1.0
    x_30_54  OBJ  6.0
    x_30_54  sup_30  1.0
    x_30_54  dem_54  1.0
    x_30_55  OBJ  15.0
    x_30_55  sup_30  1.0
    x_30_55  dem_55  1.0
    x_30_56  OBJ  14.0
    x_30_56  sup_30  1.0
    x_30_56  dem_56  1.0
    x_30_57  OBJ  20.0
    x_30_57  sup_30  1.0
    x_30_57  dem_57  1.0
    x_30_58  OBJ  3.0
    x_30_58  sup_30  1.0
    x_30_58  dem_58  1.0
    x_30_59  OBJ  28.0
    x_30_59  sup_30  1.0
    x_30_59  dem_59  1.0
    x_31_0  OBJ  13.0
    x_31_0  sup_31  1.0
    x_31_0  dem_0  1.0
    x_31_1  OBJ  7.0
    x_31_1  sup_31  1.0
    x_31_1  dem_1  1.0
    x_31_2  OBJ  21.0
    x_31_2  sup_31  1.0
    x_31_2  dem_2  1.0
    x_31_3  OBJ  12.0
    x_31_3  sup_31  1.0
    x_31_3  dem_3  1.0
    x_31_4  OBJ  4.0
    x_31_4  sup_31  1.0
    x_31_4  dem_4  1.0
    x_31_5  OBJ  8.0
    x_31_5  sup_31  1.0
    x_31_5  dem_5  1.0
    x_31_6  OBJ  14.0
    x_31_6  sup_31  1.0
    x_31_6  dem_6  1.0
    x_31_7  OBJ  2.0
    x_31_7  sup_31  1.0
    x_31_7  dem_7  1.0
    x_31_8  OBJ  16.0
    x_31_8  sup_31  1.0
    x_31_8  dem_8  1.0
    x_31_9  OBJ  19.0
    x_31_9  sup_31  1.0
    x_31_9  dem_9  1.0
    x_31_10  OBJ  10.0
    x_31_10  sup_31  1.0
    x_31_10  dem_10  1.0
    x_31_11  OBJ  19.0
    x_31_11  sup_31  1.0
    x_31_11  dem_11  1.0
    x_31_12  OBJ  19.0
    x_31_12  sup_31  1.0
    x_31_12  dem_12  1.0
    x_31_13  OBJ  29.0
    x_31_13  sup_31  1.0
    x_31_13  dem_13  1.0
    x_31_14  OBJ  17.0
    x_31_14  sup_31  1.0
    x_31_14  dem_14  1.0
    x_31_15  OBJ  18.0
    x_31_15  sup_31  1.0
    x_31_15  dem_15  1.0
    x_31_16  OBJ  19.0
    x_31_16  sup_31  1.0
    x_31_16  dem_16  1.0
    x_31_17  OBJ  12.0
    x_31_17  sup_31  1.0
    x_31_17  dem_17  1.0
    x_31_18  OBJ  2.0
    x_31_18  sup_31  1.0
    x_31_18  dem_18  1.0
    x_31_19  OBJ  27.0
    x_31_19  sup_31  1.0
    x_31_19  dem_19  1.0
    x_31_20  OBJ  12.0
    x_31_20  sup_31  1.0
    x_31_20  dem_20  1.0
    x_31_21  OBJ  1.0
    x_31_21  sup_31  1.0
    x_31_21  dem_21  1.0
    x_31_22  OBJ  5.0
    x_31_22  sup_31  1.0
    x_31_22  dem_22  1.0
    x_31_23  OBJ  9.0
    x_31_23  sup_31  1.0
    x_31_23  dem_23  1.0
    x_31_24  OBJ  21.0
    x_31_24  sup_31  1.0
    x_31_24  dem_24  1.0
    x_31_25  OBJ  22.0
    x_31_25  sup_31  1.0
    x_31_25  dem_25  1.0
    x_31_26  OBJ  24.0
    x_31_26  sup_31  1.0
    x_31_26  dem_26  1.0
    x_31_27  OBJ  5.0
    x_31_27  sup_31  1.0
    x_31_27  dem_27  1.0
    x_31_28  OBJ  16.0
    x_31_28  sup_31  1.0
    x_31_28  dem_28  1.0
    x_31_29  OBJ  11.0
    x_31_29  sup_31  1.0
    x_31_29  dem_29  1.0
    x_31_30  OBJ  7.0
    x_31_30  sup_31  1.0
    x_31_30  dem_30  1.0
    x_31_31  OBJ  25.0
    x_31_31  sup_31  1.0
    x_31_31  dem_31  1.0
    x_31_32  OBJ  21.0
    x_31_32  sup_31  1.0
    x_31_32  dem_32  1.0
    x_31_33  OBJ  10.0
    x_31_33  sup_31  1.0
    x_31_33  dem_33  1.0
    x_31_34  OBJ  3.0
    x_31_34  sup_31  1.0
    x_31_34  dem_34  1.0
    x_31_35  OBJ  8.0
    x_31_35  sup_31  1.0
    x_31_35  dem_35  1.0
    x_31_36  OBJ  14.0
    x_31_36  sup_31  1.0
    x_31_36  dem_36  1.0
    x_31_37  OBJ  26.0
    x_31_37  sup_31  1.0
    x_31_37  dem_37  1.0
    x_31_38  OBJ  24.0
    x_31_38  sup_31  1.0
    x_31_38  dem_38  1.0
    x_31_39  OBJ  3.0
    x_31_39  sup_31  1.0
    x_31_39  dem_39  1.0
    x_31_40  OBJ  1.0
    x_31_40  sup_31  1.0
    x_31_40  dem_40  1.0
    x_31_41  OBJ  25.0
    x_31_41  sup_31  1.0
    x_31_41  dem_41  1.0
    x_31_42  OBJ  12.0
    x_31_42  sup_31  1.0
    x_31_42  dem_42  1.0
    x_31_43  OBJ  10.0
    x_31_43  sup_31  1.0
    x_31_43  dem_43  1.0
    x_31_44  OBJ  23.0
    x_31_44  sup_31  1.0
    x_31_44  dem_44  1.0
    x_31_45  OBJ  7.0
    x_31_45  sup_31  1.0
    x_31_45  dem_45  1.0
    x_31_46  OBJ  22.0
    x_31_46  sup_31  1.0
    x_31_46  dem_46  1.0
    x_31_47  OBJ  15.0
    x_31_47  sup_31  1.0
    x_31_47  dem_47  1.0
    x_31_48  OBJ  5.0
    x_31_48  sup_31  1.0
    x_31_48  dem_48  1.0
    x_31_49  OBJ  15.0
    x_31_49  sup_31  1.0
    x_31_49  dem_49  1.0
    x_31_50  OBJ  24.0
    x_31_50  sup_31  1.0
    x_31_50  dem_50  1.0
    x_31_51  OBJ  28.0
    x_31_51  sup_31  1.0
    x_31_51  dem_51  1.0
    x_31_52  OBJ  18.0
    x_31_52  sup_31  1.0
    x_31_52  dem_52  1.0
    x_31_53  OBJ  22.0
    x_31_53  sup_31  1.0
    x_31_53  dem_53  1.0
    x_31_54  OBJ  8.0
    x_31_54  sup_31  1.0
    x_31_54  dem_54  1.0
    x_31_55  OBJ  14.0
    x_31_55  sup_31  1.0
    x_31_55  dem_55  1.0
    x_31_56  OBJ  7.0
    x_31_56  sup_31  1.0
    x_31_56  dem_56  1.0
    x_31_57  OBJ  17.0
    x_31_57  sup_31  1.0
    x_31_57  dem_57  1.0
    x_31_58  OBJ  12.0
    x_31_58  sup_31  1.0
    x_31_58  dem_58  1.0
    x_31_59  OBJ  10.0
    x_31_59  sup_31  1.0
    x_31_59  dem_59  1.0
    x_32_0  OBJ  5.0
    x_32_0  sup_32  1.0
    x_32_0  dem_0  1.0
    x_32_1  OBJ  29.0
    x_32_1  sup_32  1.0
    x_32_1  dem_1  1.0
    x_32_2  OBJ  19.0
    x_32_2  sup_32  1.0
    x_32_2  dem_2  1.0
    x_32_3  OBJ  12.0
    x_32_3  sup_32  1.0
    x_32_3  dem_3  1.0
    x_32_4  OBJ  9.0
    x_32_4  sup_32  1.0
    x_32_4  dem_4  1.0
    x_32_5  OBJ  26.0
    x_32_5  sup_32  1.0
    x_32_5  dem_5  1.0
    x_32_6  OBJ  6.0
    x_32_6  sup_32  1.0
    x_32_6  dem_6  1.0
    x_32_7  OBJ  20.0
    x_32_7  sup_32  1.0
    x_32_7  dem_7  1.0
    x_32_8  OBJ  16.0
    x_32_8  sup_32  1.0
    x_32_8  dem_8  1.0
    x_32_9  OBJ  27.0
    x_32_9  sup_32  1.0
    x_32_9  dem_9  1.0
    x_32_10  OBJ  25.0
    x_32_10  sup_32  1.0
    x_32_10  dem_10  1.0
    x_32_11  OBJ  11.0
    x_32_11  sup_32  1.0
    x_32_11  dem_11  1.0
    x_32_12  OBJ  19.0
    x_32_12  sup_32  1.0
    x_32_12  dem_12  1.0
    x_32_13  OBJ  13.0
    x_32_13  sup_32  1.0
    x_32_13  dem_13  1.0
    x_32_14  OBJ  1.0
    x_32_14  sup_32  1.0
    x_32_14  dem_14  1.0
    x_32_15  OBJ  11.0
    x_32_15  sup_32  1.0
    x_32_15  dem_15  1.0
    x_32_16  OBJ  17.0
    x_32_16  sup_32  1.0
    x_32_16  dem_16  1.0
    x_32_17  OBJ  24.0
    x_32_17  sup_32  1.0
    x_32_17  dem_17  1.0
    x_32_18  OBJ  29.0
    x_32_18  sup_32  1.0
    x_32_18  dem_18  1.0
    x_32_19  OBJ  28.0
    x_32_19  sup_32  1.0
    x_32_19  dem_19  1.0
    x_32_20  OBJ  3.0
    x_32_20  sup_32  1.0
    x_32_20  dem_20  1.0
    x_32_21  OBJ  24.0
    x_32_21  sup_32  1.0
    x_32_21  dem_21  1.0
    x_32_22  OBJ  7.0
    x_32_22  sup_32  1.0
    x_32_22  dem_22  1.0
    x_32_23  OBJ  14.0
    x_32_23  sup_32  1.0
    x_32_23  dem_23  1.0
    x_32_24  OBJ  16.0
    x_32_24  sup_32  1.0
    x_32_24  dem_24  1.0
    x_32_25  OBJ  25.0
    x_32_25  sup_32  1.0
    x_32_25  dem_25  1.0
    x_32_26  OBJ  21.0
    x_32_26  sup_32  1.0
    x_32_26  dem_26  1.0
    x_32_27  OBJ  22.0
    x_32_27  sup_32  1.0
    x_32_27  dem_27  1.0
    x_32_28  OBJ  29.0
    x_32_28  sup_32  1.0
    x_32_28  dem_28  1.0
    x_32_29  OBJ  16.0
    x_32_29  sup_32  1.0
    x_32_29  dem_29  1.0
    x_32_30  OBJ  6.0
    x_32_30  sup_32  1.0
    x_32_30  dem_30  1.0
    x_32_31  OBJ  6.0
    x_32_31  sup_32  1.0
    x_32_31  dem_31  1.0
    x_32_32  OBJ  24.0
    x_32_32  sup_32  1.0
    x_32_32  dem_32  1.0
    x_32_33  OBJ  7.0
    x_32_33  sup_32  1.0
    x_32_33  dem_33  1.0
    x_32_34  OBJ  11.0
    x_32_34  sup_32  1.0
    x_32_34  dem_34  1.0
    x_32_35  OBJ  21.0
    x_32_35  sup_32  1.0
    x_32_35  dem_35  1.0
    x_32_36  OBJ  12.0
    x_32_36  sup_32  1.0
    x_32_36  dem_36  1.0
    x_32_37  OBJ  6.0
    x_32_37  sup_32  1.0
    x_32_37  dem_37  1.0
    x_32_38  OBJ  12.0
    x_32_38  sup_32  1.0
    x_32_38  dem_38  1.0
    x_32_39  OBJ  17.0
    x_32_39  sup_32  1.0
    x_32_39  dem_39  1.0
    x_32_40  OBJ  18.0
    x_32_40  sup_32  1.0
    x_32_40  dem_40  1.0
    x_32_41  OBJ  24.0
    x_32_41  sup_32  1.0
    x_32_41  dem_41  1.0
    x_32_42  OBJ  7.0
    x_32_42  sup_32  1.0
    x_32_42  dem_42  1.0
    x_32_43  OBJ  19.0
    x_32_43  sup_32  1.0
    x_32_43  dem_43  1.0
    x_32_44  OBJ  25.0
    x_32_44  sup_32  1.0
    x_32_44  dem_44  1.0
    x_32_45  OBJ  18.0
    x_32_45  sup_32  1.0
    x_32_45  dem_45  1.0
    x_32_46  OBJ  23.0
    x_32_46  sup_32  1.0
    x_32_46  dem_46  1.0
    x_32_47  OBJ  8.0
    x_32_47  sup_32  1.0
    x_32_47  dem_47  1.0
    x_32_48  OBJ  24.0
    x_32_48  sup_32  1.0
    x_32_48  dem_48  1.0
    x_32_49  OBJ  4.0
    x_32_49  sup_32  1.0
    x_32_49  dem_49  1.0
    x_32_50  OBJ  20.0
    x_32_50  sup_32  1.0
    x_32_50  dem_50  1.0
    x_32_51  OBJ  1.0
    x_32_51  sup_32  1.0
    x_32_51  dem_51  1.0
    x_32_52  OBJ  11.0
    x_32_52  sup_32  1.0
    x_32_52  dem_52  1.0
    x_32_53  OBJ  2.0
    x_32_53  sup_32  1.0
    x_32_53  dem_53  1.0
    x_32_54  OBJ  13.0
    x_32_54  sup_32  1.0
    x_32_54  dem_54  1.0
    x_32_55  OBJ  7.0
    x_32_55  sup_32  1.0
    x_32_55  dem_55  1.0
    x_32_56  OBJ  9.0
    x_32_56  sup_32  1.0
    x_32_56  dem_56  1.0
    x_32_57  OBJ  17.0
    x_32_57  sup_32  1.0
    x_32_57  dem_57  1.0
    x_32_58  OBJ  19.0
    x_32_58  sup_32  1.0
    x_32_58  dem_58  1.0
    x_32_59  OBJ  13.0
    x_32_59  sup_32  1.0
    x_32_59  dem_59  1.0
    x_33_0  OBJ  3.0
    x_33_0  sup_33  1.0
    x_33_0  dem_0  1.0
    x_33_1  OBJ  6.0
    x_33_1  sup_33  1.0
    x_33_1  dem_1  1.0
    x_33_2  OBJ  16.0
    x_33_2  sup_33  1.0
    x_33_2  dem_2  1.0
    x_33_3  OBJ  9.0
    x_33_3  sup_33  1.0
    x_33_3  dem_3  1.0
    x_33_4  OBJ  1.0
    x_33_4  sup_33  1.0
    x_33_4  dem_4  1.0
    x_33_5  OBJ  14.0
    x_33_5  sup_33  1.0
    x_33_5  dem_5  1.0
    x_33_6  OBJ  25.0
    x_33_6  sup_33  1.0
    x_33_6  dem_6  1.0
    x_33_7  OBJ  24.0
    x_33_7  sup_33  1.0
    x_33_7  dem_7  1.0
    x_33_8  OBJ  1.0
    x_33_8  sup_33  1.0
    x_33_8  dem_8  1.0
    x_33_9  OBJ  20.0
    x_33_9  sup_33  1.0
    x_33_9  dem_9  1.0
    x_33_10  OBJ  6.0
    x_33_10  sup_33  1.0
    x_33_10  dem_10  1.0
    x_33_11  OBJ  2.0
    x_33_11  sup_33  1.0
    x_33_11  dem_11  1.0
    x_33_12  OBJ  15.0
    x_33_12  sup_33  1.0
    x_33_12  dem_12  1.0
    x_33_13  OBJ  14.0
    x_33_13  sup_33  1.0
    x_33_13  dem_13  1.0
    x_33_14  OBJ  5.0
    x_33_14  sup_33  1.0
    x_33_14  dem_14  1.0
    x_33_15  OBJ  6.0
    x_33_15  sup_33  1.0
    x_33_15  dem_15  1.0
    x_33_16  OBJ  11.0
    x_33_16  sup_33  1.0
    x_33_16  dem_16  1.0
    x_33_17  OBJ  25.0
    x_33_17  sup_33  1.0
    x_33_17  dem_17  1.0
    x_33_18  OBJ  4.0
    x_33_18  sup_33  1.0
    x_33_18  dem_18  1.0
    x_33_19  OBJ  26.0
    x_33_19  sup_33  1.0
    x_33_19  dem_19  1.0
    x_33_20  OBJ  14.0
    x_33_20  sup_33  1.0
    x_33_20  dem_20  1.0
    x_33_21  OBJ  17.0
    x_33_21  sup_33  1.0
    x_33_21  dem_21  1.0
    x_33_22  OBJ  29.0
    x_33_22  sup_33  1.0
    x_33_22  dem_22  1.0
    x_33_23  OBJ  22.0
    x_33_23  sup_33  1.0
    x_33_23  dem_23  1.0
    x_33_24  OBJ  10.0
    x_33_24  sup_33  1.0
    x_33_24  dem_24  1.0
    x_33_25  OBJ  20.0
    x_33_25  sup_33  1.0
    x_33_25  dem_25  1.0
    x_33_26  OBJ  20.0
    x_33_26  sup_33  1.0
    x_33_26  dem_26  1.0
    x_33_27  OBJ  24.0
    x_33_27  sup_33  1.0
    x_33_27  dem_27  1.0
    x_33_28  OBJ  15.0
    x_33_28  sup_33  1.0
    x_33_28  dem_28  1.0
    x_33_29  OBJ  9.0
    x_33_29  sup_33  1.0
    x_33_29  dem_29  1.0
    x_33_30  OBJ  17.0
    x_33_30  sup_33  1.0
    x_33_30  dem_30  1.0
    x_33_31  OBJ  7.0
    x_33_31  sup_33  1.0
    x_33_31  dem_31  1.0
    x_33_32  OBJ  17.0
    x_33_32  sup_33  1.0
    x_33_32  dem_32  1.0
    x_33_33  OBJ  22.0
    x_33_33  sup_33  1.0
    x_33_33  dem_33  1.0
    x_33_34  OBJ  22.0
    x_33_34  sup_33  1.0
    x_33_34  dem_34  1.0
    x_33_35  OBJ  28.0
    x_33_35  sup_33  1.0
    x_33_35  dem_35  1.0
    x_33_36  OBJ  4.0
    x_33_36  sup_33  1.0
    x_33_36  dem_36  1.0
    x_33_37  OBJ  7.0
    x_33_37  sup_33  1.0
    x_33_37  dem_37  1.0
    x_33_38  OBJ  24.0
    x_33_38  sup_33  1.0
    x_33_38  dem_38  1.0
    x_33_39  OBJ  17.0
    x_33_39  sup_33  1.0
    x_33_39  dem_39  1.0
    x_33_40  OBJ  5.0
    x_33_40  sup_33  1.0
    x_33_40  dem_40  1.0
    x_33_41  OBJ  16.0
    x_33_41  sup_33  1.0
    x_33_41  dem_41  1.0
    x_33_42  OBJ  19.0
    x_33_42  sup_33  1.0
    x_33_42  dem_42  1.0
    x_33_43  OBJ  11.0
    x_33_43  sup_33  1.0
    x_33_43  dem_43  1.0
    x_33_44  OBJ  8.0
    x_33_44  sup_33  1.0
    x_33_44  dem_44  1.0
    x_33_45  OBJ  22.0
    x_33_45  sup_33  1.0
    x_33_45  dem_45  1.0
    x_33_46  OBJ  29.0
    x_33_46  sup_33  1.0
    x_33_46  dem_46  1.0
    x_33_47  OBJ  4.0
    x_33_47  sup_33  1.0
    x_33_47  dem_47  1.0
    x_33_48  OBJ  15.0
    x_33_48  sup_33  1.0
    x_33_48  dem_48  1.0
    x_33_49  OBJ  11.0
    x_33_49  sup_33  1.0
    x_33_49  dem_49  1.0
    x_33_50  OBJ  6.0
    x_33_50  sup_33  1.0
    x_33_50  dem_50  1.0
    x_33_51  OBJ  13.0
    x_33_51  sup_33  1.0
    x_33_51  dem_51  1.0
    x_33_52  OBJ  7.0
    x_33_52  sup_33  1.0
    x_33_52  dem_52  1.0
    x_33_53  OBJ  28.0
    x_33_53  sup_33  1.0
    x_33_53  dem_53  1.0
    x_33_54  OBJ  7.0
    x_33_54  sup_33  1.0
    x_33_54  dem_54  1.0
    x_33_55  OBJ  20.0
    x_33_55  sup_33  1.0
    x_33_55  dem_55  1.0
    x_33_56  OBJ  15.0
    x_33_56  sup_33  1.0
    x_33_56  dem_56  1.0
    x_33_57  OBJ  21.0
    x_33_57  sup_33  1.0
    x_33_57  dem_57  1.0
    x_33_58  OBJ  18.0
    x_33_58  sup_33  1.0
    x_33_58  dem_58  1.0
    x_33_59  OBJ  29.0
    x_33_59  sup_33  1.0
    x_33_59  dem_59  1.0
    x_34_0  OBJ  16.0
    x_34_0  sup_34  1.0
    x_34_0  dem_0  1.0
    x_34_1  OBJ  7.0
    x_34_1  sup_34  1.0
    x_34_1  dem_1  1.0
    x_34_2  OBJ  13.0
    x_34_2  sup_34  1.0
    x_34_2  dem_2  1.0
    x_34_3  OBJ  18.0
    x_34_3  sup_34  1.0
    x_34_3  dem_3  1.0
    x_34_4  OBJ  10.0
    x_34_4  sup_34  1.0
    x_34_4  dem_4  1.0
    x_34_5  OBJ  4.0
    x_34_5  sup_34  1.0
    x_34_5  dem_5  1.0
    x_34_6  OBJ  7.0
    x_34_6  sup_34  1.0
    x_34_6  dem_6  1.0
    x_34_7  OBJ  5.0
    x_34_7  sup_34  1.0
    x_34_7  dem_7  1.0
    x_34_8  OBJ  24.0
    x_34_8  sup_34  1.0
    x_34_8  dem_8  1.0
    x_34_9  OBJ  21.0
    x_34_9  sup_34  1.0
    x_34_9  dem_9  1.0
    x_34_10  OBJ  27.0
    x_34_10  sup_34  1.0
    x_34_10  dem_10  1.0
    x_34_11  OBJ  24.0
    x_34_11  sup_34  1.0
    x_34_11  dem_11  1.0
    x_34_12  OBJ  6.0
    x_34_12  sup_34  1.0
    x_34_12  dem_12  1.0
    x_34_13  OBJ  19.0
    x_34_13  sup_34  1.0
    x_34_13  dem_13  1.0
    x_34_14  OBJ  27.0
    x_34_14  sup_34  1.0
    x_34_14  dem_14  1.0
    x_34_15  OBJ  17.0
    x_34_15  sup_34  1.0
    x_34_15  dem_15  1.0
    x_34_16  OBJ  19.0
    x_34_16  sup_34  1.0
    x_34_16  dem_16  1.0
    x_34_17  OBJ  23.0
    x_34_17  sup_34  1.0
    x_34_17  dem_17  1.0
    x_34_18  OBJ  2.0
    x_34_18  sup_34  1.0
    x_34_18  dem_18  1.0
    x_34_19  OBJ  28.0
    x_34_19  sup_34  1.0
    x_34_19  dem_19  1.0
    x_34_20  OBJ  25.0
    x_34_20  sup_34  1.0
    x_34_20  dem_20  1.0
    x_34_21  OBJ  27.0
    x_34_21  sup_34  1.0
    x_34_21  dem_21  1.0
    x_34_22  OBJ  3.0
    x_34_22  sup_34  1.0
    x_34_22  dem_22  1.0
    x_34_23  OBJ  24.0
    x_34_23  sup_34  1.0
    x_34_23  dem_23  1.0
    x_34_24  OBJ  25.0
    x_34_24  sup_34  1.0
    x_34_24  dem_24  1.0
    x_34_25  OBJ  13.0
    x_34_25  sup_34  1.0
    x_34_25  dem_25  1.0
    x_34_26  OBJ  6.0
    x_34_26  sup_34  1.0
    x_34_26  dem_26  1.0
    x_34_27  OBJ  23.0
    x_34_27  sup_34  1.0
    x_34_27  dem_27  1.0
    x_34_28  OBJ  5.0
    x_34_28  sup_34  1.0
    x_34_28  dem_28  1.0
    x_34_29  OBJ  7.0
    x_34_29  sup_34  1.0
    x_34_29  dem_29  1.0
    x_34_30  OBJ  20.0
    x_34_30  sup_34  1.0
    x_34_30  dem_30  1.0
    x_34_31  OBJ  27.0
    x_34_31  sup_34  1.0
    x_34_31  dem_31  1.0
    x_34_32  OBJ  28.0
    x_34_32  sup_34  1.0
    x_34_32  dem_32  1.0
    x_34_33  OBJ  9.0
    x_34_33  sup_34  1.0
    x_34_33  dem_33  1.0
    x_34_34  OBJ  2.0
    x_34_34  sup_34  1.0
    x_34_34  dem_34  1.0
    x_34_35  OBJ  29.0
    x_34_35  sup_34  1.0
    x_34_35  dem_35  1.0
    x_34_36  OBJ  24.0
    x_34_36  sup_34  1.0
    x_34_36  dem_36  1.0
    x_34_37  OBJ  9.0
    x_34_37  sup_34  1.0
    x_34_37  dem_37  1.0
    x_34_38  OBJ  3.0
    x_34_38  sup_34  1.0
    x_34_38  dem_38  1.0
    x_34_39  OBJ  8.0
    x_34_39  sup_34  1.0
    x_34_39  dem_39  1.0
    x_34_40  OBJ  9.0
    x_34_40  sup_34  1.0
    x_34_40  dem_40  1.0
    x_34_41  OBJ  10.0
    x_34_41  sup_34  1.0
    x_34_41  dem_41  1.0
    x_34_42  OBJ  16.0
    x_34_42  sup_34  1.0
    x_34_42  dem_42  1.0
    x_34_43  OBJ  15.0
    x_34_43  sup_34  1.0
    x_34_43  dem_43  1.0
    x_34_44  OBJ  10.0
    x_34_44  sup_34  1.0
    x_34_44  dem_44  1.0
    x_34_45  OBJ  6.0
    x_34_45  sup_34  1.0
    x_34_45  dem_45  1.0
    x_34_46  OBJ  29.0
    x_34_46  sup_34  1.0
    x_34_46  dem_46  1.0
    x_34_47  OBJ  8.0
    x_34_47  sup_34  1.0
    x_34_47  dem_47  1.0
    x_34_48  OBJ  4.0
    x_34_48  sup_34  1.0
    x_34_48  dem_48  1.0
    x_34_49  OBJ  26.0
    x_34_49  sup_34  1.0
    x_34_49  dem_49  1.0
    x_34_50  OBJ  19.0
    x_34_50  sup_34  1.0
    x_34_50  dem_50  1.0
    x_34_51  OBJ  28.0
    x_34_51  sup_34  1.0
    x_34_51  dem_51  1.0
    x_34_52  OBJ  9.0
    x_34_52  sup_34  1.0
    x_34_52  dem_52  1.0
    x_34_53  OBJ  5.0
    x_34_53  sup_34  1.0
    x_34_53  dem_53  1.0
    x_34_54  OBJ  16.0
    x_34_54  sup_34  1.0
    x_34_54  dem_54  1.0
    x_34_55  OBJ  13.0
    x_34_55  sup_34  1.0
    x_34_55  dem_55  1.0
    x_34_56  OBJ  1.0
    x_34_56  sup_34  1.0
    x_34_56  dem_56  1.0
    x_34_57  OBJ  13.0
    x_34_57  sup_34  1.0
    x_34_57  dem_57  1.0
    x_34_58  OBJ  19.0
    x_34_58  sup_34  1.0
    x_34_58  dem_58  1.0
    x_34_59  OBJ  25.0
    x_34_59  sup_34  1.0
    x_34_59  dem_59  1.0
    x_35_0  OBJ  25.0
    x_35_0  sup_35  1.0
    x_35_0  dem_0  1.0
    x_35_1  OBJ  20.0
    x_35_1  sup_35  1.0
    x_35_1  dem_1  1.0
    x_35_2  OBJ  9.0
    x_35_2  sup_35  1.0
    x_35_2  dem_2  1.0
    x_35_3  OBJ  12.0
    x_35_3  sup_35  1.0
    x_35_3  dem_3  1.0
    x_35_4  OBJ  9.0
    x_35_4  sup_35  1.0
    x_35_4  dem_4  1.0
    x_35_5  OBJ  23.0
    x_35_5  sup_35  1.0
    x_35_5  dem_5  1.0
    x_35_6  OBJ  6.0
    x_35_6  sup_35  1.0
    x_35_6  dem_6  1.0
    x_35_7  OBJ  18.0
    x_35_7  sup_35  1.0
    x_35_7  dem_7  1.0
    x_35_8  OBJ  13.0
    x_35_8  sup_35  1.0
    x_35_8  dem_8  1.0
    x_35_9  OBJ  7.0
    x_35_9  sup_35  1.0
    x_35_9  dem_9  1.0
    x_35_10  OBJ  4.0
    x_35_10  sup_35  1.0
    x_35_10  dem_10  1.0
    x_35_11  OBJ  23.0
    x_35_11  sup_35  1.0
    x_35_11  dem_11  1.0
    x_35_12  OBJ  3.0
    x_35_12  sup_35  1.0
    x_35_12  dem_12  1.0
    x_35_13  OBJ  14.0
    x_35_13  sup_35  1.0
    x_35_13  dem_13  1.0
    x_35_14  OBJ  19.0
    x_35_14  sup_35  1.0
    x_35_14  dem_14  1.0
    x_35_15  OBJ  26.0
    x_35_15  sup_35  1.0
    x_35_15  dem_15  1.0
    x_35_16  OBJ  4.0
    x_35_16  sup_35  1.0
    x_35_16  dem_16  1.0
    x_35_17  OBJ  20.0
    x_35_17  sup_35  1.0
    x_35_17  dem_17  1.0
    x_35_18  OBJ  29.0
    x_35_18  sup_35  1.0
    x_35_18  dem_18  1.0
    x_35_19  OBJ  5.0
    x_35_19  sup_35  1.0
    x_35_19  dem_19  1.0
    x_35_20  OBJ  10.0
    x_35_20  sup_35  1.0
    x_35_20  dem_20  1.0
    x_35_21  OBJ  22.0
    x_35_21  sup_35  1.0
    x_35_21  dem_21  1.0
    x_35_22  OBJ  23.0
    x_35_22  sup_35  1.0
    x_35_22  dem_22  1.0
    x_35_23  OBJ  17.0
    x_35_23  sup_35  1.0
    x_35_23  dem_23  1.0
    x_35_24  OBJ  27.0
    x_35_24  sup_35  1.0
    x_35_24  dem_24  1.0
    x_35_25  OBJ  16.0
    x_35_25  sup_35  1.0
    x_35_25  dem_25  1.0
    x_35_26  OBJ  18.0
    x_35_26  sup_35  1.0
    x_35_26  dem_26  1.0
    x_35_27  OBJ  13.0
    x_35_27  sup_35  1.0
    x_35_27  dem_27  1.0
    x_35_28  OBJ  3.0
    x_35_28  sup_35  1.0
    x_35_28  dem_28  1.0
    x_35_29  OBJ  20.0
    x_35_29  sup_35  1.0
    x_35_29  dem_29  1.0
    x_35_30  OBJ  18.0
    x_35_30  sup_35  1.0
    x_35_30  dem_30  1.0
    x_35_31  OBJ  2.0
    x_35_31  sup_35  1.0
    x_35_31  dem_31  1.0
    x_35_32  OBJ  14.0
    x_35_32  sup_35  1.0
    x_35_32  dem_32  1.0
    x_35_33  OBJ  15.0
    x_35_33  sup_35  1.0
    x_35_33  dem_33  1.0
    x_35_34  OBJ  15.0
    x_35_34  sup_35  1.0
    x_35_34  dem_34  1.0
    x_35_35  OBJ  28.0
    x_35_35  sup_35  1.0
    x_35_35  dem_35  1.0
    x_35_36  OBJ  11.0
    x_35_36  sup_35  1.0
    x_35_36  dem_36  1.0
    x_35_37  OBJ  6.0
    x_35_37  sup_35  1.0
    x_35_37  dem_37  1.0
    x_35_38  OBJ  26.0
    x_35_38  sup_35  1.0
    x_35_38  dem_38  1.0
    x_35_39  OBJ  4.0
    x_35_39  sup_35  1.0
    x_35_39  dem_39  1.0
    x_35_40  OBJ  2.0
    x_35_40  sup_35  1.0
    x_35_40  dem_40  1.0
    x_35_41  OBJ  12.0
    x_35_41  sup_35  1.0
    x_35_41  dem_41  1.0
    x_35_42  OBJ  3.0
    x_35_42  sup_35  1.0
    x_35_42  dem_42  1.0
    x_35_43  OBJ  16.0
    x_35_43  sup_35  1.0
    x_35_43  dem_43  1.0
    x_35_44  OBJ  18.0
    x_35_44  sup_35  1.0
    x_35_44  dem_44  1.0
    x_35_45  OBJ  11.0
    x_35_45  sup_35  1.0
    x_35_45  dem_45  1.0
    x_35_46  OBJ  6.0
    x_35_46  sup_35  1.0
    x_35_46  dem_46  1.0
    x_35_47  OBJ  15.0
    x_35_47  sup_35  1.0
    x_35_47  dem_47  1.0
    x_35_48  OBJ  13.0
    x_35_48  sup_35  1.0
    x_35_48  dem_48  1.0
    x_35_49  OBJ  20.0
    x_35_49  sup_35  1.0
    x_35_49  dem_49  1.0
    x_35_50  OBJ  27.0
    x_35_50  sup_35  1.0
    x_35_50  dem_50  1.0
    x_35_51  OBJ  23.0
    x_35_51  sup_35  1.0
    x_35_51  dem_51  1.0
    x_35_52  OBJ  27.0
    x_35_52  sup_35  1.0
    x_35_52  dem_52  1.0
    x_35_53  OBJ  2.0
    x_35_53  sup_35  1.0
    x_35_53  dem_53  1.0
    x_35_54  OBJ  29.0
    x_35_54  sup_35  1.0
    x_35_54  dem_54  1.0
    x_35_55  OBJ  12.0
    x_35_55  sup_35  1.0
    x_35_55  dem_55  1.0
    x_35_56  OBJ  28.0
    x_35_56  sup_35  1.0
    x_35_56  dem_56  1.0
    x_35_57  OBJ  18.0
    x_35_57  sup_35  1.0
    x_35_57  dem_57  1.0
    x_35_58  OBJ  20.0
    x_35_58  sup_35  1.0
    x_35_58  dem_58  1.0
    x_35_59  OBJ  1.0
    x_35_59  sup_35  1.0
    x_35_59  dem_59  1.0
    x_36_0  OBJ  1.0
    x_36_0  sup_36  1.0
    x_36_0  dem_0  1.0
    x_36_1  OBJ  28.0
    x_36_1  sup_36  1.0
    x_36_1  dem_1  1.0
    x_36_2  OBJ  11.0
    x_36_2  sup_36  1.0
    x_36_2  dem_2  1.0
    x_36_3  OBJ  19.0
    x_36_3  sup_36  1.0
    x_36_3  dem_3  1.0
    x_36_4  OBJ  24.0
    x_36_4  sup_36  1.0
    x_36_4  dem_4  1.0
    x_36_5  OBJ  15.0
    x_36_5  sup_36  1.0
    x_36_5  dem_5  1.0
    x_36_6  OBJ  29.0
    x_36_6  sup_36  1.0
    x_36_6  dem_6  1.0
    x_36_7  OBJ  14.0
    x_36_7  sup_36  1.0
    x_36_7  dem_7  1.0
    x_36_8  OBJ  1.0
    x_36_8  sup_36  1.0
    x_36_8  dem_8  1.0
    x_36_9  OBJ  5.0
    x_36_9  sup_36  1.0
    x_36_9  dem_9  1.0
    x_36_10  OBJ  13.0
    x_36_10  sup_36  1.0
    x_36_10  dem_10  1.0
    x_36_11  OBJ  2.0
    x_36_11  sup_36  1.0
    x_36_11  dem_11  1.0
    x_36_12  OBJ  26.0
    x_36_12  sup_36  1.0
    x_36_12  dem_12  1.0
    x_36_13  OBJ  20.0
    x_36_13  sup_36  1.0
    x_36_13  dem_13  1.0
    x_36_14  OBJ  2.0
    x_36_14  sup_36  1.0
    x_36_14  dem_14  1.0
    x_36_15  OBJ  27.0
    x_36_15  sup_36  1.0
    x_36_15  dem_15  1.0
    x_36_16  OBJ  28.0
    x_36_16  sup_36  1.0
    x_36_16  dem_16  1.0
    x_36_17  OBJ  23.0
    x_36_17  sup_36  1.0
    x_36_17  dem_17  1.0
    x_36_18  OBJ  25.0
    x_36_18  sup_36  1.0
    x_36_18  dem_18  1.0
    x_36_19  OBJ  1.0
    x_36_19  sup_36  1.0
    x_36_19  dem_19  1.0
    x_36_20  OBJ  16.0
    x_36_20  sup_36  1.0
    x_36_20  dem_20  1.0
    x_36_21  OBJ  2.0
    x_36_21  sup_36  1.0
    x_36_21  dem_21  1.0
    x_36_22  OBJ  10.0
    x_36_22  sup_36  1.0
    x_36_22  dem_22  1.0
    x_36_23  OBJ  15.0
    x_36_23  sup_36  1.0
    x_36_23  dem_23  1.0
    x_36_24  OBJ  15.0
    x_36_24  sup_36  1.0
    x_36_24  dem_24  1.0
    x_36_25  OBJ  17.0
    x_36_25  sup_36  1.0
    x_36_25  dem_25  1.0
    x_36_26  OBJ  20.0
    x_36_26  sup_36  1.0
    x_36_26  dem_26  1.0
    x_36_27  OBJ  18.0
    x_36_27  sup_36  1.0
    x_36_27  dem_27  1.0
    x_36_28  OBJ  23.0
    x_36_28  sup_36  1.0
    x_36_28  dem_28  1.0
    x_36_29  OBJ  26.0
    x_36_29  sup_36  1.0
    x_36_29  dem_29  1.0
    x_36_30  OBJ  6.0
    x_36_30  sup_36  1.0
    x_36_30  dem_30  1.0
    x_36_31  OBJ  27.0
    x_36_31  sup_36  1.0
    x_36_31  dem_31  1.0
    x_36_32  OBJ  24.0
    x_36_32  sup_36  1.0
    x_36_32  dem_32  1.0
    x_36_33  OBJ  29.0
    x_36_33  sup_36  1.0
    x_36_33  dem_33  1.0
    x_36_34  OBJ  22.0
    x_36_34  sup_36  1.0
    x_36_34  dem_34  1.0
    x_36_35  OBJ  10.0
    x_36_35  sup_36  1.0
    x_36_35  dem_35  1.0
    x_36_36  OBJ  10.0
    x_36_36  sup_36  1.0
    x_36_36  dem_36  1.0
    x_36_37  OBJ  14.0
    x_36_37  sup_36  1.0
    x_36_37  dem_37  1.0
    x_36_38  OBJ  13.0
    x_36_38  sup_36  1.0
    x_36_38  dem_38  1.0
    x_36_39  OBJ  29.0
    x_36_39  sup_36  1.0
    x_36_39  dem_39  1.0
    x_36_40  OBJ  17.0
    x_36_40  sup_36  1.0
    x_36_40  dem_40  1.0
    x_36_41  OBJ  21.0
    x_36_41  sup_36  1.0
    x_36_41  dem_41  1.0
    x_36_42  OBJ  20.0
    x_36_42  sup_36  1.0
    x_36_42  dem_42  1.0
    x_36_43  OBJ  2.0
    x_36_43  sup_36  1.0
    x_36_43  dem_43  1.0
    x_36_44  OBJ  25.0
    x_36_44  sup_36  1.0
    x_36_44  dem_44  1.0
    x_36_45  OBJ  27.0
    x_36_45  sup_36  1.0
    x_36_45  dem_45  1.0
    x_36_46  OBJ  13.0
    x_36_46  sup_36  1.0
    x_36_46  dem_46  1.0
    x_36_47  OBJ  18.0
    x_36_47  sup_36  1.0
    x_36_47  dem_47  1.0
    x_36_48  OBJ  6.0
    x_36_48  sup_36  1.0
    x_36_48  dem_48  1.0
    x_36_49  OBJ  6.0
    x_36_49  sup_36  1.0
    x_36_49  dem_49  1.0
    x_36_50  OBJ  27.0
    x_36_50  sup_36  1.0
    x_36_50  dem_50  1.0
    x_36_51  OBJ  11.0
    x_36_51  sup_36  1.0
    x_36_51  dem_51  1.0
    x_36_52  OBJ  25.0
    x_36_52  sup_36  1.0
    x_36_52  dem_52  1.0
    x_36_53  OBJ  17.0
    x_36_53  sup_36  1.0
    x_36_53  dem_53  1.0
    x_36_54  OBJ  12.0
    x_36_54  sup_36  1.0
    x_36_54  dem_54  1.0
    x_36_55  OBJ  19.0
    x_36_55  sup_36  1.0
    x_36_55  dem_55  1.0
    x_36_56  OBJ  9.0
    x_36_56  sup_36  1.0
    x_36_56  dem_56  1.0
    x_36_57  OBJ  12.0
    x_36_57  sup_36  1.0
    x_36_57  dem_57  1.0
    x_36_58  OBJ  17.0
    x_36_58  sup_36  1.0
    x_36_58  dem_58  1.0
    x_36_59  OBJ  22.0
    x_36_59  sup_36  1.0
    x_36_59  dem_59  1.0
    x_37_0  OBJ  13.0
    x_37_0  sup_37  1.0
    x_37_0  dem_0  1.0
    x_37_1  OBJ  16.0
    x_37_1  sup_37  1.0
    x_37_1  dem_1  1.0
    x_37_2  OBJ  3.0
    x_37_2  sup_37  1.0
    x_37_2  dem_2  1.0
    x_37_3  OBJ  29.0
    x_37_3  sup_37  1.0
    x_37_3  dem_3  1.0
    x_37_4  OBJ  2.0
    x_37_4  sup_37  1.0
    x_37_4  dem_4  1.0
    x_37_5  OBJ  25.0
    x_37_5  sup_37  1.0
    x_37_5  dem_5  1.0
    x_37_6  OBJ  21.0
    x_37_6  sup_37  1.0
    x_37_6  dem_6  1.0
    x_37_7  OBJ  5.0
    x_37_7  sup_37  1.0
    x_37_7  dem_7  1.0
    x_37_8  OBJ  7.0
    x_37_8  sup_37  1.0
    x_37_8  dem_8  1.0
    x_37_9  OBJ  3.0
    x_37_9  sup_37  1.0
    x_37_9  dem_9  1.0
    x_37_10  OBJ  8.0
    x_37_10  sup_37  1.0
    x_37_10  dem_10  1.0
    x_37_11  OBJ  25.0
    x_37_11  sup_37  1.0
    x_37_11  dem_11  1.0
    x_37_12  OBJ  29.0
    x_37_12  sup_37  1.0
    x_37_12  dem_12  1.0
    x_37_13  OBJ  18.0
    x_37_13  sup_37  1.0
    x_37_13  dem_13  1.0
    x_37_14  OBJ  16.0
    x_37_14  sup_37  1.0
    x_37_14  dem_14  1.0
    x_37_15  OBJ  29.0
    x_37_15  sup_37  1.0
    x_37_15  dem_15  1.0
    x_37_16  OBJ  8.0
    x_37_16  sup_37  1.0
    x_37_16  dem_16  1.0
    x_37_17  OBJ  13.0
    x_37_17  sup_37  1.0
    x_37_17  dem_17  1.0
    x_37_18  OBJ  20.0
    x_37_18  sup_37  1.0
    x_37_18  dem_18  1.0
    x_37_19  OBJ  6.0
    x_37_19  sup_37  1.0
    x_37_19  dem_19  1.0
    x_37_20  OBJ  1.0
    x_37_20  sup_37  1.0
    x_37_20  dem_20  1.0
    x_37_21  OBJ  2.0
    x_37_21  sup_37  1.0
    x_37_21  dem_21  1.0
    x_37_22  OBJ  28.0
    x_37_22  sup_37  1.0
    x_37_22  dem_22  1.0
    x_37_23  OBJ  23.0
    x_37_23  sup_37  1.0
    x_37_23  dem_23  1.0
    x_37_24  OBJ  8.0
    x_37_24  sup_37  1.0
    x_37_24  dem_24  1.0
    x_37_25  OBJ  3.0
    x_37_25  sup_37  1.0
    x_37_25  dem_25  1.0
    x_37_26  OBJ  17.0
    x_37_26  sup_37  1.0
    x_37_26  dem_26  1.0
    x_37_27  OBJ  19.0
    x_37_27  sup_37  1.0
    x_37_27  dem_27  1.0
    x_37_28  OBJ  13.0
    x_37_28  sup_37  1.0
    x_37_28  dem_28  1.0
    x_37_29  OBJ  17.0
    x_37_29  sup_37  1.0
    x_37_29  dem_29  1.0
    x_37_30  OBJ  9.0
    x_37_30  sup_37  1.0
    x_37_30  dem_30  1.0
    x_37_31  OBJ  22.0
    x_37_31  sup_37  1.0
    x_37_31  dem_31  1.0
    x_37_32  OBJ  17.0
    x_37_32  sup_37  1.0
    x_37_32  dem_32  1.0
    x_37_33  OBJ  28.0
    x_37_33  sup_37  1.0
    x_37_33  dem_33  1.0
    x_37_34  OBJ  1.0
    x_37_34  sup_37  1.0
    x_37_34  dem_34  1.0
    x_37_35  OBJ  7.0
    x_37_35  sup_37  1.0
    x_37_35  dem_35  1.0
    x_37_36  OBJ  2.0
    x_37_36  sup_37  1.0
    x_37_36  dem_36  1.0
    x_37_37  OBJ  14.0
    x_37_37  sup_37  1.0
    x_37_37  dem_37  1.0
    x_37_38  OBJ  4.0
    x_37_38  sup_37  1.0
    x_37_38  dem_38  1.0
    x_37_39  OBJ  22.0
    x_37_39  sup_37  1.0
    x_37_39  dem_39  1.0
    x_37_40  OBJ  6.0
    x_37_40  sup_37  1.0
    x_37_40  dem_40  1.0
    x_37_41  OBJ  6.0
    x_37_41  sup_37  1.0
    x_37_41  dem_41  1.0
    x_37_42  OBJ  22.0
    x_37_42  sup_37  1.0
    x_37_42  dem_42  1.0
    x_37_43  OBJ  3.0
    x_37_43  sup_37  1.0
    x_37_43  dem_43  1.0
    x_37_44  OBJ  17.0
    x_37_44  sup_37  1.0
    x_37_44  dem_44  1.0
    x_37_45  OBJ  5.0
    x_37_45  sup_37  1.0
    x_37_45  dem_45  1.0
    x_37_46  OBJ  29.0
    x_37_46  sup_37  1.0
    x_37_46  dem_46  1.0
    x_37_47  OBJ  28.0
    x_37_47  sup_37  1.0
    x_37_47  dem_47  1.0
    x_37_48  OBJ  18.0
    x_37_48  sup_37  1.0
    x_37_48  dem_48  1.0
    x_37_49  OBJ  23.0
    x_37_49  sup_37  1.0
    x_37_49  dem_49  1.0
    x_37_50  OBJ  22.0
    x_37_50  sup_37  1.0
    x_37_50  dem_50  1.0
    x_37_51  OBJ  6.0
    x_37_51  sup_37  1.0
    x_37_51  dem_51  1.0
    x_37_52  OBJ  29.0
    x_37_52  sup_37  1.0
    x_37_52  dem_52  1.0
    x_37_53  OBJ  1.0
    x_37_53  sup_37  1.0
    x_37_53  dem_53  1.0
    x_37_54  OBJ  27.0
    x_37_54  sup_37  1.0
    x_37_54  dem_54  1.0
    x_37_55  OBJ  19.0
    x_37_55  sup_37  1.0
    x_37_55  dem_55  1.0
    x_37_56  OBJ  11.0
    x_37_56  sup_37  1.0
    x_37_56  dem_56  1.0
    x_37_57  OBJ  10.0
    x_37_57  sup_37  1.0
    x_37_57  dem_57  1.0
    x_37_58  OBJ  28.0
    x_37_58  sup_37  1.0
    x_37_58  dem_58  1.0
    x_37_59  OBJ  7.0
    x_37_59  sup_37  1.0
    x_37_59  dem_59  1.0
    x_38_0  OBJ  27.0
    x_38_0  sup_38  1.0
    x_38_0  dem_0  1.0
    x_38_1  OBJ  6.0
    x_38_1  sup_38  1.0
    x_38_1  dem_1  1.0
    x_38_2  OBJ  27.0
    x_38_2  sup_38  1.0
    x_38_2  dem_2  1.0
    x_38_3  OBJ  14.0
    x_38_3  sup_38  1.0
    x_38_3  dem_3  1.0
    x_38_4  OBJ  27.0
    x_38_4  sup_38  1.0
    x_38_4  dem_4  1.0
    x_38_5  OBJ  10.0
    x_38_5  sup_38  1.0
    x_38_5  dem_5  1.0
    x_38_6  OBJ  24.0
    x_38_6  sup_38  1.0
    x_38_6  dem_6  1.0
    x_38_7  OBJ  28.0
    x_38_7  sup_38  1.0
    x_38_7  dem_7  1.0
    x_38_8  OBJ  19.0
    x_38_8  sup_38  1.0
    x_38_8  dem_8  1.0
    x_38_9  OBJ  17.0
    x_38_9  sup_38  1.0
    x_38_9  dem_9  1.0
    x_38_10  OBJ  22.0
    x_38_10  sup_38  1.0
    x_38_10  dem_10  1.0
    x_38_11  OBJ  27.0
    x_38_11  sup_38  1.0
    x_38_11  dem_11  1.0
    x_38_12  OBJ  27.0
    x_38_12  sup_38  1.0
    x_38_12  dem_12  1.0
    x_38_13  OBJ  27.0
    x_38_13  sup_38  1.0
    x_38_13  dem_13  1.0
    x_38_14  OBJ  25.0
    x_38_14  sup_38  1.0
    x_38_14  dem_14  1.0
    x_38_15  OBJ  27.0
    x_38_15  sup_38  1.0
    x_38_15  dem_15  1.0
    x_38_16  OBJ  27.0
    x_38_16  sup_38  1.0
    x_38_16  dem_16  1.0
    x_38_17  OBJ  15.0
    x_38_17  sup_38  1.0
    x_38_17  dem_17  1.0
    x_38_18  OBJ  14.0
    x_38_18  sup_38  1.0
    x_38_18  dem_18  1.0
    x_38_19  OBJ  17.0
    x_38_19  sup_38  1.0
    x_38_19  dem_19  1.0
    x_38_20  OBJ  15.0
    x_38_20  sup_38  1.0
    x_38_20  dem_20  1.0
    x_38_21  OBJ  16.0
    x_38_21  sup_38  1.0
    x_38_21  dem_21  1.0
    x_38_22  OBJ  3.0
    x_38_22  sup_38  1.0
    x_38_22  dem_22  1.0
    x_38_23  OBJ  1.0
    x_38_23  sup_38  1.0
    x_38_23  dem_23  1.0
    x_38_24  OBJ  12.0
    x_38_24  sup_38  1.0
    x_38_24  dem_24  1.0
    x_38_25  OBJ  28.0
    x_38_25  sup_38  1.0
    x_38_25  dem_25  1.0
    x_38_26  OBJ  10.0
    x_38_26  sup_38  1.0
    x_38_26  dem_26  1.0
    x_38_27  OBJ  5.0
    x_38_27  sup_38  1.0
    x_38_27  dem_27  1.0
    x_38_28  OBJ  22.0
    x_38_28  sup_38  1.0
    x_38_28  dem_28  1.0
    x_38_29  OBJ  17.0
    x_38_29  sup_38  1.0
    x_38_29  dem_29  1.0
    x_38_30  OBJ  18.0
    x_38_30  sup_38  1.0
    x_38_30  dem_30  1.0
    x_38_31  OBJ  20.0
    x_38_31  sup_38  1.0
    x_38_31  dem_31  1.0
    x_38_32  OBJ  20.0
    x_38_32  sup_38  1.0
    x_38_32  dem_32  1.0
    x_38_33  OBJ  23.0
    x_38_33  sup_38  1.0
    x_38_33  dem_33  1.0
    x_38_34  OBJ  17.0
    x_38_34  sup_38  1.0
    x_38_34  dem_34  1.0
    x_38_35  OBJ  16.0
    x_38_35  sup_38  1.0
    x_38_35  dem_35  1.0
    x_38_36  OBJ  28.0
    x_38_36  sup_38  1.0
    x_38_36  dem_36  1.0
    x_38_37  OBJ  19.0
    x_38_37  sup_38  1.0
    x_38_37  dem_37  1.0
    x_38_38  OBJ  8.0
    x_38_38  sup_38  1.0
    x_38_38  dem_38  1.0
    x_38_39  OBJ  24.0
    x_38_39  sup_38  1.0
    x_38_39  dem_39  1.0
    x_38_40  OBJ  23.0
    x_38_40  sup_38  1.0
    x_38_40  dem_40  1.0
    x_38_41  OBJ  19.0
    x_38_41  sup_38  1.0
    x_38_41  dem_41  1.0
    x_38_42  OBJ  10.0
    x_38_42  sup_38  1.0
    x_38_42  dem_42  1.0
    x_38_43  OBJ  20.0
    x_38_43  sup_38  1.0
    x_38_43  dem_43  1.0
    x_38_44  OBJ  24.0
    x_38_44  sup_38  1.0
    x_38_44  dem_44  1.0
    x_38_45  OBJ  25.0
    x_38_45  sup_38  1.0
    x_38_45  dem_45  1.0
    x_38_46  OBJ  16.0
    x_38_46  sup_38  1.0
    x_38_46  dem_46  1.0
    x_38_47  OBJ  3.0
    x_38_47  sup_38  1.0
    x_38_47  dem_47  1.0
    x_38_48  OBJ  15.0
    x_38_48  sup_38  1.0
    x_38_48  dem_48  1.0
    x_38_49  OBJ  16.0
    x_38_49  sup_38  1.0
    x_38_49  dem_49  1.0
    x_38_50  OBJ  21.0
    x_38_50  sup_38  1.0
    x_38_50  dem_50  1.0
    x_38_51  OBJ  1.0
    x_38_51  sup_38  1.0
    x_38_51  dem_51  1.0
    x_38_52  OBJ  29.0
    x_38_52  sup_38  1.0
    x_38_52  dem_52  1.0
    x_38_53  OBJ  5.0
    x_38_53  sup_38  1.0
    x_38_53  dem_53  1.0
    x_38_54  OBJ  23.0
    x_38_54  sup_38  1.0
    x_38_54  dem_54  1.0
    x_38_55  OBJ  1.0
    x_38_55  sup_38  1.0
    x_38_55  dem_55  1.0
    x_38_56  OBJ  29.0
    x_38_56  sup_38  1.0
    x_38_56  dem_56  1.0
    x_38_57  OBJ  26.0
    x_38_57  sup_38  1.0
    x_38_57  dem_57  1.0
    x_38_58  OBJ  17.0
    x_38_58  sup_38  1.0
    x_38_58  dem_58  1.0
    x_38_59  OBJ  10.0
    x_38_59  sup_38  1.0
    x_38_59  dem_59  1.0
    x_39_0  OBJ  14.0
    x_39_0  sup_39  1.0
    x_39_0  dem_0  1.0
    x_39_1  OBJ  16.0
    x_39_1  sup_39  1.0
    x_39_1  dem_1  1.0
    x_39_2  OBJ  6.0
    x_39_2  sup_39  1.0
    x_39_2  dem_2  1.0
    x_39_3  OBJ  23.0
    x_39_3  sup_39  1.0
    x_39_3  dem_3  1.0
    x_39_4  OBJ  18.0
    x_39_4  sup_39  1.0
    x_39_4  dem_4  1.0
    x_39_5  OBJ  20.0
    x_39_5  sup_39  1.0
    x_39_5  dem_5  1.0
    x_39_6  OBJ  4.0
    x_39_6  sup_39  1.0
    x_39_6  dem_6  1.0
    x_39_7  OBJ  27.0
    x_39_7  sup_39  1.0
    x_39_7  dem_7  1.0
    x_39_8  OBJ  16.0
    x_39_8  sup_39  1.0
    x_39_8  dem_8  1.0
    x_39_9  OBJ  15.0
    x_39_9  sup_39  1.0
    x_39_9  dem_9  1.0
    x_39_10  OBJ  2.0
    x_39_10  sup_39  1.0
    x_39_10  dem_10  1.0
    x_39_11  OBJ  21.0
    x_39_11  sup_39  1.0
    x_39_11  dem_11  1.0
    x_39_12  OBJ  25.0
    x_39_12  sup_39  1.0
    x_39_12  dem_12  1.0
    x_39_13  OBJ  26.0
    x_39_13  sup_39  1.0
    x_39_13  dem_13  1.0
    x_39_14  OBJ  6.0
    x_39_14  sup_39  1.0
    x_39_14  dem_14  1.0
    x_39_15  OBJ  4.0
    x_39_15  sup_39  1.0
    x_39_15  dem_15  1.0
    x_39_16  OBJ  7.0
    x_39_16  sup_39  1.0
    x_39_16  dem_16  1.0
    x_39_17  OBJ  14.0
    x_39_17  sup_39  1.0
    x_39_17  dem_17  1.0
    x_39_18  OBJ  3.0
    x_39_18  sup_39  1.0
    x_39_18  dem_18  1.0
    x_39_19  OBJ  3.0
    x_39_19  sup_39  1.0
    x_39_19  dem_19  1.0
    x_39_20  OBJ  12.0
    x_39_20  sup_39  1.0
    x_39_20  dem_20  1.0
    x_39_21  OBJ  17.0
    x_39_21  sup_39  1.0
    x_39_21  dem_21  1.0
    x_39_22  OBJ  1.0
    x_39_22  sup_39  1.0
    x_39_22  dem_22  1.0
    x_39_23  OBJ  10.0
    x_39_23  sup_39  1.0
    x_39_23  dem_23  1.0
    x_39_24  OBJ  16.0
    x_39_24  sup_39  1.0
    x_39_24  dem_24  1.0
    x_39_25  OBJ  25.0
    x_39_25  sup_39  1.0
    x_39_25  dem_25  1.0
    x_39_26  OBJ  18.0
    x_39_26  sup_39  1.0
    x_39_26  dem_26  1.0
    x_39_27  OBJ  14.0
    x_39_27  sup_39  1.0
    x_39_27  dem_27  1.0
    x_39_28  OBJ  4.0
    x_39_28  sup_39  1.0
    x_39_28  dem_28  1.0
    x_39_29  OBJ  5.0
    x_39_29  sup_39  1.0
    x_39_29  dem_29  1.0
    x_39_30  OBJ  14.0
    x_39_30  sup_39  1.0
    x_39_30  dem_30  1.0
    x_39_31  OBJ  26.0
    x_39_31  sup_39  1.0
    x_39_31  dem_31  1.0
    x_39_32  OBJ  23.0
    x_39_32  sup_39  1.0
    x_39_32  dem_32  1.0
    x_39_33  OBJ  13.0
    x_39_33  sup_39  1.0
    x_39_33  dem_33  1.0
    x_39_34  OBJ  17.0
    x_39_34  sup_39  1.0
    x_39_34  dem_34  1.0
    x_39_35  OBJ  1.0
    x_39_35  sup_39  1.0
    x_39_35  dem_35  1.0
    x_39_36  OBJ  13.0
    x_39_36  sup_39  1.0
    x_39_36  dem_36  1.0
    x_39_37  OBJ  8.0
    x_39_37  sup_39  1.0
    x_39_37  dem_37  1.0
    x_39_38  OBJ  23.0
    x_39_38  sup_39  1.0
    x_39_38  dem_38  1.0
    x_39_39  OBJ  12.0
    x_39_39  sup_39  1.0
    x_39_39  dem_39  1.0
    x_39_40  OBJ  8.0
    x_39_40  sup_39  1.0
    x_39_40  dem_40  1.0
    x_39_41  OBJ  1.0
    x_39_41  sup_39  1.0
    x_39_41  dem_41  1.0
    x_39_42  OBJ  13.0
    x_39_42  sup_39  1.0
    x_39_42  dem_42  1.0
    x_39_43  OBJ  5.0
    x_39_43  sup_39  1.0
    x_39_43  dem_43  1.0
    x_39_44  OBJ  13.0
    x_39_44  sup_39  1.0
    x_39_44  dem_44  1.0
    x_39_45  OBJ  9.0
    x_39_45  sup_39  1.0
    x_39_45  dem_45  1.0
    x_39_46  OBJ  12.0
    x_39_46  sup_39  1.0
    x_39_46  dem_46  1.0
    x_39_47  OBJ  10.0
    x_39_47  sup_39  1.0
    x_39_47  dem_47  1.0
    x_39_48  OBJ  3.0
    x_39_48  sup_39  1.0
    x_39_48  dem_48  1.0
    x_39_49  OBJ  13.0
    x_39_49  sup_39  1.0
    x_39_49  dem_49  1.0
    x_39_50  OBJ  17.0
    x_39_50  sup_39  1.0
    x_39_50  dem_50  1.0
    x_39_51  OBJ  9.0
    x_39_51  sup_39  1.0
    x_39_51  dem_51  1.0
    x_39_52  OBJ  4.0
    x_39_52  sup_39  1.0
    x_39_52  dem_52  1.0
    x_39_53  OBJ  10.0
    x_39_53  sup_39  1.0
    x_39_53  dem_53  1.0
    x_39_54  OBJ  2.0
    x_39_54  sup_39  1.0
    x_39_54  dem_54  1.0
    x_39_55  OBJ  14.0
    x_39_55  sup_39  1.0
    x_39_55  dem_55  1.0
    x_39_56  OBJ  24.0
    x_39_56  sup_39  1.0
    x_39_56  dem_56  1.0
    x_39_57  OBJ  11.0
    x_39_57  sup_39  1.0
    x_39_57  dem_57  1.0
    x_39_58  OBJ  20.0
    x_39_58  sup_39  1.0
    x_39_58  dem_58  1.0
    x_39_59  OBJ  22.0
    x_39_59  sup_39  1.0
    x_39_59  dem_59  1.0
RHS
    RHS  sup_0  97.0
    RHS  sup_1  101.0
    RHS  sup_2  125.0
    RHS  sup_3  145.0
    RHS  sup_4  53.0
    RHS  sup_5  64.0
    RHS  sup_6  132.0
    RHS  sup_7  144.0
    RHS  sup_8  74.0
    RHS  sup_9  81.0
    RHS  sup_10  136.0
    RHS  sup_11  92.0
    RHS  sup_12  77.0
    RHS  sup_13  132.0
    RHS  sup_14  75.0
    RHS  sup_15  90.0
    RHS  sup_16  114.0
    RHS  sup_17  104.0
    RHS  sup_18  58.0
    RHS  sup_19  52.0
    RHS  sup_20  136.0
    RHS  sup_21  125.0
    RHS  sup_22  133.0
    RHS  sup_23  103.0
    RHS  sup_24  131.0
    RHS  sup_25  82.0
    RHS  sup_26  95.0
    RHS  sup_27  128.0
    RHS  sup_28  62.0
    RHS  sup_29  80.0
    RHS  sup_30  62.0
    RHS  sup_31  95.0
    RHS  sup_32  147.0
    RHS  sup_33  63.0
    RHS  sup_34  88.0
    RHS  sup_35  90.0
    RHS  sup_36  140.0
    RHS  sup_37  70.0
    RHS  sup_38  100.0
    RHS  sup_39  76.0
    RHS  dem_0  150.0
    RHS  dem_1  63.0
    RHS  dem_2  50.0
    RHS  dem_3  160.0
    RHS  dem_4  115.0
    RHS  dem_5  66.0
    RHS  dem_6  18.0
    RHS  dem_7  81.0
    RHS  dem_8  8.0
    RHS  dem_9  477.0
    RHS  dem_10  13.0
    RHS  dem_11  140.0
    RHS  dem_12  107.0
    RHS  dem_13  18.0
    RHS  dem_14  102.0
    RHS  dem_15  2.0
    RHS  dem_16  76.0
    RHS  dem_17  67.0
    RHS  dem_18  3.0
    RHS  dem_19  62.0
    RHS  dem_20  212.0
    RHS  dem_21  45.0
    RHS  dem_22  32.0
    RHS  dem_23  34.0
    RHS  dem_24  66.0
    RHS  dem_25  29.0
    RHS  dem_26  15.0
    RHS  dem_27  58.0
    RHS  dem_28  81.0
    RHS  dem_29  45.0
    RHS  dem_30  126.0
    RHS  dem_31  8.0
    RHS  dem_32  19.0
    RHS  dem_33  7.0
    RHS  dem_34  1.0
    RHS  dem_35  34.0
    RHS  dem_36  49.0
    RHS  dem_37  118.0
    RHS  dem_38  39.0
    RHS  dem_39  12.0
    RHS  dem_41  15.0
    RHS  dem_42  29.0
    RHS  dem_43  70.0
    RHS  dem_44  15.0
    RHS  dem_45  45.0
    RHS  dem_46  17.0
    RHS  dem_47  144.0
    RHS  dem_48  321.0
    RHS  dem_49  9.0
    RHS  dem_50  42.0
    RHS  dem_51  60.0
    RHS  dem_52  7.0
    RHS  dem_53  4.0
    RHS  dem_54  77.0
    RHS  dem_55  114.0
    RHS  dem_56  42.0
    RHS  dem_57  36.0
    RHS  dem_58  29.0
    RHS  dem_59  68.0
RANGES
BOUNDS
ENDATA
