NAME mcf_12x12_k8
ROWS
 N  OBJ
 E  r0
 E  r1
 E  r2
 E  r3
 E  r4
 E  r5
 E  r6
 E  r7
 E  r8
 E  r9
 E  r10
 E  r11
 E  r12
 E  r13
 E  r14
 E  r15
 E  r16
 E  r17
 E  r18
 E  r19
 E  r20
 E  r21
 E  r22
 E  r23
 E  r24
 E  r25
 E  r26
 E  r27
 E  r28
 E  r29
 E  r30
 E  r31
 E  r32
 E  r33
 E  r34
 E  r35
 E  r36
 E  r37
 E  r38
 E  r39
 E  r40
 E  r41
 E  r42
 E  r43
 E  r44
 E  r45
 E  r46
 E  r47
 E  r48
 E  r49
 E  r50
 E  r51
 E  r52
 E  r53
 E  r54
 E  r55
 E  r56
 E  r57
 E  r58
 E  r59
 E  r60
 E  r61
 E  r62
 E  r63
 E  r64
 E  r65
 E  r66
 E  r67
 E  r68
 E  r69
 E  r70
 E  r71
 E  r72
 E  r73
 E  r74
 E  r75
 E  r76
 E  r77
 E  r78
 E  r79
 E  r80
 E  r81
 E  r82
 E  r83
 E  r84
 E  r85
 E  r86
 E  r87
 E  r88
 E  r89
 E  r90
 E  r91
 E  r92
 E  r93
 E  r94
 E  r95
 E  r96
 E  r97
 E  r98
 E  r99
 E  r100
 E  r101
 E  r102
 E  r103
 E  r104
 E  r105
 E  r106
 E  r107
 E  r108
 E  r109
 E  r110
 E  r111
 E  r112
 E  r113
 E  r114
 E  r115
 E  r116
 E  r117
 E  r118
 E  r119
 E  r120
 E  r121
 E  r122
 E  r123
 E  r124
 E  r125
 E  r126
 E  r127
 E  r128
 E  r129
 E  r130
 E  r131
 E  r132
 E  r133
 E  r134
 E  r135
 E  r136
 E  r137
 E  r138
 E  r139
 E  r140
 E  r141
 E  r142
 E  r143
 E  r144
 E  r145
 E  r146
 E  r147
 E  r148
 E  r149
 E  r150
 E  r151
 E  r152
 E  r153
 E  r154
 E  r155
 E  r156
 E  r157
 E  r158
 E  r159
 E  r160
 E  r161
 E  r162
 E  r163
 E  r164
 E  r165
 E  r166
 E  r167
 E  r168
 E  r169
 E  r170
 E  r171
 E  r172
 E  r173
 E  r174
 E  r175
 E  r176
 E  r177
 E  r178
 E  r179
 E  r180
 E  r181
 E  r182
 E  r183
 E  r184
 E  r185
 E  r186
 E  r187
 E  r188
 E  r189
 E  r190
 E  r191
 E  r192
 E  r193
 E  r194
 E  r195
 E  r196
 E  r197
 E  r198
 E  r199
 E  r200
 E  r201
 E  r202
 E  r203
 E  r204
 E  r205
 E  r206
 E  r207
 E  r208
 E  r209
 E  r210
 E  r211
 E  r212
 E  r213
 E  r214
 E  r215
 E  r216
 E  r217
 E  r218
 E  r219
 E  r220
 E  r221
 E  r222
 E  r223
 E  r224
 E  r225
 E  r226
 E  r227
 E  r228
 E  r229
 E  r230
 E  r231
 E  r232
 E  r233
 E  r234
 E  r235
 E  r236
 E  r237
 E  r238
 E  r239
 E  r240
 E  r241
 E  r242
 E  r243
 E  r244
 E  r245
 E  r246
 E  r247
 E  r248
 E  r249
 E  r250
 E  r251
 E  r252
 E  r253
 E  r254
 E  r255
 E  r256
 E  r257
 E  r258
 E  r259
 E  r260
 E  r261
 E  r262
 E  r263
 E  r264
 E  r265
 E  r266
 E  r267
 E  r268
 E  r269
 E  r270
 E  r271
 E  r272
 E  r273
 E  r274
 E  r275
 E  r276
 E  r277
 E  r278
 E  r279
 E  r280
 E  r281
 E  r282
 E  r283
 E  r284
 E  r285
 E  r286
 E  r287
 E  r288
 E  r289
 E  r290
 E  r291
 E  r292
 E  r293
 E  r294
 E  r295
 E  r296
 E  r297
 E  r298
 E  r299
 E  r300
 E  r301
 E  r302
 E  r303
 E  r304
 E  r305
 E  r306
 E  r307
 E  r308
 E  r309
 E  r310
 E  r311
 E  r312
 E  r313
 E  r314
 E  r315
 E  r316
 E  r317
 E  r318
 E  r319
 E  r320
 E  r321
 E  r322
 E  r323
 E  r324
 E  r325
 E  r326
 E  r327
 E  r328
 E  r329
 E  r330
 E  r331
 E  r332
 E  r333
 E  r334
 E  r335
 E  r336
 E  r337
 E  r338
 E  r339
 E  r340
 E  r341
 E  r342
 E  r343
 E  r344
 E  r345
 E  r346
 E  r347
 E  r348
 E  r349
 E  r350
 E  r351
 E  r352
 E  r353
 E  r354
 E  r355
 E  r356
 E  r357
 E  r358
 E  r359
 E  r360
 E  r361
 E  r362
 E  r363
 E  r364
 E  r365
 E  r366
 E  r367
 E  r368
 E  r369
 E  r370
 E  r371
 E  r372
 E  r373
 E  r374
 E  r375
 E  r376
 E  r377
 E  r378
 E  r379
 E  r380
 E  r381
 E  r382
 E  r383
 E  r384
 E  r385
 E  r386
 E  r387
 E  r388
 E  r389
 E  r390
 E  r391
 E  r392
 E  r393
 E  r394
 E  r395
 E  r396
 E  r397
 E  r398
 E  r399
 E  r400
 E  r401
 E  r402
 E  r403
 E  r404
 E  r405
 E  r406
 E  r407
 E  r408
 E  r409
 E  r410
 E  r411
 E  r412
 E  r413
 E  r414
 E  r415
 E  r416
 E  r417
 E  r418
 E  r419
 E  r420
 E  r421
 E  r422
 E  r423
 E  r424
 E  r425
 E  r426
 E  r427
 E  r428
 E  r429
 E  r430
 E  r431
 E  r432
 E  r433
 E  r434
 E  r435
 E  r436
 E  r437
 E  r438
 E  r439
 E  r440
 E  r441
 E  r442
 E  r443
 E  r444
 E  r445
 E  r446
 E  r447
 E  r448
 E  r449
 E  r450
 E  r451
 E  r452
 E  r453
 E  r454
 E  r455
 E  r456
 E  r457
 E  r458
 E  r459
 E  r460
 E  r461
 E  r462
 E  r463
 E  r464
 E  r465
 E  r466
 E  r467
 E  r468
 E  r469
 E  r470
 E  r471
 E  r472
 E  r473
 E  r474
 E  r475
 E  r476
 E  r477
 E  r478
 E  r479
 E  r480
 E  r481
 E  r482
 E  r483
 E  r484
 E  r485
 E  r486
 E  r487
 E  r488
 E  r489
 E  r490
 E  r491
 E  r492
 E  r493
 E  r494
 E  r495
 E  r496
 E  r497
 E  r498
 E  r499
 E  r500
 E  r501
 E  r502
 E  r503
 E  r504
 E  r505
 E  r506
 E  r507
 E  r508
 E  r509
 E  r510
 E  r511
 E  r512
 E  r513
 E  r514
 E  r515
 E  r516
 E  r517
 E  r518
 E  r519
 E  r520
 E  r521
 E  r522
 E  r523
 E  r524
 E  r525
 E  r526
 E  r527
 E  r528
 E  r529
 E  r530
 E  r531
 E  r532
 E  r533
 E  r534
 E  r535
 E  r536
 E  r537
 E  r538
 E  r539
 E  r540
 E  r541
 E  r542
 E  r543
 E  r544
 E  r545
 E  r546
 E  r547
 E  r548
 E  r549
 E  r550
 E  r551
 E  r552
 E  r553
 E  r554
 E  r555
 E  r556
 E  r557
 E  r558
 E  r559
 E  r560
 E  r561
 E  r562
 E  r563
 E  r564
 E  r565
 E  r566
 E  r567
 E  r568
 E  r569
 E  r570
 E  r571
 E  r572
 E  r573
 E  r574
 E  r575
 E  r576
 E  r577
 E  r578
 E  r579
 E  r580
 E  r581
 E  r582
 E  r583
 E  r584
 E  r585
 E  r586
 E  r587
 E  r588
 E  r589
 E  r590
 E  r591
 E  r592
 E  r593
 E  r594
 E  r595
 E  r596
 E  r597
 E  r598
 E  r599
 E  r600
 E  r601
 E  r602
 E  r603
 E  r604
 E  r605
 E  r606
 E  r607
 E  r608
 E  r609
 E  r610
 E  r611
 E  r612
 E  r613
 E  r614
 E  r615
 E  r616
 E  r617
 E  r618
 E  r619
 E  r620
 E  r621
 E  r622
 E  r623
 E  r624
 E  r625
 E  r626
 E  r627
 E  r628
 E  r629
 E  r630
 E  r631
 E  r632
 E  r633
 E  r634
 E  r635
 E  r636
 E  r637
 E  r638
 E  r639
 E  r640
 E  r641
 E  r642
 E  r643
 E  r644
 E  r645
 E  r646
 E  r647
 E  r648
 E  r649
 E  r650
 E  r651
 E  r652
 E  r653
 E  r654
 E  r655
 E  r656
 E  r657
 E  r658
 E  r659
 E  r660
 E  r661
 E  r662
 E  r663
 E  r664
 E  r665
 E  r666
 E  r667
 E  r668
 E  r669
 E  r670
 E  r671
 E  r672
 E  r673
 E  r674
 E  r675
 E  r676
 E  r677
 E  r678
 E  r679
 E  r680
 E  r681
 E  r682
 E  r683
 E  r684
 E  r685
 E  r686
 E  r687
 E  r688
 E  r689
 E  r690
 E  r691
 E  r692
 E  r693
 E  r694
 E  r695
 E  r696
 E  r697
 E  r698
 E  r699
 E  r700
 E  r701
 E  r702
 E  r703
 E  r704
 E  r705
 E  r706
 E  r707
 E  r708
 E  r709
 E  r710
 E  r711
 E  r712
 E  r713
 E  r714
 E  r715
 E  r716
 E  r717
 E  r718
 E  r719
 E  r720
 E  r721
 E  r722
 E  r723
 E  r724
 E  r725
 E  r726
 E  r727
 E  r728
 E  r729
 E  r730
 E  r731
 E  r732
 E  r733
 E  r734
 E  r735
 E  r736
 E  r737
 E  r738
 E  r739
 E  r740
 E  r741
 E  r742
 E  r743
 E  r744
 E  r745
 E  r746
 E  r747
 E  r748
 E  r749
 E  r750
 E  r751
 E  r752
 E  r753
 E  r754
 E  r755
 E  r756
 E  r757
 E  r758
 E  r759
 E  r760
 E  r761
 E  r762
 E  r763
 E  r764
 E  r765
 E  r766
 E  r767
 E  r768
 E  r769
 E  r770
 E  r771
 E  r772
 E  r773
 E  r774
 E  r775
 E  r776
 E  r777
 E  r778
 E  r779
 E  r780
 E  r781
 E  r782
 E  r783
 E  r784
 E  r785
 E  r786
 E  r787
 E  r788
 E  r789
 E  r790
 E  r791
 E  r792
 E  r793
 E  r794
 E  r795
 E  r796
 E  r797
 E  r798
 E  r799
 E  r800
 E  r801
 E  r802
 E  r803
 E  r804
 E  r805
 E  r806
 E  r807
 E  r808
 E  r809
 E  r810
 E  r811
 E  r812
 E  r813
 E  r814
 E  r815
 E  r816
 E  r817
 E  r818
 E  r819
 E  r820
 E  r821
 E  r822
 E  r823
 E  r824
 E  r825
 E  r826
 E  r827
 E  r828
 E  r829
 E  r830
 E  r831
 E  r832
 E  r833
 E  r834
 E  r835
 E  r836
 E  r837
 E  r838
 E  r839
 E  r840
 E  r841
 E  r842
 E  r843
 E  r844
 E  r845
 E  r846
 E  r847
 E  r848
 E  r849
 E  r850
 E  r851
 E  r852
 E  r853
 E  r854
 E  r855
 E  r856
 E  r857
 E  r858
 E  r859
 E  r860
 E  r861
 E  r862
 E  r863
 E  r864
 E  r865
 E  r866
 E  r867
 E  r868
 E  r869
 E  r870
 E  r871
 E  r872
 E  r873
 E  r874
 E  r875
 E  r876
 E  r877
 E  r878
 E  r879
 E  r880
 E  r881
 E  r882
 E  r883
 E  r884
 E  r885
 E  r886
 E  r887
 E  r888
 E  r889
 E  r890
 E  r891
 E  r892
 E  r893
 E  r894
 E  r895
 E  r896
 E  r897
 E  r898
 E  r899
 E  r900
 E  r901
 E  r902
 E  r903
 E  r904
 E  r905
 E  r906
 E  r907
 E  r908
 E  r909
 E  r910
 E  r911
 E  r912
 E  r913
 E  r914
 E  r915
 E  r916
 E  r917
 E  r918
 E  r919
 E  r920
 E  r921
 E  r922
 E  r923
 E  r924
 E  r925
 E  r926
 E  r927
 E  r928
 E  r929
 E  r930
 E  r931
 E  r932
 E  r933
 E  r934
 E  r935
 E  r936
 E  r937
 E  r938
 E  r939
 E  r940
 E  r941
 E  r942
 E  r943
 E  r944
 E  r945
 E  r946
 E  r947
 E  r948
 E  r949
 E  r950
 E  r951
 E  r952
 E  r953
 E  r954
 E  r955
 E  r956
 E  r957
 E  r958
 E  r959
 E  r960
 E  r961
 E  r962
 E  r963
 E  r964
 E  r965
 E  r966
 E  r967
 E  r968
 E  r969
 E  r970
 E  r971
 E  r972
 E  r973
 E  r974
 E  r975
 E  r976
 E  r977
 E  r978
 E  r979
 E  r980
 E  r981
 E  r982
 E  r983
 E  r984
 E  r985
 E  r986
 E  r987
 E  r988
 E  r989
 E  r990
 E  r991
 E  r992
 E  r993
 E  r994
 E  r995
 E  r996
 E  r997
 E  r998
 E  r999
 E  r1000
 E  r1001
 E  r1002
 E  r1003
 E  r1004
 E  r1005
 E  r1006
 E  r1007
 E  r1008
 E  r1009
 E  r1010
 E  r1011
 E  r1012
 E  r1013
 E  r1014
 E  r1015
 E  r1016
 E  r1017
 E  r1018
 E  r1019
 E  r1020
 E  r1021
 E  r1022
 E  r1023
 E  r1024
 E  r1025
 E  r1026
 E  r1027
 E  r1028
 E  r1029
 E  r1030
 E  r1031
 E  r1032
 E  r1033
 E  r1034
 E  r1035
 E  r1036
 E  r1037
 E  r1038
 E  r1039
 E  r1040
 E  r1041
 E  r1042
 E  r1043
 E  r1044
 E  r1045
 E  r1046
 E  r1047
 E  r1048
 E  r1049
 E  r1050
 E  r1051
 E  r1052
 E  r1053
 E  r1054
 E  r1055
 E  r1056
 E  r1057
 E  r1058
 E  r1059
 E  r1060
 E  r1061
 E  r1062
 E  r1063
 E  r1064
 E  r1065
 E  r1066
 E  r1067
 E  r1068
 E  r1069
 E  r1070
 E  r1071
 E  r1072
 E  r1073
 E  r1074
 E  r1075
 E  r1076
 E  r1077
 E  r1078
 E  r1079
 E  r1080
 E  r1081
 E  r1082
 E  r1083
 E  r1084
 E  r1085
 E  r1086
 E  r1087
 E  r1088
 E  r1089
 E  r1090
 E  r1091
 E  r1092
 E  r1093
 E  r1094
 E  r1095
 E  r1096
 E  r1097
 E  r1098
 E  r1099
 E  r1100
 E  r1101
 E  r1102
 E  r1103
 E  r1104
 E  r1105
 E  r1106
 E  r1107
 E  r1108
 E  r1109
 E  r1110
 E  r1111
 E  r1112
 E  r1113
 E  r1114
 E  r1115
 E  r1116
 E  r1117
 E  r1118
 E  r1119
 E  r1120
 E  r1121
 E  r1122
 E  r1123
 E  r1124
 E  r1125
 E  r1126
 E  r1127
 E  r1128
 E  r1129
 E  r1130
 E  r1131
 E  r1132
 E  r1133
 E  r1134
 E  r1135
 E  r1136
 E  r1137
 E  r1138
 E  r1139
 E  r1140
 E  r1141
 E  r1142
 E  r1143
 E  r1144
 E  r1145
 E  r1146
 E  r1147
 E  r1148
 E  r1149
 E  r1150
 E  r1151
 L  r1152
 L  r1153
 L  r1154
 L  r1155
 L  r1156
 L  r1157
 L  r1158
 L  r1159
 L  r1160
 L  r1161
 L  r1162
 L  r1163
 L  r1164
 L  r1165
 L  r1166
 L  r1167
 L  r1168
 L  r1169
 L  r1170
 L  r1171
 L  r1172
 L  r1173
 L  r1174
 L  r1175
 L  r1176
 L  r1177
 L  r1178
 L  r1179
 L  r1180
 L  r1181
 L  r1182
 L  r1183
 L  r1184
 L  r1185
 L  r1186
 L  r1187
 L  r1188
 L  r1189
 L  r1190
 L  r1191
 L  r1192
 L  r1193
 L  r1194
 L  r1195
 L  r1196
 L  r1197
 L  r1198
 L  r1199
 L  r1200
 L  r1201
 L  r1202
 L  r1203
 L  r1204
 L  r1205
 L  r1206
 L  r1207
 L  r1208
 L  r1209
 L  r1210
 L  r1211
 L  r1212
 L  r1213
 L  r1214
 L  r1215
 L  r1216
 L  r1217
 L  r1218
 L  r1219
 L  r1220
 L  r1221
 L  r1222
 L  r1223
 L  r1224
 L  r1225
 L  r1226
 L  r1227
 L  r1228
 L  r1229
 L  r1230
 L  r1231
 L  r1232
 L  r1233
 L  r1234
 L  r1235
 L  r1236
 L  r1237
 L  r1238
 L  r1239
 L  r1240
 L  r1241
 L  r1242
 L  r1243
 L  r1244
 L  r1245
 L  r1246
 L  r1247
 L  r1248
 L  r1249
 L  r1250
 L  r1251
 L  r1252
 L  r1253
 L  r1254
 L  r1255
 L  r1256
 L  r1257
 L  r1258
 L  r1259
 L  r1260
 L  r1261
 L  r1262
 L  r1263
 L  r1264
 L  r1265
 L  r1266
 L  r1267
 L  r1268
 L  r1269
 L  r1270
 L  r1271
 L  r1272
 L  r1273
 L  r1274
 L  r1275
 L  r1276
 L  r1277
 L  r1278
 L  r1279
 L  r1280
 L  r1281
 L  r1282
 L  r1283
 L  r1284
 L  r1285
 L  r1286
 L  r1287
 L  r1288
 L  r1289
 L  r1290
 L  r1291
 L  r1292
 L  r1293
 L  r1294
 L  r1295
 L  r1296
 L  r1297
 L  r1298
 L  r1299
 L  r1300
 L  r1301
 L  r1302
 L  r1303
 L  r1304
 L  r1305
 L  r1306
 L  r1307
 L  r1308
 L  r1309
 L  r1310
 L  r1311
 L  r1312
 L  r1313
 L  r1314
 L  r1315
 L  r1316
 L  r1317
 L  r1318
 L  r1319
 L  r1320
 L  r1321
 L  r1322
 L  r1323
 L  r1324
 L  r1325
 L  r1326
 L  r1327
 L  r1328
 L  r1329
 L  r1330
 L  r1331
 L  r1332
 L  r1333
 L  r1334
 L  r1335
 L  r1336
 L  r1337
 L  r1338
 L  r1339
 L  r1340
 L  r1341
 L  r1342
 L  r1343
 L  r1344
 L  r1345
 L  r1346
 L  r1347
 L  r1348
 L  r1349
 L  r1350
 L  r1351
 L  r1352
 L  r1353
 L  r1354
 L  r1355
 L  r1356
 L  r1357
 L  r1358
 L  r1359
 L  r1360
 L  r1361
 L  r1362
 L  r1363
 L  r1364
 L  r1365
 L  r1366
 L  r1367
 L  r1368
 L  r1369
 L  r1370
 L  r1371
 L  r1372
 L  r1373
 L  r1374
 L  r1375
 L  r1376
 L  r1377
 L  r1378
 L  r1379
 L  r1380
 L  r1381
 L  r1382
 L  r1383
 L  r1384
 L  r1385
 L  r1386
 L  r1387
 L  r1388
 L  r1389
 L  r1390
 L  r1391
 L  r1392
 L  r1393
 L  r1394
 L  r1395
 L  r1396
 L  r1397
 L  r1398
 L  r1399
 L  r1400
 L  r1401
 L  r1402
 L  r1403
 L  r1404
 L  r1405
 L  r1406
 L  r1407
 L  r1408
 L  r1409
 L  r1410
 L  r1411
 L  r1412
 L  r1413
 L  r1414
 L  r1415
 L  r1416
 L  r1417
 L  r1418
 L  r1419
 L  r1420
 L  r1421
 L  r1422
 L  r1423
 L  r1424
 L  r1425
 L  r1426
 L  r1427
 L  r1428
 L  r1429
 L  r1430
 L  r1431
 L  r1432
 L  r1433
 L  r1434
 L  r1435
 L  r1436
 L  r1437
 L  r1438
 L  r1439
 L  r1440
 L  r1441
 L  r1442
 L  r1443
 L  r1444
 L  r1445
 L  r1446
 L  r1447
 L  r1448
 L  r1449
 L  r1450
 L  r1451
 L  r1452
 L  r1453
 L  r1454
 L  r1455
 L  r1456
 L  r1457
 L  r1458
 L  r1459
 L  r1460
 L  r1461
 L  r1462
 L  r1463
 L  r1464
 L  r1465
 L  r1466
 L  r1467
 L  r1468
 L  r1469
 L  r1470
 L  r1471
 L  r1472
 L  r1473
 L  r1474
 L  r1475
 L  r1476
 L  r1477
 L  r1478
 L  r1479
 L  r1480
 L  r1481
 L  r1482
 L  r1483
 L  r1484
 L  r1485
 L  r1486
 L  r1487
 L  r1488
 L  r1489
 L  r1490
 L  r1491
 L  r1492
 L  r1493
 L  r1494
 L  r1495
 L  r1496
 L  r1497
 L  r1498
 L  r1499
 L  r1500
 L  r1501
 L  r1502
 L  r1503
 L  r1504
 L  r1505
 L  r1506
 L  r1507
 L  r1508
 L  r1509
 L  r1510
 L  r1511
 L  r1512
 L  r1513
 L  r1514
 L  r1515
 L  r1516
 L  r1517
 L  r1518
 L  r1519
 L  r1520
 L  r1521
 L  r1522
 L  r1523
 L  r1524
 L  r1525
 L  r1526
 L  r1527
 L  r1528
 L  r1529
 L  r1530
 L  r1531
 L  r1532
 L  r1533
 L  r1534
 L  r1535
 L  r1536
 L  r1537
 L  r1538
 L  r1539
 L  r1540
 L  r1541
 L  r1542
 L  r1543
 L  r1544
 L  r1545
 L  r1546
 L  r1547
 L  r1548
 L  r1549
 L  r1550
 L  r1551
 L  r1552
 L  r1553
 L  r1554
 L  r1555
 L  r1556
 L  r1557
 L  r1558
 L  r1559
 L  r1560
 L  r1561
 L  r1562
 L  r1563
 L  r1564
 L  r1565
 L  r1566
 L  r1567
 L  r1568
 L  r1569
 L  r1570
 L  r1571
 L  r1572
 L  r1573
 L  r1574
 L  r1575
 L  r1576
 L  r1577
 L  r1578
 L  r1579
 L  r1580
 L  r1581
 L  r1582
 L  r1583
 L  r1584
 L  r1585
 L  r1586
 L  r1587
 L  r1588
 L  r1589
 L  r1590
 L  r1591
 L  r1592
 L  r1593
 L  r1594
 L  r1595
 L  r1596
 L  r1597
 L  r1598
 L  r1599
 L  r1600
 L  r1601
 L  r1602
 L  r1603
 L  r1604
 L  r1605
 L  r1606
 L  r1607
 L  r1608
 L  r1609
 L  r1610
 L  r1611
 L  r1612
 L  r1613
 L  r1614
 L  r1615
 L  r1616
 L  r1617
 L  r1618
 L  r1619
 L  r1620
 L  r1621
 L  r1622
 L  r1623
 L  r1624
 L  r1625
 L  r1626
 L  r1627
 L  r1628
 L  r1629
 L  r1630
 L  r1631
 L  r1632
 L  r1633
 L  r1634
 L  r1635
 L  r1636
 L  r1637
 L  r1638
 L  r1639
 L  r1640
 L  r1641
 L  r1642
 L  r1643
 L  r1644
 L  r1645
 L  r1646
 L  r1647
 L  r1648
 L  r1649
 L  r1650
 L  r1651
 L  r1652
 L  r1653
 L  r1654
 L  r1655
 L  r1656
 L  r1657
 L  r1658
 L  r1659
 L  r1660
 L  r1661
 L  r1662
 L  r1663
 L  r1664
 L  r1665
 L  r1666
 L  r1667
 L  r1668
 L  r1669
 L  r1670
 L  r1671
 L  r1672
 L  r1673
 L  r1674
 L  r1675
 L  r1676
 L  r1677
 L  r1678
 L  r1679
COLUMNS
    f0  OBJ  5.843479163247489
    f0  r0  1.0
    f0  r1  -1.0
    f0  r1152  1.0
    f1  OBJ  4.089437828320046
    f1  r0  -1.0
    f1  r1  1.0
    f1  r1153  1.0
    f2  OBJ  4.3216051581584045
    f2  r0  1.0
    f2  r12  -1.0
    f2  r1154  1.0
    f3  OBJ  4.3704708902909415
    f3  r0  -1.0
    f3  r12  1.0
    f3  r1155  1.0
    f4  OBJ  9.887004911678199
    f4  r1  1.0
    f4  r2  -1.0
    f4  r1156  1.0
    f5  OBJ  6.694806453464315
    f5  r1  -1.0
    f5  r2  1.0
    f5  r1157  1.0
    f6  OBJ  7.068915374540442
    f6  r1  1.0
    f6  r13  -1.0
    f6  r1158  1.0
    f7  OBJ  3.9696710984691252
    f7  r1  -1.0
    f7  r13  1.0
    f7  r1159  1.0
    f8  OBJ  7.119258950476201
    f8  r2  1.0
    f8  r3  -1.0
    f8  r1160  1.0
    f9  OBJ  2.1067513739847104
    f9  r2  -1.0
    f9  r3  1.0
    f9  r1161  1.0
    f10  OBJ  1.465563087853977
    f10  r2  1.0
    f10  r14  -1.0
    f10  r1162  1.0
    f11  OBJ  8.651722121279082
    f11  r2  -1.0
    f11  r14  1.0
    f11  r1163  1.0
    f12  OBJ  1.080062249818912
    f12  r3  1.0
    f12  r4  -1.0
    f12  r1164  1.0
    f13  OBJ  9.80890805966767
    f13  r3  -1.0
    f13  r4  1.0
    f13  r1165  1.0
    f14  OBJ  8.443027232371483
    f14  r3  1.0
    f14  r15  -1.0
    f14  r1166  1.0
    f15  OBJ  8.066898633937342
    f15  r3  -1.0
    f15  r15  1.0
    f15  r1167  1.0
    f16  OBJ  1.4327513830229184
    f16  r4  1.0
    f16  r5  -1.0
    f16  r1168  1.0
    f17  OBJ  2.8669533958627724
    f17  r4  -1.0
    f17  r5  1.0
    f17  r1169  1.0
    f18  OBJ  8.648790679856907
    f18  r4  1.0
    f18  r16  -1.0
    f18  r1170  1.0
    f19  OBJ  4.892453304895277
    f19  r4  -1.0
    f19  r16  1.0
    f19  r1171  1.0
    f20  OBJ  6.647211403327665
    f20  r5  1.0
    f20  r6  -1.0
    f20  r1172  1.0
    f21  OBJ  2.1005415892986745
    f21  r5  -1.0
    f21  r6  1.0
    f21  r1173  1.0
    f22  OBJ  2.677026868100466
    f22  r5  1.0
    f22  r17  -1.0
    f22  r1174  1.0
    f23  OBJ  5.4754112146732625
    f23  r5  -1.0
    f23  r17  1.0
    f23  r1175  1.0
    f24  OBJ  7.835199191401016
    f24  r6  1.0
    f24  r7  -1.0
    f24  r1176  1.0
    f25  OBJ  5.858714839099925
    f25  r6  -1.0
    f25  r7  1.0
    f25  r1177  1.0
    f26  OBJ  1.9619207071213822
    f26  r6  1.0
    f26  r18  -1.0
    f26  r1178  1.0
    f27  OBJ  8.795674706633884
    f27  r6  -1.0
    f27  r18  1.0
    f27  r1179  1.0
    f28  OBJ  2.2569301861673416
    f28  r7  1.0
    f28  r8  -1.0
    f28  r1180  1.0
    f29  OBJ  4.956919817610607
    f29  r7  -1.0
    f29  r8  1.0
    f29  r1181  1.0
    f30  OBJ  6.281645261000175
    f30  r7  1.0
    f30  r19  -1.0
    f30  r1182  1.0
    f31  OBJ  3.8723455215676785
    f31  r7  -1.0
    f31  r19  1.0
    f31  r1183  1.0
    f32  OBJ  4.762487492955011
    f32  r8  1.0
    f32  r9  -1.0
    f32  r1184  1.0
    f33  OBJ  8.982680417439596
    f33  r8  -1.0
    f33  r9  1.0
    f33  r1185  1.0
    f34  OBJ  5.087221314275144
    f34  r8  1.0
    f34  r20  -1.0
    f34  r1186  1.0
    f35  OBJ  5.853224012546842
    f35  r8  -1.0
    f35  r20  1.0
    f35  r1187  1.0
    f36  OBJ  9.734402369267295
    f36  r9  1.0
    f36  r10  -1.0
    f36  r1188  1.0
    f37  OBJ  3.4838482279023597
    f37  r9  -1.0
    f37  r10  1.0
    f37  r1189  1.0
    f38  OBJ  9.05311169099006
    f38  r9  1.0
    f38  r21  -1.0
    f38  r1190  1.0
    f39  OBJ  4.2566996928588825
    f39  r9  -1.0
    f39  r21  1.0
    f39  r1191  1.0
    f40  OBJ  3.808369156683992
    f40  r10  1.0
    f40  r11  -1.0
    f40  r1192  1.0
    f41  OBJ  8.931602750040451
    f41  r10  -1.0
    f41  r11  1.0
    f41  r1193  1.0
    f42  OBJ  1.5894707335339273
    f42  r10  1.0
    f42  r22  -1.0
    f42  r1194  1.0
    f43  OBJ  8.799896097198229
    f43  r10  -1.0
    f43  r22  1.0
    f43  r1195  1.0
    f44  OBJ  8.449908565840481
    f44  r11  1.0
    f44  r23  -1.0
    f44  r1196  1.0
    f45  OBJ  9.05243356990497
    f45  r11  -1.0
    f45  r23  1.0
    f45  r1197  1.0
    f46  OBJ  1.5378154068686039
    f46  r12  1.0
    f46  r13  -1.0
    f46  r1198  1.0
    f47  OBJ  3.149250350989603
    f47  r12  -1.0
    f47  r13  1.0
    f47  r1199  1.0
    f48  OBJ  7.9763825368893055
    f48  r12  1.0
    f48  r24  -1.0
    f48  r1200  1.0
    f49  OBJ  4.931650790463847
    f49  r12  -1.0
    f49  r24  1.0
    f49  r1201  1.0
    f50  OBJ  1.0478184276486595
    f50  r13  1.0
    f50  r14  -1.0
    f50  r1202  1.0
    f51  OBJ  7.233576589265234
    f51  r13  -1.0
    f51  r14  1.0
    f51  r1203  1.0
    f52  OBJ  8.197927065695021
    f52  r13  1.0
    f52  r25  -1.0
    f52  r1204  1.0
    f53  OBJ  9.76262446210192
    f53  r13  -1.0
    f53  r25  1.0
    f53  r1205  1.0
    f54  OBJ  2.3559771646767214
    f54  r14  1.0
    f54  r15  -1.0
    f54  r1206  1.0
    f55  OBJ  3.2675947743516294
    f55  r14  -1.0
    f55  r15  1.0
    f55  r1207  1.0
    f56  OBJ  8.57224532832835
    f56  r14  1.0
    f56  r26  -1.0
    f56  r1208  1.0
    f57  OBJ  1.8262821126624695
    f57  r14  -1.0
    f57  r26  1.0
    f57  r1209  1.0
    f58  OBJ  3.4684351148653563
    f58  r15  1.0
    f58  r16  -1.0
    f58  r1210  1.0
    f59  OBJ  5.0658643600840545
    f59  r15  -1.0
    f59  r16  1.0
    f59  r1211  1.0
    f60  OBJ  4.765085478036262
    f60  r15  1.0
    f60  r27  -1.0
    f60  r1212  1.0
    f61  OBJ  5.884605364467616
    f61  r15  -1.0
    f61  r27  1.0
    f61  r1213  1.0
    f62  OBJ  8.81815836304687
    f62  r16  1.0
    f62  r17  -1.0
    f62  r1214  1.0
    f63  OBJ  6.681370181670063
    f63  r16  -1.0
    f63  r17  1.0
    f63  r1215  1.0
    f64  OBJ  6.886000713302363
    f64  r16  1.0
    f64  r28  -1.0
    f64  r1216  1.0
    f65  OBJ  6.329994115698163
    f65  r16  -1.0
    f65  r28  1.0
    f65  r1217  1.0
    f66  OBJ  2.89745780656496
    f66  r17  1.0
    f66  r18  -1.0
    f66  r1218  1.0
    f67  OBJ  5.0469319805790125
    f67  r17  -1.0
    f67  r18  1.0
    f67  r1219  1.0
    f68  OBJ  9.887845518427142
    f68  r17  1.0
    f68  r29  -1.0
    f68  r1220  1.0
    f69  OBJ  9.18307383604957
    f69  r17  -1.0
    f69  r29  1.0
    f69  r1221  1.0
    f70  OBJ  7.906999714511775
    f70  r18  1.0
    f70  r19  -1.0
    f70  r1222  1.0
    f71  OBJ  5.803134985573417
    f71  r18  -1.0
    f71  r19  1.0
    f71  r1223  1.0
    f72  OBJ  8.819791935718182
    f72  r18  1.0
    f72  r30  -1.0
    f72  r1224  1.0
    f73  OBJ  6.677942196100848
    f73  r18  -1.0
    f73  r30  1.0
    f73  r1225  1.0
    f74  OBJ  4.578123395103715
    f74  r19  1.0
    f74  r20  -1.0
    f74  r1226  1.0
    f75  OBJ  5.73687696795246
    f75  r19  -1.0
    f75  r20  1.0
    f75  r1227  1.0
    f76  OBJ  2.7872516802821625
    f76  r19  1.0
    f76  r31  -1.0
    f76  r1228  1.0
    f77  OBJ  6.155381271827194
    f77  r19  -1.0
    f77  r31  1.0
    f77  r1229  1.0
    f78  OBJ  3.8226207491633226
    f78  r20  1.0
    f78  r21  -1.0
    f78  r1230  1.0
    f79  OBJ  8.032593923327084
    f79  r20  -1.0
    f79  r21  1.0
    f79  r1231  1.0
    f80  OBJ  8.447683803834597
    f80  r20  1.0
    f80  r32  -1.0
    f80  r1232  1.0
    f81  OBJ  9.944166781185652
    f81  r20  -1.0
    f81  r32  1.0
    f81  r1233  1.0
    f82  OBJ  8.514758067385708
    f82  r21  1.0
    f82  r22  -1.0
    f82  r1234  1.0
    f83  OBJ  1.5333702487229801
    f83  r21  -1.0
    f83  r22  1.0
    f83  r1235  1.0
    f84  OBJ  7.518931095523543
    f84  r21  1.0
    f84  r33  -1.0
    f84  r1236  1.0
    f85  OBJ  8.27361552637164
    f85  r21  -1.0
    f85  r33  1.0
    f85  r1237  1.0
    f86  OBJ  8.850179988841164
    f86  r22  1.0
    f86  r23  -1.0
    f86  r1238  1.0
    f87  OBJ  5.425049455804184
    f87  r22  -1.0
    f87  r23  1.0
    f87  r1239  1.0
    f88  OBJ  5.283204492205081
    f88  r22  1.0
    f88  r34  -1.0
    f88  r1240  1.0
    f89  OBJ  5.777322522458589
    f89  r22  -1.0
    f89  r34  1.0
    f89  r1241  1.0
    f90  OBJ  2.3943995005292793
    f90  r23  1.0
    f90  r35  -1.0
    f90  r1242  1.0
    f91  OBJ  9.612598334079014
    f91  r23  -1.0
    f91  r35  1.0
    f91  r1243  1.0
    f92  OBJ  9.883038452562197
    f92  r24  1.0
    f92  r25  -1.0
    f92  r1244  1.0
    f93  OBJ  3.3668479442769903
    f93  r24  -1.0
    f93  r25  1.0
    f93  r1245  1.0
    f94  OBJ  9.616025266298925
    f94  r24  1.0
    f94  r36  -1.0
    f94  r1246  1.0
    f95  OBJ  2.8739629222224314
    f95  r24  -1.0
    f95  r36  1.0
    f95  r1247  1.0
    f96  OBJ  1.762693526837991
    f96  r25  1.0
    f96  r26  -1.0
    f96  r1248  1.0
    f97  OBJ  7.590067761304782
    f97  r25  -1.0
    f97  r26  1.0
    f97  r1249  1.0
    f98  OBJ  8.347655313259235
    f98  r25  1.0
    f98  r37  -1.0
    f98  r1250  1.0
    f99  OBJ  2.7975568257531913
    f99  r25  -1.0
    f99  r37  1.0
    f99  r1251  1.0
    f100  OBJ  9.583816133482737
    f100  r26  1.0
    f100  r27  -1.0
    f100  r1252  1.0
    f101  OBJ  4.597594046544144
    f101  r26  -1.0
    f101  r27  1.0
    f101  r1253  1.0
    f102  OBJ  2.672812870364235
    f102  r26  1.0
    f102  r38  -1.0
    f102  r1254  1.0
    f103  OBJ  3.705170203073723
    f103  r26  -1.0
    f103  r38  1.0
    f103  r1255  1.0
    f104  OBJ  2.0152999326320273
    f104  r27  1.0
    f104  r28  -1.0
    f104  r1256  1.0
    f105  OBJ  7.946388238006956
    f105  r27  -1.0
    f105  r28  1.0
    f105  r1257  1.0
    f106  OBJ  3.567815501244076
    f106  r27  1.0
    f106  r39  -1.0
    f106  r1258  1.0
    f107  OBJ  7.2396648493583475
    f107  r27  -1.0
    f107  r39  1.0
    f107  r1259  1.0
    f108  OBJ  5.148136829860446
    f108  r28  1.0
    f108  r29  -1.0
    f108  r1260  1.0
    f109  OBJ  2.1247572946633198
    f109  r28  -1.0
    f109  r29  1.0
    f109  r1261  1.0
    f110  OBJ  6.285209035118809
    f110  r28  1.0
    f110  r40  -1.0
    f110  r1262  1.0
    f111  OBJ  9.70457902276835
    f111  r28  -1.0
    f111  r40  1.0
    f111  r1263  1.0
    f112  OBJ  2.6638345376764683
    f112  r29  1.0
    f112  r30  -1.0
    f112  r1264  1.0
    f113  OBJ  9.663170978821231
    f113  r29  -1.0
    f113  r30  1.0
    f113  r1265  1.0
    f114  OBJ  2.062633599647878
    f114  r29  1.0
    f114  r41  -1.0
    f114  r1266  1.0
    f115  OBJ  6.187847879545351
    f115  r29  -1.0
    f115  r41  1.0
    f115  r1267  1.0
    f116  OBJ  2.562195711301708
    f116  r30  1.0
    f116  r31  -1.0
    f116  r1268  1.0
    f117  OBJ  9.963749442046902
    f117  r30  -1.0
    f117  r31  1.0
    f117  r1269  1.0
    f118  OBJ  5.948103521283666
    f118  r30  1.0
    f118  r42  -1.0
    f118  r1270  1.0
    f119  OBJ  8.84549741097349
    f119  r30  -1.0
    f119  r42  1.0
    f119  r1271  1.0
    f120  OBJ  7.367531877451553
    f120  r31  1.0
    f120  r32  -1.0
    f120  r1272  1.0
    f121  OBJ  5.0370586039786325
    f121  r31  -1.0
    f121  r32  1.0
    f121  r1273  1.0
    f122  OBJ  3.3365114494583135
    f122  r31  1.0
    f122  r43  -1.0
    f122  r1274  1.0
    f123  OBJ  8.848940341217338
    f123  r31  -1.0
    f123  r43  1.0
    f123  r1275  1.0
    f124  OBJ  8.967469784989184
    f124  r32  1.0
    f124  r33  -1.0
    f124  r1276  1.0
    f125  OBJ  8.056301029276604
    f125  r32  -1.0
    f125  r33  1.0
    f125  r1277  1.0
    f126  OBJ  8.261799444070519
    f126  r32  1.0
    f126  r44  -1.0
    f126  r1278  1.0
    f127  OBJ  1.3756333709345163
    f127  r32  -1.0
    f127  r44  1.0
    f127  r1279  1.0
    f128  OBJ  2.9712054557253227
    f128  r33  1.0
    f128  r34  -1.0
    f128  r1280  1.0
    f129  OBJ  5.990844544374253
    f129  r33  -1.0
    f129  r34  1.0
    f129  r1281  1.0
    f130  OBJ  1.7070566561872171
    f130  r33  1.0
    f130  r45  -1.0
    f130  r1282  1.0
    f131  OBJ  6.312234646179124
    f131  r33  -1.0
    f131  r45  1.0
    f131  r1283  1.0
    f132  OBJ  9.525295460899232
    f132  r34  1.0
    f132  r35  -1.0
    f132  r1284  1.0
    f133  OBJ  4.184128114500217
    f133  r34  -1.0
    f133  r35  1.0
    f133  r1285  1.0
    f134  OBJ  7.213383032669854
    f134  r34  1.0
    f134  r46  -1.0
    f134  r1286  1.0
    f135  OBJ  2.817068174308163
    f135  r34  -1.0
    f135  r46  1.0
    f135  r1287  1.0
    f136  OBJ  8.168247031162272
    f136  r35  1.0
    f136  r47  -1.0
    f136  r1288  1.0
    f137  OBJ  9.067977953848253
    f137  r35  -1.0
    f137  r47  1.0
    f137  r1289  1.0
    f138  OBJ  8.33711188653524
    f138  r36  1.0
    f138  r37  -1.0
    f138  r1290  1.0
    f139  OBJ  4.966699573658781
    f139  r36  -1.0
    f139  r37  1.0
    f139  r1291  1.0
    f140  OBJ  4.134208441347036
    f140  r36  1.0
    f140  r48  -1.0
    f140  r1292  1.0
    f141  OBJ  1.7537281635671031
    f141  r36  -1.0
    f141  r48  1.0
    f141  r1293  1.0
    f142  OBJ  8.63183269121383
    f142  r37  1.0
    f142  r38  -1.0
    f142  r1294  1.0
    f143  OBJ  9.134382435850736
    f143  r37  -1.0
    f143  r38  1.0
    f143  r1295  1.0
    f144  OBJ  6.026333765246144
    f144  r37  1.0
    f144  r49  -1.0
    f144  r1296  1.0
    f145  OBJ  7.877137223459138
    f145  r37  -1.0
    f145  r49  1.0
    f145  r1297  1.0
    f146  OBJ  3.051016504982827
    f146  r38  1.0
    f146  r39  -1.0
    f146  r1298  1.0
    f147  OBJ  7.803565893682319
    f147  r38  -1.0
    f147  r39  1.0
    f147  r1299  1.0
    f148  OBJ  3.2478880841995856
    f148  r38  1.0
    f148  r50  -1.0
    f148  r1300  1.0
    f149  OBJ  7.561582696471492
    f149  r38  -1.0
    f149  r50  1.0
    f149  r1301  1.0
    f150  OBJ  1.1077465912219826
    f150  r39  1.0
    f150  r40  -1.0
    f150  r1302  1.0
    f151  OBJ  4.462274498932999
    f151  r39  -1.0
    f151  r40  1.0
    f151  r1303  1.0
    f152  OBJ  3.143718312821855
    f152  r39  1.0
    f152  r51  -1.0
    f152  r1304  1.0
    f153  OBJ  1.3637892144637211
    f153  r39  -1.0
    f153  r51  1.0
    f153  r1305  1.0
    f154  OBJ  3.33536780497219
    f154  r40  1.0
    f154  r41  -1.0
    f154  r1306  1.0
    f155  OBJ  9.266985127160817
    f155  r40  -1.0
    f155  r41  1.0
    f155  r1307  1.0
    f156  OBJ  3.722854116303524
    f156  r40  1.0
    f156  r52  -1.0
    f156  r1308  1.0
    f157  OBJ  2.0478493989999245
    f157  r40  -1.0
    f157  r52  1.0
    f157  r1309  1.0
    f158  OBJ  7.001245287843152
    f158  r41  1.0
    f158  r42  -1.0
    f158  r1310  1.0
    f159  OBJ  7.9504753566883855
    f159  r41  -1.0
    f159  r42  1.0
    f159  r1311  1.0
    f160  OBJ  4.103119615708474
    f160  r41  1.0
    f160  r53  -1.0
    f160  r1312  1.0
    f161  OBJ  9.309033217289178
    f161  r41  -1.0
    f161  r53  1.0
    f161  r1313  1.0
    f162  OBJ  7.2741644884964956
    f162  r42  1.0
    f162  r43  -1.0
    f162  r1314  1.0
    f163  OBJ  5.837914239590002
    f163  r42  -1.0
    f163  r43  1.0
    f163  r1315  1.0
    f164  OBJ  9.069344515184543
    f164  r42  1.0
    f164  r54  -1.0
    f164  r1316  1.0
    f165  OBJ  8.28092182168296
    f165  r42  -1.0
    f165  r54  1.0
    f165  r1317  1.0
    f166  OBJ  6.438311445129069
    f166  r43  1.0
    f166  r44  -1.0
    f166  r1318  1.0
    f167  OBJ  3.2615425620963867
    f167  r43  -1.0
    f167  r44  1.0
    f167  r1319  1.0
    f168  OBJ  5.702488824101116
    f168  r43  1.0
    f168  r55  -1.0
    f168  r1320  1.0
    f169  OBJ  6.5851428786607675
    f169  r43  -1.0
    f169  r55  1.0
    f169  r1321  1.0
    f170  OBJ  9.071908100696
    f170  r44  1.0
    f170  r45  -1.0
    f170  r1322  1.0
    f171  OBJ  9.449913545414963
    f171  r44  -1.0
    f171  r45  1.0
    f171  r1323  1.0
    f172  OBJ  1.5526027546476011
    f172  r44  1.0
    f172  r56  -1.0
    f172  r1324  1.0
    f173  OBJ  5.740635528499118
    f173  r44  -1.0
    f173  r56  1.0
    f173  r1325  1.0
    f174  OBJ  9.43475860238855
    f174  r45  1.0
    f174  r46  -1.0
    f174  r1326  1.0
    f175  OBJ  4.879177272008489
    f175  r45  -1.0
    f175  r46  1.0
    f175  r1327  1.0
    f176  OBJ  7.784157847221835
    f176  r45  1.0
    f176  r57  -1.0
    f176  r1328  1.0
    f177  OBJ  3.067777991068951
    f177  r45  -1.0
    f177  r57  1.0
    f177  r1329  1.0
    f178  OBJ  8.840366234762376
    f178  r46  1.0
    f178  r47  -1.0
    f178  r1330  1.0
    f179  OBJ  2.569338415546724
    f179  r46  -1.0
    f179  r47  1.0
    f179  r1331  1.0
    f180  OBJ  3.3569594822839144
    f180  r46  1.0
    f180  r58  -1.0
    f180  r1332  1.0
    f181  OBJ  3.2123559621221753
    f181  r46  -1.0
    f181  r58  1.0
    f181  r1333  1.0
    f182  OBJ  2.2788823876101647
    f182  r47  1.0
    f182  r59  -1.0
    f182  r1334  1.0
    f183  OBJ  7.024989198482375
    f183  r47  -1.0
    f183  r59  1.0
    f183  r1335  1.0
    f184  OBJ  8.584841705834307
    f184  r48  1.0
    f184  r49  -1.0
    f184  r1336  1.0
    f185  OBJ  2.4180513221150917
    f185  r48  -1.0
    f185  r49  1.0
    f185  r1337  1.0
    f186  OBJ  2.7928105422408227
    f186  r48  1.0
    f186  r60  -1.0
    f186  r1338  1.0
    f187  OBJ  4.576467726391256
    f187  r48  -1.0
    f187  r60  1.0
    f187  r1339  1.0
    f188  OBJ  3.707947218147749
    f188  r49  1.0
    f188  r50  -1.0
    f188  r1340  1.0
    f189  OBJ  6.741770927053644
    f189  r49  -1.0
    f189  r50  1.0
    f189  r1341  1.0
    f190  OBJ  2.053531136352788
    f190  r49  1.0
    f190  r61  -1.0
    f190  r1342  1.0
    f191  OBJ  6.243616247545115
    f191  r49  -1.0
    f191  r61  1.0
    f191  r1343  1.0
    f192  OBJ  5.533037581812857
    f192  r50  1.0
    f192  r51  -1.0
    f192  r1344  1.0
    f193  OBJ  2.057070778845458
    f193  r50  -1.0
    f193  r51  1.0
    f193  r1345  1.0
    f194  OBJ  5.03319964067469
    f194  r50  1.0
    f194  r62  -1.0
    f194  r1346  1.0
    f195  OBJ  4.372981205688504
    f195  r50  -1.0
    f195  r62  1.0
    f195  r1347  1.0
    f196  OBJ  1.6071602069885822
    f196  r51  1.0
    f196  r52  -1.0
    f196  r1348  1.0
    f197  OBJ  3.932915843468632
    f197  r51  -1.0
    f197  r52  1.0
    f197  r1349  1.0
    f198  OBJ  6.784274421345183
    f198  r51  1.0
    f198  r63  -1.0
    f198  r1350  1.0
    f199  OBJ  8.87767040252694
    f199  r51  -1.0
    f199  r63  1.0
    f199  r1351  1.0
    f200  OBJ  9.57364570157721
    f200  r52  1.0
    f200  r53  -1.0
    f200  r1352  1.0
    f201  OBJ  7.629171914559498
    f201  r52  -1.0
    f201  r53  1.0
    f201  r1353  1.0
    f202  OBJ  4.673521736950686
    f202  r52  1.0
    f202  r64  -1.0
    f202  r1354  1.0
    f203  OBJ  2.3395263729787823
    f203  r52  -1.0
    f203  r64  1.0
    f203  r1355  1.0
    f204  OBJ  7.148071082372267
    f204  r53  1.0
    f204  r54  -1.0
    f204  r1356  1.0
    f205  OBJ  6.157914246676193
    f205  r53  -1.0
    f205  r54  1.0
    f205  r1357  1.0
    f206  OBJ  8.750560649496279
    f206  r53  1.0
    f206  r65  -1.0
    f206  r1358  1.0
    f207  OBJ  3.3051466646524137
    f207  r53  -1.0
    f207  r65  1.0
    f207  r1359  1.0
    f208  OBJ  6.912073358897169
    f208  r54  1.0
    f208  r55  -1.0
    f208  r1360  1.0
    f209  OBJ  1.8413904953890992
    f209  r54  -1.0
    f209  r55  1.0
    f209  r1361  1.0
    f210  OBJ  3.7859444762361294
    f210  r54  1.0
    f210  r66  -1.0
    f210  r1362  1.0
    f211  OBJ  4.880219335322179
    f211  r54  -1.0
    f211  r66  1.0
    f211  r1363  1.0
    f212  OBJ  8.248199274184902
    f212  r55  1.0
    f212  r56  -1.0
    f212  r1364  1.0
    f213  OBJ  4.129360889985302
    f213  r55  -1.0
    f213  r56  1.0
    f213  r1365  1.0
    f214  OBJ  6.570008312930026
    f214  r55  1.0
    f214  r67  -1.0
    f214  r1366  1.0
    f215  OBJ  9.874236205574777
    f215  r55  -1.0
    f215  r67  1.0
    f215  r1367  1.0
    f216  OBJ  9.51646875545354
    f216  r56  1.0
    f216  r57  -1.0
    f216  r1368  1.0
    f217  OBJ  5.298509275495396
    f217  r56  -1.0
    f217  r57  1.0
    f217  r1369  1.0
    f218  OBJ  2.8837232785759013
    f218  r56  1.0
    f218  r68  -1.0
    f218  r1370  1.0
    f219  OBJ  6.539390050808525
    f219  r56  -1.0
    f219  r68  1.0
    f219  r1371  1.0
    f220  OBJ  8.141807889146136
    f220  r57  1.0
    f220  r58  -1.0
    f220  r1372  1.0
    f221  OBJ  6.344872540246349
    f221  r57  -1.0
    f221  r58  1.0
    f221  r1373  1.0
    f222  OBJ  7.7292342535858936
    f222  r57  1.0
    f222  r69  -1.0
    f222  r1374  1.0
    f223  OBJ  2.919929548367037
    f223  r57  -1.0
    f223  r69  1.0
    f223  r1375  1.0
    f224  OBJ  3.5722688038057053
    f224  r58  1.0
    f224  r59  -1.0
    f224  r1376  1.0
    f225  OBJ  2.4058364065093754
    f225  r58  -1.0
    f225  r59  1.0
    f225  r1377  1.0
    f226  OBJ  1.5181313304897963
    f226  r58  1.0
    f226  r70  -1.0
    f226  r1378  1.0
    f227  OBJ  5.14441361017963
    f227  r58  -1.0
    f227  r70  1.0
    f227  r1379  1.0
    f228  OBJ  7.958578806368944
    f228  r59  1.0
    f228  r71  -1.0
    f228  r1380  1.0
    f229  OBJ  4.369669474409982
    f229  r59  -1.0
    f229  r71  1.0
    f229  r1381  1.0
    f230  OBJ  9.578268517437737
    f230  r60  1.0
    f230  r61  -1.0
    f230  r1382  1.0
    f231  OBJ  4.162536277129916
    f231  r60  -1.0
    f231  r61  1.0
    f231  r1383  1.0
    f232  OBJ  4.426687129543275
    f232  r60  1.0
    f232  r72  -1.0
    f232  r1384  1.0
    f233  OBJ  8.671251806248794
    f233  r60  -1.0
    f233  r72  1.0
    f233  r1385  1.0
    f234  OBJ  6.942519417241746
    f234  r61  1.0
    f234  r62  -1.0
    f234  r1386  1.0
    f235  OBJ  5.8091713864273
    f235  r61  -1.0
    f235  r62  1.0
    f235  r1387  1.0
    f236  OBJ  3.1250306131869907
    f236  r61  1.0
    f236  r73  -1.0
    f236  r1388  1.0
    f237  OBJ  1.7881153042109728
    f237  r61  -1.0
    f237  r73  1.0
    f237  r1389  1.0
    f238  OBJ  2.4738175169074745
    f238  r62  1.0
    f238  r63  -1.0
    f238  r1390  1.0
    f239  OBJ  2.4884050604864716
    f239  r62  -1.0
    f239  r63  1.0
    f239  r1391  1.0
    f240  OBJ  4.770114184150721
    f240  r62  1.0
    f240  r74  -1.0
    f240  r1392  1.0
    f241  OBJ  3.9764102922479694
    f241  r62  -1.0
    f241  r74  1.0
    f241  r1393  1.0
    f242  OBJ  5.924309803353416
    f242  r63  1.0
    f242  r64  -1.0
    f242  r1394  1.0
    f243  OBJ  3.3385493242589894
    f243  r63  -1.0
    f243  r64  1.0
    f243  r1395  1.0
    f244  OBJ  7.144749280430248
    f244  r63  1.0
    f244  r75  -1.0
    f244  r1396  1.0
    f245  OBJ  9.515200012995304
    f245  r63  -1.0
    f245  r75  1.0
    f245  r1397  1.0
    f246  OBJ  8.36033005720306
    f246  r64  1.0
    f246  r65  -1.0
    f246  r1398  1.0
    f247  OBJ  6.18865062078726
    f247  r64  -1.0
    f247  r65  1.0
    f247  r1399  1.0
    f248  OBJ  3.3278283690821286
    f248  r64  1.0
    f248  r76  -1.0
    f248  r1400  1.0
    f249  OBJ  8.118879965779355
    f249  r64  -1.0
    f249  r76  1.0
    f249  r1401  1.0
    f250  OBJ  8.525642503999077
    f250  r65  1.0
    f250  r66  -1.0
    f250  r1402  1.0
    f251  OBJ  1.8471927545361946
    f251  r65  -1.0
    f251  r66  1.0
    f251  r1403  1.0
    f252  OBJ  8.617861454104808
    f252  r65  1.0
    f252  r77  -1.0
    f252  r1404  1.0
    f253  OBJ  9.28184385663278
    f253  r65  -1.0
    f253  r77  1.0
    f253  r1405  1.0
    f254  OBJ  2.8218006430295373
    f254  r66  1.0
    f254  r67  -1.0
    f254  r1406  1.0
    f255  OBJ  2.651246163103225
    f255  r66  -1.0
    f255  r67  1.0
    f255  r1407  1.0
    f256  OBJ  7.5372506585615735
    f256  r66  1.0
    f256  r78  -1.0
    f256  r1408  1.0
    f257  OBJ  5.323717629241309
    f257  r66  -1.0
    f257  r78  1.0
    f257  r1409  1.0
    f258  OBJ  1.6656547324045405
    f258  r67  1.0
    f258  r68  -1.0
    f258  r1410  1.0
    f259  OBJ  6.520511657077648
    f259  r67  -1.0
    f259  r68  1.0
    f259  r1411  1.0
    f260  OBJ  8.462742992442585
    f260  r67  1.0
    f260  r79  -1.0
    f260  r1412  1.0
    f261  OBJ  7.562753261045978
    f261  r67  -1.0
    f261  r79  1.0
    f261  r1413  1.0
    f262  OBJ  1.4579849945343457
    f262  r68  1.0
    f262  r69  -1.0
    f262  r1414  1.0
    f263  OBJ  1.3840722864476893
    f263  r68  -1.0
    f263  r69  1.0
    f263  r1415  1.0
    f264  OBJ  5.6617811913676315
    f264  r68  1.0
    f264  r80  -1.0
    f264  r1416  1.0
    f265  OBJ  6.919498005080287
    f265  r68  -1.0
    f265  r80  1.0
    f265  r1417  1.0
    f266  OBJ  9.285794023306087
    f266  r69  1.0
    f266  r70  -1.0
    f266  r1418  1.0
    f267  OBJ  7.3993322363938745
    f267  r69  -1.0
    f267  r70  1.0
    f267  r1419  1.0
    f268  OBJ  7.101977977434503
    f268  r69  1.0
    f268  r81  -1.0
    f268  r1420  1.0
    f269  OBJ  8.876980031369033
    f269  r69  -1.0
    f269  r81  1.0
    f269  r1421  1.0
    f270  OBJ  4.66136303553649
    f270  r70  1.0
    f270  r71  -1.0
    f270  r1422  1.0
    f271  OBJ  2.547443857546328
    f271  r70  -1.0
    f271  r71  1.0
    f271  r1423  1.0
    f272  OBJ  2.0348893291575196
    f272  r70  1.0
    f272  r82  -1.0
    f272  r1424  1.0
    f273  OBJ  4.213952179581336
    f273  r70  -1.0
    f273  r82  1.0
    f273  r1425  1.0
    f274  OBJ  8.779879443746765
    f274  r71  1.0
    f274  r83  -1.0
    f274  r1426  1.0
    f275  OBJ  5.940792123148839
    f275  r71  -1.0
    f275  r83  1.0
    f275  r1427  1.0
    f276  OBJ  1.3920125076769931
    f276  r72  1.0
    f276  r73  -1.0
    f276  r1428  1.0
    f277  OBJ  9.163801058965287
    f277  r72  -1.0
    f277  r73  1.0
    f277  r1429  1.0
    f278  OBJ  8.413501768673024
    f278  r72  1.0
    f278  r84  -1.0
    f278  r1430  1.0
    f279  OBJ  1.5022974905585167
    f279  r72  -1.0
    f279  r84  1.0
    f279  r1431  1.0
    f280  OBJ  8.073763821337996
    f280  r73  1.0
    f280  r74  -1.0
    f280  r1432  1.0
    f281  OBJ  2.641997978893971
    f281  r73  -1.0
    f281  r74  1.0
    f281  r1433  1.0
    f282  OBJ  1.4524969311091085
    f282  r73  1.0
    f282  r85  -1.0
    f282  r1434  1.0
    f283  OBJ  4.560439970223803
    f283  r73  -1.0
    f283  r85  1.0
    f283  r1435  1.0
    f284  OBJ  7.349986377101174
    f284  r74  1.0
    f284  r75  -1.0
    f284  r1436  1.0
    f285  OBJ  3.4211263859867955
    f285  r74  -1.0
    f285  r75  1.0
    f285  r1437  1.0
    f286  OBJ  4.886653339206574
    f286  r74  1.0
    f286  r86  -1.0
    f286  r1438  1.0
    f287  OBJ  8.553204349239795
    f287  r74  -1.0
    f287  r86  1.0
    f287  r1439  1.0
    f288  OBJ  2.0931257120590527
    f288  r75  1.0
    f288  r76  -1.0
    f288  r1440  1.0
    f289  OBJ  6.764007836463744
    f289  r75  -1.0
    f289  r76  1.0
    f289  r1441  1.0
    f290  OBJ  3.8351177230513684
    f290  r75  1.0
    f290  r87  -1.0
    f290  r1442  1.0
    f291  OBJ  1.553625881370926
    f291  r75  -1.0
    f291  r87  1.0
    f291  r1443  1.0
    f292  OBJ  7.872044218655729
    f292  r76  1.0
    f292  r77  -1.0
    f292  r1444  1.0
    f293  OBJ  7.06928082643932
    f293  r76  -1.0
    f293  r77  1.0
    f293  r1445  1.0
    f294  OBJ  5.150207075823104
    f294  r76  1.0
    f294  r88  -1.0
    f294  r1446  1.0
    f295  OBJ  5.202706668736231
    f295  r76  -1.0
    f295  r88  1.0
    f295  r1447  1.0
    f296  OBJ  4.495388412323753
    f296  r77  1.0
    f296  r78  -1.0
    f296  r1448  1.0
    f297  OBJ  7.119590207632811
    f297  r77  -1.0
    f297  r78  1.0
    f297  r1449  1.0
    f298  OBJ  1.0846305661855613
    f298  r77  1.0
    f298  r89  -1.0
    f298  r1450  1.0
    f299  OBJ  1.9779784306069956
    f299  r77  -1.0
    f299  r89  1.0
    f299  r1451  1.0
    f300  OBJ  1.7656223383448246
    f300  r78  1.0
    f300  r79  -1.0
    f300  r1452  1.0
    f301  OBJ  1.9757356636276593
    f301  r78  -1.0
    f301  r79  1.0
    f301  r1453  1.0
    f302  OBJ  5.984399077982553
    f302  r78  1.0
    f302  r90  -1.0
    f302  r1454  1.0
    f303  OBJ  4.751953812845244
    f303  r78  -1.0
    f303  r90  1.0
    f303  r1455  1.0
    f304  OBJ  6.911526938116024
    f304  r79  1.0
    f304  r80  -1.0
    f304  r1456  1.0
    f305  OBJ  5.701495629352302
    f305  r79  -1.0
    f305  r80  1.0
    f305  r1457  1.0
    f306  OBJ  8.044580428570983
    f306  r79  1.0
    f306  r91  -1.0
    f306  r1458  1.0
    f307  OBJ  7.324669472023794
    f307  r79  -1.0
    f307  r91  1.0
    f307  r1459  1.0
    f308  OBJ  1.314066547938094
    f308  r80  1.0
    f308  r81  -1.0
    f308  r1460  1.0
    f309  OBJ  1.7861996272793332
    f309  r80  -1.0
    f309  r81  1.0
    f309  r1461  1.0
    f310  OBJ  6.983858312706064
    f310  r80  1.0
    f310  r92  -1.0
    f310  r1462  1.0
    f311  OBJ  8.675731147502312
    f311  r80  -1.0
    f311  r92  1.0
    f311  r1463  1.0
    f312  OBJ  8.427046161750996
    f312  r81  1.0
    f312  r82  -1.0
    f312  r1464  1.0
    f313  OBJ  1.8228964051985819
    f313  r81  -1.0
    f313  r82  1.0
    f313  r1465  1.0
    f314  OBJ  6.409233468018879
    f314  r81  1.0
    f314  r93  -1.0
    f314  r1466  1.0
    f315  OBJ  2.3497677657611447
    f315  r81  -1.0
    f315  r93  1.0
    f315  r1467  1.0
    f316  OBJ  3.7086207054581948
    f316  r82  1.0
    f316  r83  -1.0
    f316  r1468  1.0
    f317  OBJ  8.65715624722977
    f317  r82  -1.0
    f317  r83  1.0
    f317  r1469  1.0
    f318  OBJ  6.595096110933911
    f318  r82  1.0
    f318  r94  -1.0
    f318  r1470  1.0
    f319  OBJ  8.537672872213488
    f319  r82  -1.0
    f319  r94  1.0
    f319  r1471  1.0
    f320  OBJ  6.4434897279176155
    f320  r83  1.0
    f320  r95  -1.0
    f320  r1472  1.0
    f321  OBJ  9.13032417858997
    f321  r83  -1.0
    f321  r95  1.0
    f321  r1473  1.0
    f322  OBJ  3.4661275108262677
    f322  r84  1.0
    f322  r85  -1.0
    f322  r1474  1.0
    f323  OBJ  5.314808375552716
    f323  r84  -1.0
    f323  r85  1.0
    f323  r1475  1.0
    f324  OBJ  9.415650543340698
    f324  r84  1.0
    f324  r96  -1.0
    f324  r1476  1.0
    f325  OBJ  7.876608463745178
    f325  r84  -1.0
    f325  r96  1.0
    f325  r1477  1.0
    f326  OBJ  1.4555185085717608
    f326  r85  1.0
    f326  r86  -1.0
    f326  r1478  1.0
    f327  OBJ  2.8941717934539652
    f327  r85  -1.0
    f327  r86  1.0
    f327  r1479  1.0
    f328  OBJ  4.342485411336144
    f328  r85  1.0
    f328  r97  -1.0
    f328  r1480  1.0
    f329  OBJ  6.743615544985133
    f329  r85  -1.0
    f329  r97  1.0
    f329  r1481  1.0
    f330  OBJ  3.61203237863454
    f330  r86  1.0
    f330  r87  -1.0
    f330  r1482  1.0
    f331  OBJ  8.55096368863703
    f331  r86  -1.0
    f331  r87  1.0
    f331  r1483  1.0
    f332  OBJ  8.27410362430896
    f332  r86  1.0
    f332  r98  -1.0
    f332  r1484  1.0
    f333  OBJ  4.760315867692679
    f333  r86  -1.0
    f333  r98  1.0
    f333  r1485  1.0
    f334  OBJ  3.271951507739692
    f334  r87  1.0
    f334  r88  -1.0
    f334  r1486  1.0
    f335  OBJ  3.1289069487998327
    f335  r87  -1.0
    f335  r88  1.0
    f335  r1487  1.0
    f336  OBJ  3.0383411253968777
    f336  r87  1.0
    f336  r99  -1.0
    f336  r1488  1.0
    f337  OBJ  5.480200952044394
    f337  r87  -1.0
    f337  r99  1.0
    f337  r1489  1.0
    f338  OBJ  5.89233280359704
    f338  r88  1.0
    f338  r89  -1.0
    f338  r1490  1.0
    f339  OBJ  9.034834307474533
    f339  r88  -1.0
    f339  r89  1.0
    f339  r1491  1.0
    f340  OBJ  5.48019352885476
    f340  r88  1.0
    f340  r100  -1.0
    f340  r1492  1.0
    f341  OBJ  6.063511377019814
    f341  r88  -1.0
    f341  r100  1.0
    f341  r1493  1.0
    f342  OBJ  3.056570100539143
    f342  r89  1.0
    f342  r90  -1.0
    f342  r1494  1.0
    f343  OBJ  9.839114102074996
    f343  r89  -1.0
    f343  r90  1.0
    f343  r1495  1.0
    f344  OBJ  5.288831991624837
    f344  r89  1.0
    f344  r101  -1.0
    f344  r1496  1.0
    f345  OBJ  2.3618639776040853
    f345  r89  -1.0
    f345  r101  1.0
    f345  r1497  1.0
    f346  OBJ  3.6106988058510683
    f346  r90  1.0
    f346  r91  -1.0
    f346  r1498  1.0
    f347  OBJ  7.580321328506547
    f347  r90  -1.0
    f347  r91  1.0
    f347  r1499  1.0
    f348  OBJ  3.4236954706385108
    f348  r90  1.0
    f348  r102  -1.0
    f348  r1500  1.0
    f349  OBJ  9.935351400755525
    f349  r90  -1.0
    f349  r102  1.0
    f349  r1501  1.0
    f350  OBJ  6.0414245812900464
    f350  r91  1.0
    f350  r92  -1.0
    f350  r1502  1.0
    f351  OBJ  8.128246327252945
    f351  r91  -1.0
    f351  r92  1.0
    f351  r1503  1.0
    f352  OBJ  6.405207842179179
    f352  r91  1.0
    f352  r103  -1.0
    f352  r1504  1.0
    f353  OBJ  7.175588659685827
    f353  r91  -1.0
    f353  r103  1.0
    f353  r1505  1.0
    f354  OBJ  4.55280268396465
    f354  r92  1.0
    f354  r93  -1.0
    f354  r1506  1.0
    f355  OBJ  8.284176006510918
    f355  r92  -1.0
    f355  r93  1.0
    f355  r1507  1.0
    f356  OBJ  8.258425480846048
    f356  r92  1.0
    f356  r104  -1.0
    f356  r1508  1.0
    f357  OBJ  8.243636724075234
    f357  r92  -1.0
    f357  r104  1.0
    f357  r1509  1.0
    f358  OBJ  6.657537466663689
    f358  r93  1.0
    f358  r94  -1.0
    f358  r1510  1.0
    f359  OBJ  8.164781925273541
    f359  r93  -1.0
    f359  r94  1.0
    f359  r1511  1.0
    f360  OBJ  8.20681290475072
    f360  r93  1.0
    f360  r105  -1.0
    f360  r1512  1.0
    f361  OBJ  3.094638847430028
    f361  r93  -1.0
    f361  r105  1.0
    f361  r1513  1.0
    f362  OBJ  1.4217384987424868
    f362  r94  1.0
    f362  r95  -1.0
    f362  r1514  1.0
    f363  OBJ  9.287341261502519
    f363  r94  -1.0
    f363  r95  1.0
    f363  r1515  1.0
    f364  OBJ  4.510003809796323
    f364  r94  1.0
    f364  r106  -1.0
    f364  r1516  1.0
    f365  OBJ  1.689584135205687
    f365  r94  -1.0
    f365  r106  1.0
    f365  r1517  1.0
    f366  OBJ  8.829369194969871
    f366  r95  1.0
    f366  r107  -1.0
    f366  r1518  1.0
    f367  OBJ  8.579225926976626
    f367  r95  -1.0
    f367  r107  1.0
    f367  r1519  1.0
    f368  OBJ  6.515070056482823
    f368  r96  1.0
    f368  r97  -1.0
    f368  r1520  1.0
    f369  OBJ  1.9333861611603584
    f369  r96  -1.0
    f369  r97  1.0
    f369  r1521  1.0
    f370  OBJ  8.821126256390787
    f370  r96  1.0
    f370  r108  -1.0
    f370  r1522  1.0
    f371  OBJ  5.380010869548395
    f371  r96  -1.0
    f371  r108  1.0
    f371  r1523  1.0
    f372  OBJ  1.79435476258808
    f372  r97  1.0
    f372  r98  -1.0
    f372  r1524  1.0
    f373  OBJ  2.5881345830087987
    f373  r97  -1.0
    f373  r98  1.0
    f373  r1525  1.0
    f374  OBJ  2.2709020232246275
    f374  r97  1.0
    f374  r109  -1.0
    f374  r1526  1.0
    f375  OBJ  8.817342286568334
    f375  r97  -1.0
    f375  r109  1.0
    f375  r1527  1.0
    f376  OBJ  8.986263428543289
    f376  r98  1.0
    f376  r99  -1.0
    f376  r1528  1.0
    f377  OBJ  9.38185667015476
    f377  r98  -1.0
    f377  r99  1.0
    f377  r1529  1.0
    f378  OBJ  3.9106694183611115
    f378  r98  1.0
    f378  r110  -1.0
    f378  r1530  1.0
    f379  OBJ  6.2581326213504145
    f379  r98  -1.0
    f379  r110  1.0
    f379  r1531  1.0
    f380  OBJ  6.5413224246684765
    f380  r99  1.0
    f380  r100  -1.0
    f380  r1532  1.0
    f381  OBJ  4.24723656890971
    f381  r99  -1.0
    f381  r100  1.0
    f381  r1533  1.0
    f382  OBJ  1.1530270433944918
    f382  r99  1.0
    f382  r111  -1.0
    f382  r1534  1.0
    f383  OBJ  1.5456931069157984
    f383  r99  -1.0
    f383  r111  1.0
    f383  r1535  1.0
    f384  OBJ  1.7241574018463028
    f384  r100  1.0
    f384  r101  -1.0
    f384  r1536  1.0
    f385  OBJ  5.060393063505103
    f385  r100  -1.0
    f385  r101  1.0
    f385  r1537  1.0
    f386  OBJ  4.717674001218046
    f386  r100  1.0
    f386  r112  -1.0
    f386  r1538  1.0
    f387  OBJ  1.247230558457763
    f387  r100  -1.0
    f387  r112  1.0
    f387  r1539  1.0
    f388  OBJ  1.54764450308056
    f388  r101  1.0
    f388  r102  -1.0
    f388  r1540  1.0
    f389  OBJ  4.436901121272687
    f389  r101  -1.0
    f389  r102  1.0
    f389  r1541  1.0
    f390  OBJ  6.816823571619188
    f390  r101  1.0
    f390  r113  -1.0
    f390  r1542  1.0
    f391  OBJ  5.525496290785183
    f391  r101  -1.0
    f391  r113  1.0
    f391  r1543  1.0
    f392  OBJ  7.7892030889215045
    f392  r102  1.0
    f392  r103  -1.0
    f392  r1544  1.0
    f393  OBJ  6.021613449681658
    f393  r102  -1.0
    f393  r103  1.0
    f393  r1545  1.0
    f394  OBJ  1.7925975732094421
    f394  r102  1.0
    f394  r114  -1.0
    f394  r1546  1.0
    f395  OBJ  1.9605881002043333
    f395  r102  -1.0
    f395  r114  1.0
    f395  r1547  1.0
    f396  OBJ  4.214847872386429
    f396  r103  1.0
    f396  r104  -1.0
    f396  r1548  1.0
    f397  OBJ  6.4358061135036415
    f397  r103  -1.0
    f397  r104  1.0
    f397  r1549  1.0
    f398  OBJ  8.791756014834748
    f398  r103  1.0
    f398  r115  -1.0
    f398  r1550  1.0
    f399  OBJ  8.906412266607497
    f399  r103  -1.0
    f399  r115  1.0
    f399  r1551  1.0
    f400  OBJ  9.642936026015834
    f400  r104  1.0
    f400  r105  -1.0
    f400  r1552  1.0
    f401  OBJ  8.74458457431033
    f401  r104  -1.0
    f401  r105  1.0
    f401  r1553  1.0
    f402  OBJ  4.632826881809093
    f402  r104  1.0
    f402  r116  -1.0
    f402  r1554  1.0
    f403  OBJ  6.036208381774288
    f403  r104  -1.0
    f403  r116  1.0
    f403  r1555  1.0
    f404  OBJ  1.5445529663505415
    f404  r105  1.0
    f404  r106  -1.0
    f404  r1556  1.0
    f405  OBJ  9.46800502409497
    f405  r105  -1.0
    f405  r106  1.0
    f405  r1557  1.0
    f406  OBJ  6.293069097224333
    f406  r105  1.0
    f406  r117  -1.0
    f406  r1558  1.0
    f407  OBJ  1.392109310130999
    f407  r105  -1.0
    f407  r117  1.0
    f407  r1559  1.0
    f408  OBJ  8.98243592093765
    f408  r106  1.0
    f408  r107  -1.0
    f408  r1560  1.0
    f409  OBJ  7.457874392090199
    f409  r106  -1.0
    f409  r107  1.0
    f409  r1561  1.0
    f410  OBJ  9.86636593405365
    f410  r106  1.0
    f410  r118  -1.0
    f410  r1562  1.0
    f411  OBJ  1.884113845238686
    f411  r106  -1.0
    f411  r118  1.0
    f411  r1563  1.0
    f412  OBJ  4.817695723273715
    f412  r107  1.0
    f412  r119  -1.0
    f412  r1564  1.0
    f413  OBJ  1.9663286839312208
    f413  r107  -1.0
    f413  r119  1.0
    f413  r1565  1.0
    f414  OBJ  9.466546608877756
    f414  r108  1.0
    f414  r109  -1.0
    f414  r1566  1.0
    f415  OBJ  2.35517321804957
    f415  r108  -1.0
    f415  r109  1.0
    f415  r1567  1.0
    f416  OBJ  7.463676282084244
    f416  r108  1.0
    f416  r120  -1.0
    f416  r1568  1.0
    f417  OBJ  7.092173550062428
    f417  r108  -1.0
    f417  r120  1.0
    f417  r1569  1.0
    f418  OBJ  6.419758665712502
    f418  r109  1.0
    f418  r110  -1.0
    f418  r1570  1.0
    f419  OBJ  5.28633868688531
    f419  r109  -1.0
    f419  r110  1.0
    f419  r1571  1.0
    f420  OBJ  4.866007560405688
    f420  r109  1.0
    f420  r121  -1.0
    f420  r1572  1.0
    f421  OBJ  8.167183958198226
    f421  r109  -1.0
    f421  r121  1.0
    f421  r1573  1.0
    f422  OBJ  6.429584491675617
    f422  r110  1.0
    f422  r111  -1.0
    f422  r1574  1.0
    f423  OBJ  4.055450924783071
    f423  r110  -1.0
    f423  r111  1.0
    f423  r1575  1.0
    f424  OBJ  7.581300347906965
    f424  r110  1.0
    f424  r122  -1.0
    f424  r1576  1.0
    f425  OBJ  7.0298196315608354
    f425  r110  -1.0
    f425  r122  1.0
    f425  r1577  1.0
    f426  OBJ  4.957681743166404
    f426  r111  1.0
    f426  r112  -1.0
    f426  r1578  1.0
    f427  OBJ  7.318285653973427
    f427  r111  -1.0
    f427  r112  1.0
    f427  r1579  1.0
    f428  OBJ  2.4897868945411625
    f428  r111  1.0
    f428  r123  -1.0
    f428  r1580  1.0
    f429  OBJ  4.850063341307448
    f429  r111  -1.0
    f429  r123  1.0
    f429  r1581  1.0
    f430  OBJ  8.033896025571028
    f430  r112  1.0
    f430  r113  -1.0
    f430  r1582  1.0
    f431  OBJ  8.097860416424329
    f431  r112  -1.0
    f431  r113  1.0
    f431  r1583  1.0
    f432  OBJ  7.774866557965757
    f432  r112  1.0
    f432  r124  -1.0
    f432  r1584  1.0
    f433  OBJ  9.98372389208314
    f433  r112  -1.0
    f433  r124  1.0
    f433  r1585  1.0
    f434  OBJ  4.51239723509016
    f434  r113  1.0
    f434  r114  -1.0
    f434  r1586  1.0
    f435  OBJ  9.22551467867278
    f435  r113  -1.0
    f435  r114  1.0
    f435  r1587  1.0
    f436  OBJ  7.985321819227965
    f436  r113  1.0
    f436  r125  -1.0
    f436  r1588  1.0
    f437  OBJ  7.853878487528075
    f437  r113  -1.0
    f437  r125  1.0
    f437  r1589  1.0
    f438  OBJ  3.8988307865943725
    f438  r114  1.0
    f438  r115  -1.0
    f438  r1590  1.0
    f439  OBJ  1.8213408431341964
    f439  r114  -1.0
    f439  r115  1.0
    f439  r1591  1.0
    f440  OBJ  7.923969680330949
    f440  r114  1.0
    f440  r126  -1.0
    f440  r1592  1.0
    f441  OBJ  1.563767453091939
    f441  r114  -1.0
    f441  r126  1.0
    f441  r1593  1.0
    f442  OBJ  6.935198814097371
    f442  r115  1.0
    f442  r116  -1.0
    f442  r1594  1.0
    f443  OBJ  1.140233599419127
    f443  r115  -1.0
    f443  r116  1.0
    f443  r1595  1.0
    f444  OBJ  2.667798011767858
    f444  r115  1.0
    f444  r127  -1.0
    f444  r1596  1.0
    f445  OBJ  4.993681071225831
    f445  r115  -1.0
    f445  r127  1.0
    f445  r1597  1.0
    f446  OBJ  8.51136799825362
    f446  r116  1.0
    f446  r117  -1.0
    f446  r1598  1.0
    f447  OBJ  3.6987857321639197
    f447  r116  -1.0
    f447  r117  1.0
    f447  r1599  1.0
    f448  OBJ  9.300556541774627
    f448  r116  1.0
    f448  r128  -1.0
    f448  r1600  1.0
    f449  OBJ  9.475496473088528
    f449  r116  -1.0
    f449  r128  1.0
    f449  r1601  1.0
    f450  OBJ  7.7584063045366145
    f450  r117  1.0
    f450  r118  -1.0
    f450  r1602  1.0
    f451  OBJ  4.126292753714269
    f451  r117  -1.0
    f451  r118  1.0
    f451  r1603  1.0
    f452  OBJ  5.0828380217659666
    f452  r117  1.0
    f452  r129  -1.0
    f452  r1604  1.0
    f453  OBJ  9.7307357511208
    f453  r117  -1.0
    f453  r129  1.0
    f453  r1605  1.0
    f454  OBJ  6.106322066837172
    f454  r118  1.0
    f454  r119  -1.0
    f454  r1606  1.0
    f455  OBJ  6.3511769264331015
    f455  r118  -1.0
    f455  r119  1.0
    f455  r1607  1.0
    f456  OBJ  6.085853555964545
    f456  r118  1.0
    f456  r130  -1.0
    f456  r1608  1.0
    f457  OBJ  2.4188610871705665
    f457  r118  -1.0
    f457  r130  1.0
    f457  r1609  1.0
    f458  OBJ  9.924103008796113
    f458  r119  1.0
    f458  r131  -1.0
    f458  r1610  1.0
    f459  OBJ  6.3299777034315134
    f459  r119  -1.0
    f459  r131  1.0
    f459  r1611  1.0
    f460  OBJ  7.109020812874268
    f460  r120  1.0
    f460  r121  -1.0
    f460  r1612  1.0
    f461  OBJ  8.310746585559563
    f461  r120  -1.0
    f461  r121  1.0
    f461  r1613  1.0
    f462  OBJ  5.443692129422634
    f462  r120  1.0
    f462  r132  -1.0
    f462  r1614  1.0
    f463  OBJ  3.231987722633258
    f463  r120  -1.0
    f463  r132  1.0
    f463  r1615  1.0
    f464  OBJ  9.430566867020026
    f464  r121  1.0
    f464  r122  -1.0
    f464  r1616  1.0
    f465  OBJ  2.595050864337804
    f465  r121  -1.0
    f465  r122  1.0
    f465  r1617  1.0
    f466  OBJ  4.318987023072978
    f466  r121  1.0
    f466  r133  -1.0
    f466  r1618  1.0
    f467  OBJ  7.329669428774082
    f467  r121  -1.0
    f467  r133  1.0
    f467  r1619  1.0
    f468  OBJ  4.9836887656897915
    f468  r122  1.0
    f468  r123  -1.0
    f468  r1620  1.0
    f469  OBJ  6.352318630146749
    f469  r122  -1.0
    f469  r123  1.0
    f469  r1621  1.0
    f470  OBJ  2.99987842617096
    f470  r122  1.0
    f470  r134  -1.0
    f470  r1622  1.0
    f471  OBJ  8.620083490919386
    f471  r122  -1.0
    f471  r134  1.0
    f471  r1623  1.0
    f472  OBJ  8.771843830234175
    f472  r123  1.0
    f472  r124  -1.0
    f472  r1624  1.0
    f473  OBJ  4.955466875694067
    f473  r123  -1.0
    f473  r124  1.0
    f473  r1625  1.0
    f474  OBJ  9.247771892131468
    f474  r123  1.0
    f474  r135  -1.0
    f474  r1626  1.0
    f475  OBJ  8.81945506426993
    f475  r123  -1.0
    f475  r135  1.0
    f475  r1627  1.0
    f476  OBJ  6.830438423101554
    f476  r124  1.0
    f476  r125  -1.0
    f476  r1628  1.0
    f477  OBJ  3.051525755682319
    f477  r124  -1.0
    f477  r125  1.0
    f477  r1629  1.0
    f478  OBJ  1.2806710336649478
    f478  r124  1.0
    f478  r136  -1.0
    f478  r1630  1.0
    f479  OBJ  9.385515893642298
    f479  r124  -1.0
    f479  r136  1.0
    f479  r1631  1.0
    f480  OBJ  9.347005011305704
    f480  r125  1.0
    f480  r126  -1.0
    f480  r1632  1.0
    f481  OBJ  6.523754702624132
    f481  r125  -1.0
    f481  r126  1.0
    f481  r1633  1.0
    f482  OBJ  5.84234211010877
    f482  r125  1.0
    f482  r137  -1.0
    f482  r1634  1.0
    f483  OBJ  7.604297408003552
    f483  r125  -1.0
    f483  r137  1.0
    f483  r1635  1.0
    f484  OBJ  4.560010615077432
    f484  r126  1.0
    f484  r127  -1.0
    f484  r1636  1.0
    f485  OBJ  3.8763856694749403
    f485  r126  -1.0
    f485  r127  1.0
    f485  r1637  1.0
    f486  OBJ  4.127448896846589
    f486  r126  1.0
    f486  r138  -1.0
    f486  r1638  1.0
    f487  OBJ  4.125540637571846
    f487  r126  -1.0
    f487  r138  1.0
    f487  r1639  1.0
    f488  OBJ  5.870489008294482
    f488  r127  1.0
    f488  r128  -1.0
    f488  r1640  1.0
    f489  OBJ  1.1227156697234932
    f489  r127  -1.0
    f489  r128  1.0
    f489  r1641  1.0
    f490  OBJ  3.021900054708767
    f490  r127  1.0
    f490  r139  -1.0
    f490  r1642  1.0
    f491  OBJ  6.057863150573489
    f491  r127  -1.0
    f491  r139  1.0
    f491  r1643  1.0
    f492  OBJ  8.96832750186815
    f492  r128  1.0
    f492  r129  -1.0
    f492  r1644  1.0
    f493  OBJ  5.719635655221788
    f493  r128  -1.0
    f493  r129  1.0
    f493  r1645  1.0
    f494  OBJ  3.5255293439735524
    f494  r128  1.0
    f494  r140  -1.0
    f494  r1646  1.0
    f495  OBJ  9.48611550989987
    f495  r128  -1.0
    f495  r140  1.0
    f495  r1647  1.0
    f496  OBJ  8.695746371993316
    f496  r129  1.0
    f496  r130  -1.0
    f496  r1648  1.0
    f497  OBJ  3.418278390810974
    f497  r129  -1.0
    f497  r130  1.0
    f497  r1649  1.0
    f498  OBJ  9.934860761595974
    f498  r129  1.0
    f498  r141  -1.0
    f498  r1650  1.0
    f499  OBJ  7.258274874710123
    f499  r129  -1.0
    f499  r141  1.0
    f499  r1651  1.0
    f500  OBJ  3.3328534298199513
    f500  r130  1.0
    f500  r131  -1.0
    f500  r1652  1.0
    f501  OBJ  6.492333955930169
    f501  r130  -1.0
    f501  r131  1.0
    f501  r1653  1.0
    f502  OBJ  3.9443539764031295
    f502  r130  1.0
    f502  r142  -1.0
    f502  r1654  1.0
    f503  OBJ  9.315480371727524
    f503  r130  -1.0
    f503  r142  1.0
    f503  r1655  1.0
    f504  OBJ  6.528412566194859
    f504  r131  1.0
    f504  r143  -1.0
    f504  r1656  1.0
    f505  OBJ  1.4574915159359643
    f505  r131  -1.0
    f505  r143  1.0
    f505  r1657  1.0
    f506  OBJ  5.63981982753051
    f506  r132  1.0
    f506  r133  -1.0
    f506  r1658  1.0
    f507  OBJ  5.910777857561307
    f507  r132  -1.0
    f507  r133  1.0
    f507  r1659  1.0
    f508  OBJ  8.376216960334341
    f508  r133  1.0
    f508  r134  -1.0
    f508  r1660  1.0
    f509  OBJ  9.490699764840153
    f509  r133  -1.0
    f509  r134  1.0
    f509  r1661  1.0
    f510  OBJ  7.1149043862629755
    f510  r134  1.0
    f510  r135  -1.0
    f510  r1662  1.0
    f511  OBJ  6.221105241873805
    f511  r134  -1.0
    f511  r135  1.0
    f511  r1663  1.0
    f512  OBJ  5.784367932215563
    f512  r135  1.0
    f512  r136  -1.0
    f512  r1664  1.0
    f513  OBJ  2.5502291518798677
    f513  r135  -1.0
    f513  r136  1.0
    f513  r1665  1.0
    f514  OBJ  7.63824342000365
    f514  r136  1.0
    f514  r137  -1.0
    f514  r1666  1.0
    f515  OBJ  5.508061229245426
    f515  r136  -1.0
    f515  r137  1.0
    f515  r1667  1.0
    f516  OBJ  4.575305739515346
    f516  r137  1.0
    f516  r138  -1.0
    f516  r1668  1.0
    f517  OBJ  7.753010370046059
    f517  r137  -1.0
    f517  r138  1.0
    f517  r1669  1.0
    f518  OBJ  4.2151623050292955
    f518  r138  1.0
    f518  r139  -1.0
    f518  r1670  1.0
    f519  OBJ  7.337043397927561
    f519  r138  -1.0
    f519  r139  1.0
    f519  r1671  1.0
    f520  OBJ  3.937409412500358
    f520  r139  1.0
    f520  r140  -1.0
    f520  r1672  1.0
    f521  OBJ  2.7093259789121125
    f521  r139  -1.0
    f521  r140  1.0
    f521  r1673  1.0
    f522  OBJ  6.030144895898163
    f522  r140  1.0
    f522  r141  -1.0
    f522  r1674  1.0
    f523  OBJ  9.248603140452367
    f523  r140  -1.0
    f523  r141  1.0
    f523  r1675  1.0
    f524  OBJ  2.7012102773291957
    f524  r141  1.0
    f524  r142  -1.0
    f524  r1676  1.0
    f525  OBJ  2.3516175236739865
    f525  r141  -1.0
    f525  r142  1.0
    f525  r1677  1.0
    f526  OBJ  3.8723982737810747
    f526  r142  1.0
    f526  r143  -1.0
    f526  r1678  1.0
    f527  OBJ  8.735968157581555
    f527  r142  -1.0
    f527  r143  1.0
    f527  r1679  1.0
    f528  OBJ  5.843479163247489
    f528  r144  1.0
    f528  r145  -1.0
    f528  r1152  1.0
    f529  OBJ  4.089437828320046
    f529  r144  -1.0
    f529  r145  1.0
    f529  r1153  1.0
    f530  OBJ  4.3216051581584045
    f530  r144  1.0
    f530  r156  -1.0
    f530  r1154  1.0
    f531  OBJ  4.3704708902909415
    f531  r144  -1.0
    f531  r156  1.0
    f531  r1155  1.0
    f532  OBJ  9.887004911678199
    f532  r145  1.0
    f532  r146  -1.0
    f532  r1156  1.0
    f533  OBJ  6.694806453464315
    f533  r145  -1.0
    f533  r146  1.0
    f533  r1157  1.0
    f534  OBJ  7.068915374540442
    f534  r145  1.0
    f534  r157  -1.0
    f534  r1158  1.0
    f535  OBJ  3.9696710984691252
    f535  r145  -1.0
    f535  r157  1.0
    f535  r1159  1.0
    f536  OBJ  7.119258950476201
    f536  r146  1.0
    f536  r147  -1.0
    f536  r1160  1.0
    f537  OBJ  2.1067513739847104
    f537  r146  -1.0
    f537  r147  1.0
    f537  r1161  1.0
    f538  OBJ  1.465563087853977
    f538  r146  1.0
    f538  r158  -1.0
    f538  r1162  1.0
    f539  OBJ  8.651722121279082
    f539  r146  -1.0
    f539  r158  1.0
    f539  r1163  1.0
    f540  OBJ  1.080062249818912
    f540  r147  1.0
    f540  r148  -1.0
    f540  r1164  1.0
    f541  OBJ  9.80890805966767
    f541  r147  -1.0
    f541  r148  1.0
    f541  r1165  1.0
    f542  OBJ  8.443027232371483
    f542  r147  1.0
    f542  r159  -1.0
    f542  r1166  1.0
    f543  OBJ  8.066898633937342
    f543  r147  -1.0
    f543  r159  1.0
    f543  r1167  1.0
    f544  OBJ  1.4327513830229184
    f544  r148  1.0
    f544  r149  -1.0
    f544  r1168  1.0
    f545  OBJ  2.8669533958627724
    f545  r148  -1.0
    f545  r149  1.0
    f545  r1169  1.0
    f546  OBJ  8.648790679856907
    f546  r148  1.0
    f546  r160  -1.0
    f546  r1170  1.0
    f547  OBJ  4.892453304895277
    f547  r148  -1.0
    f547  r160  1.0
    f547  r1171  1.0
    f548  OBJ  6.647211403327665
    f548  r149  1.0
    f548  r150  -1.0
    f548  r1172  1.0
    f549  OBJ  2.1005415892986745
    f549  r149  -1.0
    f549  r150  1.0
    f549  r1173  1.0
    f550  OBJ  2.677026868100466
    f550  r149  1.0
    f550  r161  -1.0
    f550  r1174  1.0
    f551  OBJ  5.4754112146732625
    f551  r149  -1.0
    f551  r161  1.0
    f551  r1175  1.0
    f552  OBJ  7.835199191401016
    f552  r150  1.0
    f552  r151  -1.0
    f552  r1176  1.0
    f553  OBJ  5.858714839099925
    f553  r150  -1.0
    f553  r151  1.0
    f553  r1177  1.0
    f554  OBJ  1.9619207071213822
    f554  r150  1.0
    f554  r162  -1.0
    f554  r1178  1.0
    f555  OBJ  8.795674706633884
    f555  r150  -1.0
    f555  r162  1.0
    f555  r1179  1.0
    f556  OBJ  2.2569301861673416
    f556  r151  1.0
    f556  r152  -1.0
    f556  r1180  1.0
    f557  OBJ  4.956919817610607
    f557  r151  -1.0
    f557  r152  1.0
    f557  r1181  1.0
    f558  OBJ  6.281645261000175
    f558  r151  1.0
    f558  r163  -1.0
    f558  r1182  1.0
    f559  OBJ  3.8723455215676785
    f559  r151  -1.0
    f559  r163  1.0
    f559  r1183  1.0
    f560  OBJ  4.762487492955011
    f560  r152  1.0
    f560  r153  -1.0
    f560  r1184  1.0
    f561  OBJ  8.982680417439596
    f561  r152  -1.0
    f561  r153  1.0
    f561  r1185  1.0
    f562  OBJ  5.087221314275144
    f562  r152  1.0
    f562  r164  -1.0
    f562  r1186  1.0
    f563  OBJ  5.853224012546842
    f563  r152  -1.0
    f563  r164  1.0
    f563  r1187  1.0
    f564  OBJ  9.734402369267295
    f564  r153  1.0
    f564  r154  -1.0
    f564  r1188  1.0
    f565  OBJ  3.4838482279023597
    f565  r153  -1.0
    f565  r154  1.0
    f565  r1189  1.0
    f566  OBJ  9.05311169099006
    f566  r153  1.0
    f566  r165  -1.0
    f566  r1190  1.0
    f567  OBJ  4.2566996928588825
    f567  r153  -1.0
    f567  r165  1.0
    f567  r1191  1.0
    f568  OBJ  3.808369156683992
    f568  r154  1.0
    f568  r155  -1.0
    f568  r1192  1.0
    f569  OBJ  8.931602750040451
    f569  r154  -1.0
    f569  r155  1.0
    f569  r1193  1.0
    f570  OBJ  1.5894707335339273
    f570  r154  1.0
    f570  r166  -1.0
    f570  r1194  1.0
    f571  OBJ  8.799896097198229
    f571  r154  -1.0
    f571  r166  1.0
    f571  r1195  1.0
    f572  OBJ  8.449908565840481
    f572  r155  1.0
    f572  r167  -1.0
    f572  r1196  1.0
    f573  OBJ  9.05243356990497
    f573  r155  -1.0
    f573  r167  1.0
    f573  r1197  1.0
    f574  OBJ  1.5378154068686039
    f574  r156  1.0
    f574  r157  -1.0
    f574  r1198  1.0
    f575  OBJ  3.149250350989603
    f575  r156  -1.0
    f575  r157  1.0
    f575  r1199  1.0
    f576  OBJ  7.9763825368893055
    f576  r156  1.0
    f576  r168  -1.0
    f576  r1200  1.0
    f577  OBJ  4.931650790463847
    f577  r156  -1.0
    f577  r168  1.0
    f577  r1201  1.0
    f578  OBJ  1.0478184276486595
    f578  r157  1.0
    f578  r158  -1.0
    f578  r1202  1.0
    f579  OBJ  7.233576589265234
    f579  r157  -1.0
    f579  r158  1.0
    f579  r1203  1.0
    f580  OBJ  8.197927065695021
    f580  r157  1.0
    f580  r169  -1.0
    f580  r1204  1.0
    f581  OBJ  9.76262446210192
    f581  r157  -1.0
    f581  r169  1.0
    f581  r1205  1.0
    f582  OBJ  2.3559771646767214
    f582  r158  1.0
    f582  r159  -1.0
    f582  r1206  1.0
    f583  OBJ  3.2675947743516294
    f583  r158  -1.0
    f583  r159  1.0
    f583  r1207  1.0
    f584  OBJ  8.57224532832835
    f584  r158  1.0
    f584  r170  -1.0
    f584  r1208  1.0
    f585  OBJ  1.8262821126624695
    f585  r158  -1.0
    f585  r170  1.0
    f585  r1209  1.0
    f586  OBJ  3.4684351148653563
    f586  r159  1.0
    f586  r160  -1.0
    f586  r1210  1.0
    f587  OBJ  5.0658643600840545
    f587  r159  -1.0
    f587  r160  1.0
    f587  r1211  1.0
    f588  OBJ  4.765085478036262
    f588  r159  1.0
    f588  r171  -1.0
    f588  r1212  1.0
    f589  OBJ  5.884605364467616
    f589  r159  -1.0
    f589  r171  1.0
    f589  r1213  1.0
    f590  OBJ  8.81815836304687
    f590  r160  1.0
    f590  r161  -1.0
    f590  r1214  1.0
    f591  OBJ  6.681370181670063
    f591  r160  -1.0
    f591  r161  1.0
    f591  r1215  1.0
    f592  OBJ  6.886000713302363
    f592  r160  1.0
    f592  r172  -1.0
    f592  r1216  1.0
    f593  OBJ  6.329994115698163
    f593  r160  -1.0
    f593  r172  1.0
    f593  r1217  1.0
    f594  OBJ  2.89745780656496
    f594  r161  1.0
    f594  r162  -1.0
    f594  r1218  1.0
    f595  OBJ  5.0469319805790125
    f595  r161  -1.0
    f595  r162  1.0
    f595  r1219  1.0
    f596  OBJ  9.887845518427142
    f596  r161  1.0
    f596  r173  -1.0
    f596  r1220  1.0
    f597  OBJ  9.18307383604957
    f597  r161  -1.0
    f597  r173  1.0
    f597  r1221  1.0
    f598  OBJ  7.906999714511775
    f598  r162  1.0
    f598  r163  -1.0
    f598  r1222  1.0
    f599  OBJ  5.803134985573417
    f599  r162  -1.0
    f599  r163  1.0
    f599  r1223  1.0
    f600  OBJ  8.819791935718182
    f600  r162  1.0
    f600  r174  -1.0
    f600  r1224  1.0
    f601  OBJ  6.677942196100848
    f601  r162  -1.0
    f601  r174  1.0
    f601  r1225  1.0
    f602  OBJ  4.578123395103715
    f602  r163  1.0
    f602  r164  -1.0
    f602  r1226  1.0
    f603  OBJ  5.73687696795246
    f603  r163  -1.0
    f603  r164  1.0
    f603  r1227  1.0
    f604  OBJ  2.7872516802821625
    f604  r163  1.0
    f604  r175  -1.0
    f604  r1228  1.0
    f605  OBJ  6.155381271827194
    f605  r163  -1.0
    f605  r175  1.0
    f605  r1229  1.0
    f606  OBJ  3.8226207491633226
    f606  r164  1.0
    f606  r165  -1.0
    f606  r1230  1.0
    f607  OBJ  8.032593923327084
    f607  r164  -1.0
    f607  r165  1.0
    f607  r1231  1.0
    f608  OBJ  8.447683803834597
    f608  r164  1.0
    f608  r176  -1.0
    f608  r1232  1.0
    f609  OBJ  9.944166781185652
    f609  r164  -1.0
    f609  r176  1.0
    f609  r1233  1.0
    f610  OBJ  8.514758067385708
    f610  r165  1.0
    f610  r166  -1.0
    f610  r1234  1.0
    f611  OBJ  1.5333702487229801
    f611  r165  -1.0
    f611  r166  1.0
    f611  r1235  1.0
    f612  OBJ  7.518931095523543
    f612  r165  1.0
    f612  r177  -1.0
    f612  r1236  1.0
    f613  OBJ  8.27361552637164
    f613  r165  -1.0
    f613  r177  1.0
    f613  r1237  1.0
    f614  OBJ  8.850179988841164
    f614  r166  1.0
    f614  r167  -1.0
    f614  r1238  1.0
    f615  OBJ  5.425049455804184
    f615  r166  -1.0
    f615  r167  1.0
    f615  r1239  1.0
    f616  OBJ  5.283204492205081
    f616  r166  1.0
    f616  r178  -1.0
    f616  r1240  1.0
    f617  OBJ  5.777322522458589
    f617  r166  -1.0
    f617  r178  1.0
    f617  r1241  1.0
    f618  OBJ  2.3943995005292793
    f618  r167  1.0
    f618  r179  -1.0
    f618  r1242  1.0
    f619  OBJ  9.612598334079014
    f619  r167  -1.0
    f619  r179  1.0
    f619  r1243  1.0
    f620  OBJ  9.883038452562197
    f620  r168  1.0
    f620  r169  -1.0
    f620  r1244  1.0
    f621  OBJ  3.3668479442769903
    f621  r168  -1.0
    f621  r169  1.0
    f621  r1245  1.0
    f622  OBJ  9.616025266298925
    f622  r168  1.0
    f622  r180  -1.0
    f622  r1246  1.0
    f623  OBJ  2.8739629222224314
    f623  r168  -1.0
    f623  r180  1.0
    f623  r1247  1.0
    f624  OBJ  1.762693526837991
    f624  r169  1.0
    f624  r170  -1.0
    f624  r1248  1.0
    f625  OBJ  7.590067761304782
    f625  r169  -1.0
    f625  r170  1.0
    f625  r1249  1.0
    f626  OBJ  8.347655313259235
    f626  r169  1.0
    f626  r181  -1.0
    f626  r1250  1.0
    f627  OBJ  2.7975568257531913
    f627  r169  -1.0
    f627  r181  1.0
    f627  r1251  1.0
    f628  OBJ  9.583816133482737
    f628  r170  1.0
    f628  r171  -1.0
    f628  r1252  1.0
    f629  OBJ  4.597594046544144
    f629  r170  -1.0
    f629  r171  1.0
    f629  r1253  1.0
    f630  OBJ  2.672812870364235
    f630  r170  1.0
    f630  r182  -1.0
    f630  r1254  1.0
    f631  OBJ  3.705170203073723
    f631  r170  -1.0
    f631  r182  1.0
    f631  r1255  1.0
    f632  OBJ  2.0152999326320273
    f632  r171  1.0
    f632  r172  -1.0
    f632  r1256  1.0
    f633  OBJ  7.946388238006956
    f633  r171  -1.0
    f633  r172  1.0
    f633  r1257  1.0
    f634  OBJ  3.567815501244076
    f634  r171  1.0
    f634  r183  -1.0
    f634  r1258  1.0
    f635  OBJ  7.2396648493583475
    f635  r171  -1.0
    f635  r183  1.0
    f635  r1259  1.0
    f636  OBJ  5.148136829860446
    f636  r172  1.0
    f636  r173  -1.0
    f636  r1260  1.0
    f637  OBJ  2.1247572946633198
    f637  r172  -1.0
    f637  r173  1.0
    f637  r1261  1.0
    f638  OBJ  6.285209035118809
    f638  r172  1.0
    f638  r184  -1.0
    f638  r1262  1.0
    f639  OBJ  9.70457902276835
    f639  r172  -1.0
    f639  r184  1.0
    f639  r1263  1.0
    f640  OBJ  2.6638345376764683
    f640  r173  1.0
    f640  r174  -1.0
    f640  r1264  1.0
    f641  OBJ  9.663170978821231
    f641  r173  -1.0
    f641  r174  1.0
    f641  r1265  1.0
    f642  OBJ  2.062633599647878
    f642  r173  1.0
    f642  r185  -1.0
    f642  r1266  1.0
    f643  OBJ  6.187847879545351
    f643  r173  -1.0
    f643  r185  1.0
    f643  r1267  1.0
    f644  OBJ  2.562195711301708
    f644  r174  1.0
    f644  r175  -1.0
    f644  r1268  1.0
    f645  OBJ  9.963749442046902
    f645  r174  -1.0
    f645  r175  1.0
    f645  r1269  1.0
    f646  OBJ  5.948103521283666
    f646  r174  1.0
    f646  r186  -1.0
    f646  r1270  1.0
    f647  OBJ  8.84549741097349
    f647  r174  -1.0
    f647  r186  1.0
    f647  r1271  1.0
    f648  OBJ  7.367531877451553
    f648  r175  1.0
    f648  r176  -1.0
    f648  r1272  1.0
    f649  OBJ  5.0370586039786325
    f649  r175  -1.0
    f649  r176  1.0
    f649  r1273  1.0
    f650  OBJ  3.3365114494583135
    f650  r175  1.0
    f650  r187  -1.0
    f650  r1274  1.0
    f651  OBJ  8.848940341217338
    f651  r175  -1.0
    f651  r187  1.0
    f651  r1275  1.0
    f652  OBJ  8.967469784989184
    f652  r176  1.0
    f652  r177  -1.0
    f652  r1276  1.0
    f653  OBJ  8.056301029276604
    f653  r176  -1.0
    f653  r177  1.0
    f653  r1277  1.0
    f654  OBJ  8.261799444070519
    f654  r176  1.0
    f654  r188  -1.0
    f654  r1278  1.0
    f655  OBJ  1.3756333709345163
    f655  r176  -1.0
    f655  r188  1.0
    f655  r1279  1.0
    f656  OBJ  2.9712054557253227
    f656  r177  1.0
    f656  r178  -1.0
    f656  r1280  1.0
    f657  OBJ  5.990844544374253
    f657  r177  -1.0
    f657  r178  1.0
    f657  r1281  1.0
    f658  OBJ  1.7070566561872171
    f658  r177  1.0
    f658  r189  -1.0
    f658  r1282  1.0
    f659  OBJ  6.312234646179124
    f659  r177  -1.0
    f659  r189  1.0
    f659  r1283  1.0
    f660  OBJ  9.525295460899232
    f660  r178  1.0
    f660  r179  -1.0
    f660  r1284  1.0
    f661  OBJ  4.184128114500217
    f661  r178  -1.0
    f661  r179  1.0
    f661  r1285  1.0
    f662  OBJ  7.213383032669854
    f662  r178  1.0
    f662  r190  -1.0
    f662  r1286  1.0
    f663  OBJ  2.817068174308163
    f663  r178  -1.0
    f663  r190  1.0
    f663  r1287  1.0
    f664  OBJ  8.168247031162272
    f664  r179  1.0
    f664  r191  -1.0
    f664  r1288  1.0
    f665  OBJ  9.067977953848253
    f665  r179  -1.0
    f665  r191  1.0
    f665  r1289  1.0
    f666  OBJ  8.33711188653524
    f666  r180  1.0
    f666  r181  -1.0
    f666  r1290  1.0
    f667  OBJ  4.966699573658781
    f667  r180  -1.0
    f667  r181  1.0
    f667  r1291  1.0
    f668  OBJ  4.134208441347036
    f668  r180  1.0
    f668  r192  -1.0
    f668  r1292  1.0
    f669  OBJ  1.7537281635671031
    f669  r180  -1.0
    f669  r192  1.0
    f669  r1293  1.0
    f670  OBJ  8.63183269121383
    f670  r181  1.0
    f670  r182  -1.0
    f670  r1294  1.0
    f671  OBJ  9.134382435850736
    f671  r181  -1.0
    f671  r182  1.0
    f671  r1295  1.0
    f672  OBJ  6.026333765246144
    f672  r181  1.0
    f672  r193  -1.0
    f672  r1296  1.0
    f673  OBJ  7.877137223459138
    f673  r181  -1.0
    f673  r193  1.0
    f673  r1297  1.0
    f674  OBJ  3.051016504982827
    f674  r182  1.0
    f674  r183  -1.0
    f674  r1298  1.0
    f675  OBJ  7.803565893682319
    f675  r182  -1.0
    f675  r183  1.0
    f675  r1299  1.0
    f676  OBJ  3.2478880841995856
    f676  r182  1.0
    f676  r194  -1.0
    f676  r1300  1.0
    f677  OBJ  7.561582696471492
    f677  r182  -1.0
    f677  r194  1.0
    f677  r1301  1.0
    f678  OBJ  1.1077465912219826
    f678  r183  1.0
    f678  r184  -1.0
    f678  r1302  1.0
    f679  OBJ  4.462274498932999
    f679  r183  -1.0
    f679  r184  1.0
    f679  r1303  1.0
    f680  OBJ  3.143718312821855
    f680  r183  1.0
    f680  r195  -1.0
    f680  r1304  1.0
    f681  OBJ  1.3637892144637211
    f681  r183  -1.0
    f681  r195  1.0
    f681  r1305  1.0
    f682  OBJ  3.33536780497219
    f682  r184  1.0
    f682  r185  -1.0
    f682  r1306  1.0
    f683  OBJ  9.266985127160817
    f683  r184  -1.0
    f683  r185  1.0
    f683  r1307  1.0
    f684  OBJ  3.722854116303524
    f684  r184  1.0
    f684  r196  -1.0
    f684  r1308  1.0
    f685  OBJ  2.0478493989999245
    f685  r184  -1.0
    f685  r196  1.0
    f685  r1309  1.0
    f686  OBJ  7.001245287843152
    f686  r185  1.0
    f686  r186  -1.0
    f686  r1310  1.0
    f687  OBJ  7.9504753566883855
    f687  r185  -1.0
    f687  r186  1.0
    f687  r1311  1.0
    f688  OBJ  4.103119615708474
    f688  r185  1.0
    f688  r197  -1.0
    f688  r1312  1.0
    f689  OBJ  9.309033217289178
    f689  r185  -1.0
    f689  r197  1.0
    f689  r1313  1.0
    f690  OBJ  7.2741644884964956
    f690  r186  1.0
    f690  r187  -1.0
    f690  r1314  1.0
    f691  OBJ  5.837914239590002
    f691  r186  -1.0
    f691  r187  1.0
    f691  r1315  1.0
    f692  OBJ  9.069344515184543
    f692  r186  1.0
    f692  r198  -1.0
    f692  r1316  1.0
    f693  OBJ  8.28092182168296
    f693  r186  -1.0
    f693  r198  1.0
    f693  r1317  1.0
    f694  OBJ  6.438311445129069
    f694  r187  1.0
    f694  r188  -1.0
    f694  r1318  1.0
    f695  OBJ  3.2615425620963867
    f695  r187  -1.0
    f695  r188  1.0
    f695  r1319  1.0
    f696  OBJ  5.702488824101116
    f696  r187  1.0
    f696  r199  -1.0
    f696  r1320  1.0
    f697  OBJ  6.5851428786607675
    f697  r187  -1.0
    f697  r199  1.0
    f697  r1321  1.0
    f698  OBJ  9.071908100696
    f698  r188  1.0
    f698  r189  -1.0
    f698  r1322  1.0
    f699  OBJ  9.449913545414963
    f699  r188  -1.0
    f699  r189  1.0
    f699  r1323  1.0
    f700  OBJ  1.5526027546476011
    f700  r188  1.0
    f700  r200  -1.0
    f700  r1324  1.0
    f701  OBJ  5.740635528499118
    f701  r188  -1.0
    f701  r200  1.0
    f701  r1325  1.0
    f702  OBJ  9.43475860238855
    f702  r189  1.0
    f702  r190  -1.0
    f702  r1326  1.0
    f703  OBJ  4.879177272008489
    f703  r189  -1.0
    f703  r190  1.0
    f703  r1327  1.0
    f704  OBJ  7.784157847221835
    f704  r189  1.0
    f704  r201  -1.0
    f704  r1328  1.0
    f705  OBJ  3.067777991068951
    f705  r189  -1.0
    f705  r201  1.0
    f705  r1329  1.0
    f706  OBJ  8.840366234762376
    f706  r190  1.0
    f706  r191  -1.0
    f706  r1330  1.0
    f707  OBJ  2.569338415546724
    f707  r190  -1.0
    f707  r191  1.0
    f707  r1331  1.0
    f708  OBJ  3.3569594822839144
    f708  r190  1.0
    f708  r202  -1.0
    f708  r1332  1.0
    f709  OBJ  3.2123559621221753
    f709  r190  -1.0
    f709  r202  1.0
    f709  r1333  1.0
    f710  OBJ  2.2788823876101647
    f710  r191  1.0
    f710  r203  -1.0
    f710  r1334  1.0
    f711  OBJ  7.024989198482375
    f711  r191  -1.0
    f711  r203  1.0
    f711  r1335  1.0
    f712  OBJ  8.584841705834307
    f712  r192  1.0
    f712  r193  -1.0
    f712  r1336  1.0
    f713  OBJ  2.4180513221150917
    f713  r192  -1.0
    f713  r193  1.0
    f713  r1337  1.0
    f714  OBJ  2.7928105422408227
    f714  r192  1.0
    f714  r204  -1.0
    f714  r1338  1.0
    f715  OBJ  4.576467726391256
    f715  r192  -1.0
    f715  r204  1.0
    f715  r1339  1.0
    f716  OBJ  3.707947218147749
    f716  r193  1.0
    f716  r194  -1.0
    f716  r1340  1.0
    f717  OBJ  6.741770927053644
    f717  r193  -1.0
    f717  r194  1.0
    f717  r1341  1.0
    f718  OBJ  2.053531136352788
    f718  r193  1.0
    f718  r205  -1.0
    f718  r1342  1.0
    f719  OBJ  6.243616247545115
    f719  r193  -1.0
    f719  r205  1.0
    f719  r1343  1.0
    f720  OBJ  5.533037581812857
    f720  r194  1.0
    f720  r195  -1.0
    f720  r1344  1.0
    f721  OBJ  2.057070778845458
    f721  r194  -1.0
    f721  r195  1.0
    f721  r1345  1.0
    f722  OBJ  5.03319964067469
    f722  r194  1.0
    f722  r206  -1.0
    f722  r1346  1.0
    f723  OBJ  4.372981205688504
    f723  r194  -1.0
    f723  r206  1.0
    f723  r1347  1.0
    f724  OBJ  1.6071602069885822
    f724  r195  1.0
    f724  r196  -1.0
    f724  r1348  1.0
    f725  OBJ  3.932915843468632
    f725  r195  -1.0
    f725  r196  1.0
    f725  r1349  1.0
    f726  OBJ  6.784274421345183
    f726  r195  1.0
    f726  r207  -1.0
    f726  r1350  1.0
    f727  OBJ  8.87767040252694
    f727  r195  -1.0
    f727  r207  1.0
    f727  r1351  1.0
    f728  OBJ  9.57364570157721
    f728  r196  1.0
    f728  r197  -1.0
    f728  r1352  1.0
    f729  OBJ  7.629171914559498
    f729  r196  -1.0
    f729  r197  1.0
    f729  r1353  1.0
    f730  OBJ  4.673521736950686
    f730  r196  1.0
    f730  r208  -1.0
    f730  r1354  1.0
    f731  OBJ  2.3395263729787823
    f731  r196  -1.0
    f731  r208  1.0
    f731  r1355  1.0
    f732  OBJ  7.148071082372267
    f732  r197  1.0
    f732  r198  -1.0
    f732  r1356  1.0
    f733  OBJ  6.157914246676193
    f733  r197  -1.0
    f733  r198  1.0
    f733  r1357  1.0
    f734  OBJ  8.750560649496279
    f734  r197  1.0
    f734  r209  -1.0
    f734  r1358  1.0
    f735  OBJ  3.3051466646524137
    f735  r197  -1.0
    f735  r209  1.0
    f735  r1359  1.0
    f736  OBJ  6.912073358897169
    f736  r198  1.0
    f736  r199  -1.0
    f736  r1360  1.0
    f737  OBJ  1.8413904953890992
    f737  r198  -1.0
    f737  r199  1.0
    f737  r1361  1.0
    f738  OBJ  3.7859444762361294
    f738  r198  1.0
    f738  r210  -1.0
    f738  r1362  1.0
    f739  OBJ  4.880219335322179
    f739  r198  -1.0
    f739  r210  1.0
    f739  r1363  1.0
    f740  OBJ  8.248199274184902
    f740  r199  1.0
    f740  r200  -1.0
    f740  r1364  1.0
    f741  OBJ  4.129360889985302
    f741  r199  -1.0
    f741  r200  1.0
    f741  r1365  1.0
    f742  OBJ  6.570008312930026
    f742  r199  1.0
    f742  r211  -1.0
    f742  r1366  1.0
    f743  OBJ  9.874236205574777
    f743  r199  -1.0
    f743  r211  1.0
    f743  r1367  1.0
    f744  OBJ  9.51646875545354
    f744  r200  1.0
    f744  r201  -1.0
    f744  r1368  1.0
    f745  OBJ  5.298509275495396
    f745  r200  -1.0
    f745  r201  1.0
    f745  r1369  1.0
    f746  OBJ  2.8837232785759013
    f746  r200  1.0
    f746  r212  -1.0
    f746  r1370  1.0
    f747  OBJ  6.539390050808525
    f747  r200  -1.0
    f747  r212  1.0
    f747  r1371  1.0
    f748  OBJ  8.141807889146136
    f748  r201  1.0
    f748  r202  -1.0
    f748  r1372  1.0
    f749  OBJ  6.344872540246349
    f749  r201  -1.0
    f749  r202  1.0
    f749  r1373  1.0
    f750  OBJ  7.7292342535858936
    f750  r201  1.0
    f750  r213  -1.0
    f750  r1374  1.0
    f751  OBJ  2.919929548367037
    f751  r201  -1.0
    f751  r213  1.0
    f751  r1375  1.0
    f752  OBJ  3.5722688038057053
    f752  r202  1.0
    f752  r203  -1.0
    f752  r1376  1.0
    f753  OBJ  2.4058364065093754
    f753  r202  -1.0
    f753  r203  1.0
    f753  r1377  1.0
    f754  OBJ  1.5181313304897963
    f754  r202  1.0
    f754  r214  -1.0
    f754  r1378  1.0
    f755  OBJ  5.14441361017963
    f755  r202  -1.0
    f755  r214  1.0
    f755  r1379  1.0
    f756  OBJ  7.958578806368944
    f756  r203  1.0
    f756  r215  -1.0
    f756  r1380  1.0
    f757  OBJ  4.369669474409982
    f757  r203  -1.0
    f757  r215  1.0
    f757  r1381  1.0
    f758  OBJ  9.578268517437737
    f758  r204  1.0
    f758  r205  -1.0
    f758  r1382  1.0
    f759  OBJ  4.162536277129916
    f759  r204  -1.0
    f759  r205  1.0
    f759  r1383  1.0
    f760  OBJ  4.426687129543275
    f760  r204  1.0
    f760  r216  -1.0
    f760  r1384  1.0
    f761  OBJ  8.671251806248794
    f761  r204  -1.0
    f761  r216  1.0
    f761  r1385  1.0
    f762  OBJ  6.942519417241746
    f762  r205  1.0
    f762  r206  -1.0
    f762  r1386  1.0
    f763  OBJ  5.8091713864273
    f763  r205  -1.0
    f763  r206  1.0
    f763  r1387  1.0
    f764  OBJ  3.1250306131869907
    f764  r205  1.0
    f764  r217  -1.0
    f764  r1388  1.0
    f765  OBJ  1.7881153042109728
    f765  r205  -1.0
    f765  r217  1.0
    f765  r1389  1.0
    f766  OBJ  2.4738175169074745
    f766  r206  1.0
    f766  r207  -1.0
    f766  r1390  1.0
    f767  OBJ  2.4884050604864716
    f767  r206  -1.0
    f767  r207  1.0
    f767  r1391  1.0
    f768  OBJ  4.770114184150721
    f768  r206  1.0
    f768  r218  -1.0
    f768  r1392  1.0
    f769  OBJ  3.9764102922479694
    f769  r206  -1.0
    f769  r218  1.0
    f769  r1393  1.0
    f770  OBJ  5.924309803353416
    f770  r207  1.0
    f770  r208  -1.0
    f770  r1394  1.0
    f771  OBJ  3.3385493242589894
    f771  r207  -1.0
    f771  r208  1.0
    f771  r1395  1.0
    f772  OBJ  7.144749280430248
    f772  r207  1.0
    f772  r219  -1.0
    f772  r1396  1.0
    f773  OBJ  9.515200012995304
    f773  r207  -1.0
    f773  r219  1.0
    f773  r1397  1.0
    f774  OBJ  8.36033005720306
    f774  r208  1.0
    f774  r209  -1.0
    f774  r1398  1.0
    f775  OBJ  6.18865062078726
    f775  r208  -1.0
    f775  r209  1.0
    f775  r1399  1.0
    f776  OBJ  3.3278283690821286
    f776  r208  1.0
    f776  r220  -1.0
    f776  r1400  1.0
    f777  OBJ  8.118879965779355
    f777  r208  -1.0
    f777  r220  1.0
    f777  r1401  1.0
    f778  OBJ  8.525642503999077
    f778  r209  1.0
    f778  r210  -1.0
    f778  r1402  1.0
    f779  OBJ  1.8471927545361946
    f779  r209  -1.0
    f779  r210  1.0
    f779  r1403  1.0
    f780  OBJ  8.617861454104808
    f780  r209  1.0
    f780  r221  -1.0
    f780  r1404  1.0
    f781  OBJ  9.28184385663278
    f781  r209  -1.0
    f781  r221  1.0
    f781  r1405  1.0
    f782  OBJ  2.8218006430295373
    f782  r210  1.0
    f782  r211  -1.0
    f782  r1406  1.0
    f783  OBJ  2.651246163103225
    f783  r210  -1.0
    f783  r211  1.0
    f783  r1407  1.0
    f784  OBJ  7.5372506585615735
    f784  r210  1.0
    f784  r222  -1.0
    f784  r1408  1.0
    f785  OBJ  5.323717629241309
    f785  r210  -1.0
    f785  r222  1.0
    f785  r1409  1.0
    f786  OBJ  1.6656547324045405
    f786  r211  1.0
    f786  r212  -1.0
    f786  r1410  1.0
    f787  OBJ  6.520511657077648
    f787  r211  -1.0
    f787  r212  1.0
    f787  r1411  1.0
    f788  OBJ  8.462742992442585
    f788  r211  1.0
    f788  r223  -1.0
    f788  r1412  1.0
    f789  OBJ  7.562753261045978
    f789  r211  -1.0
    f789  r223  1.0
    f789  r1413  1.0
    f790  OBJ  1.4579849945343457
    f790  r212  1.0
    f790  r213  -1.0
    f790  r1414  1.0
    f791  OBJ  1.3840722864476893
    f791  r212  -1.0
    f791  r213  1.0
    f791  r1415  1.0
    f792  OBJ  5.6617811913676315
    f792  r212  1.0
    f792  r224  -1.0
    f792  r1416  1.0
    f793  OBJ  6.919498005080287
    f793  r212  -1.0
    f793  r224  1.0
    f793  r1417  1.0
    f794  OBJ  9.285794023306087
    f794  r213  1.0
    f794  r214  -1.0
    f794  r1418  1.0
    f795  OBJ  7.3993322363938745
    f795  r213  -1.0
    f795  r214  1.0
    f795  r1419  1.0
    f796  OBJ  7.101977977434503
    f796  r213  1.0
    f796  r225  -1.0
    f796  r1420  1.0
    f797  OBJ  8.876980031369033
    f797  r213  -1.0
    f797  r225  1.0
    f797  r1421  1.0
    f798  OBJ  4.66136303553649
    f798  r214  1.0
    f798  r215  -1.0
    f798  r1422  1.0
    f799  OBJ  2.547443857546328
    f799  r214  -1.0
    f799  r215  1.0
    f799  r1423  1.0
    f800  OBJ  2.0348893291575196
    f800  r214  1.0
    f800  r226  -1.0
    f800  r1424  1.0
    f801  OBJ  4.213952179581336
    f801  r214  -1.0
    f801  r226  1.0
    f801  r1425  1.0
    f802  OBJ  8.779879443746765
    f802  r215  1.0
    f802  r227  -1.0
    f802  r1426  1.0
    f803  OBJ  5.940792123148839
    f803  r215  -1.0
    f803  r227  1.0
    f803  r1427  1.0
    f804  OBJ  1.3920125076769931
    f804  r216  1.0
    f804  r217  -1.0
    f804  r1428  1.0
    f805  OBJ  9.163801058965287
    f805  r216  -1.0
    f805  r217  1.0
    f805  r1429  1.0
    f806  OBJ  8.413501768673024
    f806  r216  1.0
    f806  r228  -1.0
    f806  r1430  1.0
    f807  OBJ  1.5022974905585167
    f807  r216  -1.0
    f807  r228  1.0
    f807  r1431  1.0
    f808  OBJ  8.073763821337996
    f808  r217  1.0
    f808  r218  -1.0
    f808  r1432  1.0
    f809  OBJ  2.641997978893971
    f809  r217  -1.0
    f809  r218  1.0
    f809  r1433  1.0
    f810  OBJ  1.4524969311091085
    f810  r217  1.0
    f810  r229  -1.0
    f810  r1434  1.0
    f811  OBJ  4.560439970223803
    f811  r217  -1.0
    f811  r229  1.0
    f811  r1435  1.0
    f812  OBJ  7.349986377101174
    f812  r218  1.0
    f812  r219  -1.0
    f812  r1436  1.0
    f813  OBJ  3.4211263859867955
    f813  r218  -1.0
    f813  r219  1.0
    f813  r1437  1.0
    f814  OBJ  4.886653339206574
    f814  r218  1.0
    f814  r230  -1.0
    f814  r1438  1.0
    f815  OBJ  8.553204349239795
    f815  r218  -1.0
    f815  r230  1.0
    f815  r1439  1.0
    f816  OBJ  2.0931257120590527
    f816  r219  1.0
    f816  r220  -1.0
    f816  r1440  1.0
    f817  OBJ  6.764007836463744
    f817  r219  -1.0
    f817  r220  1.0
    f817  r1441  1.0
    f818  OBJ  3.8351177230513684
    f818  r219  1.0
    f818  r231  -1.0
    f818  r1442  1.0
    f819  OBJ  1.553625881370926
    f819  r219  -1.0
    f819  r231  1.0
    f819  r1443  1.0
    f820  OBJ  7.872044218655729
    f820  r220  1.0
    f820  r221  -1.0
    f820  r1444  1.0
    f821  OBJ  7.06928082643932
    f821  r220  -1.0
    f821  r221  1.0
    f821  r1445  1.0
    f822  OBJ  5.150207075823104
    f822  r220  1.0
    f822  r232  -1.0
    f822  r1446  1.0
    f823  OBJ  5.202706668736231
    f823  r220  -1.0
    f823  r232  1.0
    f823  r1447  1.0
    f824  OBJ  4.495388412323753
    f824  r221  1.0
    f824  r222  -1.0
    f824  r1448  1.0
    f825  OBJ  7.119590207632811
    f825  r221  -1.0
    f825  r222  1.0
    f825  r1449  1.0
    f826  OBJ  1.0846305661855613
    f826  r221  1.0
    f826  r233  -1.0
    f826  r1450  1.0
    f827  OBJ  1.9779784306069956
    f827  r221  -1.0
    f827  r233  1.0
    f827  r1451  1.0
    f828  OBJ  1.7656223383448246
    f828  r222  1.0
    f828  r223  -1.0
    f828  r1452  1.0
    f829  OBJ  1.9757356636276593
    f829  r222  -1.0
    f829  r223  1.0
    f829  r1453  1.0
    f830  OBJ  5.984399077982553
    f830  r222  1.0
    f830  r234  -1.0
    f830  r1454  1.0
    f831  OBJ  4.751953812845244
    f831  r222  -1.0
    f831  r234  1.0
    f831  r1455  1.0
    f832  OBJ  6.911526938116024
    f832  r223  1.0
    f832  r224  -1.0
    f832  r1456  1.0
    f833  OBJ  5.701495629352302
    f833  r223  -1.0
    f833  r224  1.0
    f833  r1457  1.0
    f834  OBJ  8.044580428570983
    f834  r223  1.0
    f834  r235  -1.0
    f834  r1458  1.0
    f835  OBJ  7.324669472023794
    f835  r223  -1.0
    f835  r235  1.0
    f835  r1459  1.0
    f836  OBJ  1.314066547938094
    f836  r224  1.0
    f836  r225  -1.0
    f836  r1460  1.0
    f837  OBJ  1.7861996272793332
    f837  r224  -1.0
    f837  r225  1.0
    f837  r1461  1.0
    f838  OBJ  6.983858312706064
    f838  r224  1.0
    f838  r236  -1.0
    f838  r1462  1.0
    f839  OBJ  8.675731147502312
    f839  r224  -1.0
    f839  r236  1.0
    f839  r1463  1.0
    f840  OBJ  8.427046161750996
    f840  r225  1.0
    f840  r226  -1.0
    f840  r1464  1.0
    f841  OBJ  1.8228964051985819
    f841  r225  -1.0
    f841  r226  1.0
    f841  r1465  1.0
    f842  OBJ  6.409233468018879
    f842  r225  1.0
    f842  r237  -1.0
    f842  r1466  1.0
    f843  OBJ  2.3497677657611447
    f843  r225  -1.0
    f843  r237  1.0
    f843  r1467  1.0
    f844  OBJ  3.7086207054581948
    f844  r226  1.0
    f844  r227  -1.0
    f844  r1468  1.0
    f845  OBJ  8.65715624722977
    f845  r226  -1.0
    f845  r227  1.0
    f845  r1469  1.0
    f846  OBJ  6.595096110933911
    f846  r226  1.0
    f846  r238  -1.0
    f846  r1470  1.0
    f847  OBJ  8.537672872213488
    f847  r226  -1.0
    f847  r238  1.0
    f847  r1471  1.0
    f848  OBJ  6.4434897279176155
    f848  r227  1.0
    f848  r239  -1.0
    f848  r1472  1.0
    f849  OBJ  9.13032417858997
    f849  r227  -1.0
    f849  r239  1.0
    f849  r1473  1.0
    f850  OBJ  3.4661275108262677
    f850  r228  1.0
    f850  r229  -1.0
    f850  r1474  1.0
    f851  OBJ  5.314808375552716
    f851  r228  -1.0
    f851  r229  1.0
    f851  r1475  1.0
    f852  OBJ  9.415650543340698
    f852  r228  1.0
    f852  r240  -1.0
    f852  r1476  1.0
    f853  OBJ  7.876608463745178
    f853  r228  -1.0
    f853  r240  1.0
    f853  r1477  1.0
    f854  OBJ  1.4555185085717608
    f854  r229  1.0
    f854  r230  -1.0
    f854  r1478  1.0
    f855  OBJ  2.8941717934539652
    f855  r229  -1.0
    f855  r230  1.0
    f855  r1479  1.0
    f856  OBJ  4.342485411336144
    f856  r229  1.0
    f856  r241  -1.0
    f856  r1480  1.0
    f857  OBJ  6.743615544985133
    f857  r229  -1.0
    f857  r241  1.0
    f857  r1481  1.0
    f858  OBJ  3.61203237863454
    f858  r230  1.0
    f858  r231  -1.0
    f858  r1482  1.0
    f859  OBJ  8.55096368863703
    f859  r230  -1.0
    f859  r231  1.0
    f859  r1483  1.0
    f860  OBJ  8.27410362430896
    f860  r230  1.0
    f860  r242  -1.0
    f860  r1484  1.0
    f861  OBJ  4.760315867692679
    f861  r230  -1.0
    f861  r242  1.0
    f861  r1485  1.0
    f862  OBJ  3.271951507739692
    f862  r231  1.0
    f862  r232  -1.0
    f862  r1486  1.0
    f863  OBJ  3.1289069487998327
    f863  r231  -1.0
    f863  r232  1.0
    f863  r1487  1.0
    f864  OBJ  3.0383411253968777
    f864  r231  1.0
    f864  r243  -1.0
    f864  r1488  1.0
    f865  OBJ  5.480200952044394
    f865  r231  -1.0
    f865  r243  1.0
    f865  r1489  1.0
    f866  OBJ  5.89233280359704
    f866  r232  1.0
    f866  r233  -1.0
    f866  r1490  1.0
    f867  OBJ  9.034834307474533
    f867  r232  -1.0
    f867  r233  1.0
    f867  r1491  1.0
    f868  OBJ  5.48019352885476
    f868  r232  1.0
    f868  r244  -1.0
    f868  r1492  1.0
    f869  OBJ  6.063511377019814
    f869  r232  -1.0
    f869  r244  1.0
    f869  r1493  1.0
    f870  OBJ  3.056570100539143
    f870  r233  1.0
    f870  r234  -1.0
    f870  r1494  1.0
    f871  OBJ  9.839114102074996
    f871  r233  -1.0
    f871  r234  1.0
    f871  r1495  1.0
    f872  OBJ  5.288831991624837
    f872  r233  1.0
    f872  r245  -1.0
    f872  r1496  1.0
    f873  OBJ  2.3618639776040853
    f873  r233  -1.0
    f873  r245  1.0
    f873  r1497  1.0
    f874  OBJ  3.6106988058510683
    f874  r234  1.0
    f874  r235  -1.0
    f874  r1498  1.0
    f875  OBJ  7.580321328506547
    f875  r234  -1.0
    f875  r235  1.0
    f875  r1499  1.0
    f876  OBJ  3.4236954706385108
    f876  r234  1.0
    f876  r246  -1.0
    f876  r1500  1.0
    f877  OBJ  9.935351400755525
    f877  r234  -1.0
    f877  r246  1.0
    f877  r1501  1.0
    f878  OBJ  6.0414245812900464
    f878  r235  1.0
    f878  r236  -1.0
    f878  r1502  1.0
    f879  OBJ  8.128246327252945
    f879  r235  -1.0
    f879  r236  1.0
    f879  r1503  1.0
    f880  OBJ  6.405207842179179
    f880  r235  1.0
    f880  r247  -1.0
    f880  r1504  1.0
    f881  OBJ  7.175588659685827
    f881  r235  -1.0
    f881  r247  1.0
    f881  r1505  1.0
    f882  OBJ  4.55280268396465
    f882  r236  1.0
    f882  r237  -1.0
    f882  r1506  1.0
    f883  OBJ  8.284176006510918
    f883  r236  -1.0
    f883  r237  1.0
    f883  r1507  1.0
    f884  OBJ  8.258425480846048
    f884  r236  1.0
    f884  r248  -1.0
    f884  r1508  1.0
    f885  OBJ  8.243636724075234
    f885  r236  -1.0
    f885  r248  1.0
    f885  r1509  1.0
    f886  OBJ  6.657537466663689
    f886  r237  1.0
    f886  r238  -1.0
    f886  r1510  1.0
    f887  OBJ  8.164781925273541
    f887  r237  -1.0
    f887  r238  1.0
    f887  r1511  1.0
    f888  OBJ  8.20681290475072
    f888  r237  1.0
    f888  r249  -1.0
    f888  r1512  1.0
    f889  OBJ  3.094638847430028
    f889  r237  -1.0
    f889  r249  1.0
    f889  r1513  1.0
    f890  OBJ  1.4217384987424868
    f890  r238  1.0
    f890  r239  -1.0
    f890  r1514  1.0
    f891  OBJ  9.287341261502519
    f891  r238  -1.0
    f891  r239  1.0
    f891  r1515  1.0
    f892  OBJ  4.510003809796323
    f892  r238  1.0
    f892  r250  -1.0
    f892  r1516  1.0
    f893  OBJ  1.689584135205687
    f893  r238  -1.0
    f893  r250  1.0
    f893  r1517  1.0
    f894  OBJ  8.829369194969871
    f894  r239  1.0
    f894  r251  -1.0
    f894  r1518  1.0
    f895  OBJ  8.579225926976626
    f895  r239  -1.0
    f895  r251  1.0
    f895  r1519  1.0
    f896  OBJ  6.515070056482823
    f896  r240  1.0
    f896  r241  -1.0
    f896  r1520  1.0
    f897  OBJ  1.9333861611603584
    f897  r240  -1.0
    f897  r241  1.0
    f897  r1521  1.0
    f898  OBJ  8.821126256390787
    f898  r240  1.0
    f898  r252  -1.0
    f898  r1522  1.0
    f899  OBJ  5.380010869548395
    f899  r240  -1.0
    f899  r252  1.0
    f899  r1523  1.0
    f900  OBJ  1.79435476258808
    f900  r241  1.0
    f900  r242  -1.0
    f900  r1524  1.0
    f901  OBJ  2.5881345830087987
    f901  r241  -1.0
    f901  r242  1.0
    f901  r1525  1.0
    f902  OBJ  2.2709020232246275
    f902  r241  1.0
    f902  r253  -1.0
    f902  r1526  1.0
    f903  OBJ  8.817342286568334
    f903  r241  -1.0
    f903  r253  1.0
    f903  r1527  1.0
    f904  OBJ  8.986263428543289
    f904  r242  1.0
    f904  r243  -1.0
    f904  r1528  1.0
    f905  OBJ  9.38185667015476
    f905  r242  -1.0
    f905  r243  1.0
    f905  r1529  1.0
    f906  OBJ  3.9106694183611115
    f906  r242  1.0
    f906  r254  -1.0
    f906  r1530  1.0
    f907  OBJ  6.2581326213504145
    f907  r242  -1.0
    f907  r254  1.0
    f907  r1531  1.0
    f908  OBJ  6.5413224246684765
    f908  r243  1.0
    f908  r244  -1.0
    f908  r1532  1.0
    f909  OBJ  4.24723656890971
    f909  r243  -1.0
    f909  r244  1.0
    f909  r1533  1.0
    f910  OBJ  1.1530270433944918
    f910  r243  1.0
    f910  r255  -1.0
    f910  r1534  1.0
    f911  OBJ  1.5456931069157984
    f911  r243  -1.0
    f911  r255  1.0
    f911  r1535  1.0
    f912  OBJ  1.7241574018463028
    f912  r244  1.0
    f912  r245  -1.0
    f912  r1536  1.0
    f913  OBJ  5.060393063505103
    f913  r244  -1.0
    f913  r245  1.0
    f913  r1537  1.0
    f914  OBJ  4.717674001218046
    f914  r244  1.0
    f914  r256  -1.0
    f914  r1538  1.0
    f915  OBJ  1.247230558457763
    f915  r244  -1.0
    f915  r256  1.0
    f915  r1539  1.0
    f916  OBJ  1.54764450308056
    f916  r245  1.0
    f916  r246  -1.0
    f916  r1540  1.0
    f917  OBJ  4.436901121272687
    f917  r245  -1.0
    f917  r246  1.0
    f917  r1541  1.0
    f918  OBJ  6.816823571619188
    f918  r245  1.0
    f918  r257  -1.0
    f918  r1542  1.0
    f919  OBJ  5.525496290785183
    f919  r245  -1.0
    f919  r257  1.0
    f919  r1543  1.0
    f920  OBJ  7.7892030889215045
    f920  r246  1.0
    f920  r247  -1.0
    f920  r1544  1.0
    f921  OBJ  6.021613449681658
    f921  r246  -1.0
    f921  r247  1.0
    f921  r1545  1.0
    f922  OBJ  1.7925975732094421
    f922  r246  1.0
    f922  r258  -1.0
    f922  r1546  1.0
    f923  OBJ  1.9605881002043333
    f923  r246  -1.0
    f923  r258  1.0
    f923  r1547  1.0
    f924  OBJ  4.214847872386429
    f924  r247  1.0
    f924  r248  -1.0
    f924  r1548  1.0
    f925  OBJ  6.4358061135036415
    f925  r247  -1.0
    f925  r248  1.0
    f925  r1549  1.0
    f926  OBJ  8.791756014834748
    f926  r247  1.0
    f926  r259  -1.0
    f926  r1550  1.0
    f927  OBJ  8.906412266607497
    f927  r247  -1.0
    f927  r259  1.0
    f927  r1551  1.0
    f928  OBJ  9.642936026015834
    f928  r248  1.0
    f928  r249  -1.0
    f928  r1552  1.0
    f929  OBJ  8.74458457431033
    f929  r248  -1.0
    f929  r249  1.0
    f929  r1553  1.0
    f930  OBJ  4.632826881809093
    f930  r248  1.0
    f930  r260  -1.0
    f930  r1554  1.0
    f931  OBJ  6.036208381774288
    f931  r248  -1.0
    f931  r260  1.0
    f931  r1555  1.0
    f932  OBJ  1.5445529663505415
    f932  r249  1.0
    f932  r250  -1.0
    f932  r1556  1.0
    f933  OBJ  9.46800502409497
    f933  r249  -1.0
    f933  r250  1.0
    f933  r1557  1.0
    f934  OBJ  6.293069097224333
    f934  r249  1.0
    f934  r261  -1.0
    f934  r1558  1.0
    f935  OBJ  1.392109310130999
    f935  r249  -1.0
    f935  r261  1.0
    f935  r1559  1.0
    f936  OBJ  8.98243592093765
    f936  r250  1.0
    f936  r251  -1.0
    f936  r1560  1.0
    f937  OBJ  7.457874392090199
    f937  r250  -1.0
    f937  r251  1.0
    f937  r1561  1.0
    f938  OBJ  9.86636593405365
    f938  r250  1.0
    f938  r262  -1.0
    f938  r1562  1.0
    f939  OBJ  1.884113845238686
    f939  r250  -1.0
    f939  r262  1.0
    f939  r1563  1.0
    f940  OBJ  4.817695723273715
    f940  r251  1.0
    f940  r263  -1.0
    f940  r1564  1.0
    f941  OBJ  1.9663286839312208
    f941  r251  -1.0
    f941  r263  1.0
    f941  r1565  1.0
    f942  OBJ  9.466546608877756
    f942  r252  1.0
    f942  r253  -1.0
    f942  r1566  1.0
    f943  OBJ  2.35517321804957
    f943  r252  -1.0
    f943  r253  1.0
    f943  r1567  1.0
    f944  OBJ  7.463676282084244
    f944  r252  1.0
    f944  r264  -1.0
    f944  r1568  1.0
    f945  OBJ  7.092173550062428
    f945  r252  -1.0
    f945  r264  1.0
    f945  r1569  1.0
    f946  OBJ  6.419758665712502
    f946  r253  1.0
    f946  r254  -1.0
    f946  r1570  1.0
    f947  OBJ  5.28633868688531
    f947  r253  -1.0
    f947  r254  1.0
    f947  r1571  1.0
    f948  OBJ  4.866007560405688
    f948  r253  1.0
    f948  r265  -1.0
    f948  r1572  1.0
    f949  OBJ  8.167183958198226
    f949  r253  -1.0
    f949  r265  1.0
    f949  r1573  1.0
    f950  OBJ  6.429584491675617
    f950  r254  1.0
    f950  r255  -1.0
    f950  r1574  1.0
    f951  OBJ  4.055450924783071
    f951  r254  -1.0
    f951  r255  1.0
    f951  r1575  1.0
    f952  OBJ  7.581300347906965
    f952  r254  1.0
    f952  r266  -1.0
    f952  r1576  1.0
    f953  OBJ  7.0298196315608354
    f953  r254  -1.0
    f953  r266  1.0
    f953  r1577  1.0
    f954  OBJ  4.957681743166404
    f954  r255  1.0
    f954  r256  -1.0
    f954  r1578  1.0
    f955  OBJ  7.318285653973427
    f955  r255  -1.0
    f955  r256  1.0
    f955  r1579  1.0
    f956  OBJ  2.4897868945411625
    f956  r255  1.0
    f956  r267  -1.0
    f956  r1580  1.0
    f957  OBJ  4.850063341307448
    f957  r255  -1.0
    f957  r267  1.0
    f957  r1581  1.0
    f958  OBJ  8.033896025571028
    f958  r256  1.0
    f958  r257  -1.0
    f958  r1582  1.0
    f959  OBJ  8.097860416424329
    f959  r256  -1.0
    f959  r257  1.0
    f959  r1583  1.0
    f960  OBJ  7.774866557965757
    f960  r256  1.0
    f960  r268  -1.0
    f960  r1584  1.0
    f961  OBJ  9.98372389208314
    f961  r256  -1.0
    f961  r268  1.0
    f961  r1585  1.0
    f962  OBJ  4.51239723509016
    f962  r257  1.0
    f962  r258  -1.0
    f962  r1586  1.0
    f963  OBJ  9.22551467867278
    f963  r257  -1.0
    f963  r258  1.0
    f963  r1587  1.0
    f964  OBJ  7.985321819227965
    f964  r257  1.0
    f964  r269  -1.0
    f964  r1588  1.0
    f965  OBJ  7.853878487528075
    f965  r257  -1.0
    f965  r269  1.0
    f965  r1589  1.0
    f966  OBJ  3.8988307865943725
    f966  r258  1.0
    f966  r259  -1.0
    f966  r1590  1.0
    f967  OBJ  1.8213408431341964
    f967  r258  -1.0
    f967  r259  1.0
    f967  r1591  1.0
    f968  OBJ  7.923969680330949
    f968  r258  1.0
    f968  r270  -1.0
    f968  r1592  1.0
    f969  OBJ  1.563767453091939
    f969  r258  -1.0
    f969  r270  1.0
    f969  r1593  1.0
    f970  OBJ  6.935198814097371
    f970  r259  1.0
    f970  r260  -1.0
    f970  r1594  1.0
    f971  OBJ  1.140233599419127
    f971  r259  -1.0
    f971  r260  1.0
    f971  r1595  1.0
    f972  OBJ  2.667798011767858
    f972  r259  1.0
    f972  r271  -1.0
    f972  r1596  1.0
    f973  OBJ  4.993681071225831
    f973  r259  -1.0
    f973  r271  1.0
    f973  r1597  1.0
    f974  OBJ  8.51136799825362
    f974  r260  1.0
    f974  r261  -1.0
    f974  r1598  1.0
    f975  OBJ  3.6987857321639197
    f975  r260  -1.0
    f975  r261  1.0
    f975  r1599  1.0
    f976  OBJ  9.300556541774627
    f976  r260  1.0
    f976  r272  -1.0
    f976  r1600  1.0
    f977  OBJ  9.475496473088528
    f977  r260  -1.0
    f977  r272  1.0
    f977  r1601  1.0
    f978  OBJ  7.7584063045366145
    f978  r261  1.0
    f978  r262  -1.0
    f978  r1602  1.0
    f979  OBJ  4.126292753714269
    f979  r261  -1.0
    f979  r262  1.0
    f979  r1603  1.0
    f980  OBJ  5.0828380217659666
    f980  r261  1.0
    f980  r273  -1.0
    f980  r1604  1.0
    f981  OBJ  9.7307357511208
    f981  r261  -1.0
    f981  r273  1.0
    f981  r1605  1.0
    f982  OBJ  6.106322066837172
    f982  r262  1.0
    f982  r263  -1.0
    f982  r1606  1.0
    f983  OBJ  6.3511769264331015
    f983  r262  -1.0
    f983  r263  1.0
    f983  r1607  1.0
    f984  OBJ  6.085853555964545
    f984  r262  1.0
    f984  r274  -1.0
    f984  r1608  1.0
    f985  OBJ  2.4188610871705665
    f985  r262  -1.0
    f985  r274  1.0
    f985  r1609  1.0
    f986  OBJ  9.924103008796113
    f986  r263  1.0
    f986  r275  -1.0
    f986  r1610  1.0
    f987  OBJ  6.3299777034315134
    f987  r263  -1.0
    f987  r275  1.0
    f987  r1611  1.0
    f988  OBJ  7.109020812874268
    f988  r264  1.0
    f988  r265  -1.0
    f988  r1612  1.0
    f989  OBJ  8.310746585559563
    f989  r264  -1.0
    f989  r265  1.0
    f989  r1613  1.0
    f990  OBJ  5.443692129422634
    f990  r264  1.0
    f990  r276  -1.0
    f990  r1614  1.0
    f991  OBJ  3.231987722633258
    f991  r264  -1.0
    f991  r276  1.0
    f991  r1615  1.0
    f992  OBJ  9.430566867020026
    f992  r265  1.0
    f992  r266  -1.0
    f992  r1616  1.0
    f993  OBJ  2.595050864337804
    f993  r265  -1.0
    f993  r266  1.0
    f993  r1617  1.0
    f994  OBJ  4.318987023072978
    f994  r265  1.0
    f994  r277  -1.0
    f994  r1618  1.0
    f995  OBJ  7.329669428774082
    f995  r265  -1.0
    f995  r277  1.0
    f995  r1619  1.0
    f996  OBJ  4.9836887656897915
    f996  r266  1.0
    f996  r267  -1.0
    f996  r1620  1.0
    f997  OBJ  6.352318630146749
    f997  r266  -1.0
    f997  r267  1.0
    f997  r1621  1.0
    f998  OBJ  2.99987842617096
    f998  r266  1.0
    f998  r278  -1.0
    f998  r1622  1.0
    f999  OBJ  8.620083490919386
    f999  r266  -1.0
    f999  r278  1.0
    f999  r1623  1.0
    f1000  OBJ  8.771843830234175
    f1000  r267  1.0
    f1000  r268  -1.0
    f1000  r1624  1.0
    f1001  OBJ  4.955466875694067
    f1001  r267  -1.0
    f1001  r268  1.0
    f1001  r1625  1.0
    f1002  OBJ  9.247771892131468
    f1002  r267  1.0
    f1002  r279  -1.0
    f1002  r1626  1.0
    f1003  OBJ  8.81945506426993
    f1003  r267  -1.0
    f1003  r279  1.0
    f1003  r1627  1.0
    f1004  OBJ  6.830438423101554
    f1004  r268  1.0
    f1004  r269  -1.0
    f1004  r1628  1.0
    f1005  OBJ  3.051525755682319
    f1005  r268  -1.0
    f1005  r269  1.0
    f1005  r1629  1.0
    f1006  OBJ  1.2806710336649478
    f1006  r268  1.0
    f1006  r280  -1.0
    f1006  r1630  1.0
    f1007  OBJ  9.385515893642298
    f1007  r268  -1.0
    f1007  r280  1.0
    f1007  r1631  1.0
    f1008  OBJ  9.347005011305704
    f1008  r269  1.0
    f1008  r270  -1.0
    f1008  r1632  1.0
    f1009  OBJ  6.523754702624132
    f1009  r269  -1.0
    f1009  r270  1.0
    f1009  r1633  1.0
    f1010  OBJ  5.84234211010877
    f1010  r269  1.0
    f1010  r281  -1.0
    f1010  r1634  1.0
    f1011  OBJ  7.604297408003552
    f1011  r269  -1.0
    f1011  r281  1.0
    f1011  r1635  1.0
    f1012  OBJ  4.560010615077432
    f1012  r270  1.0
    f1012  r271  -1.0
    f1012  r1636  1.0
    f1013  OBJ  3.8763856694749403
    f1013  r270  -1.0
    f1013  r271  1.0
    f1013  r1637  1.0
    f1014  OBJ  4.127448896846589
    f1014  r270  1.0
    f1014  r282  -1.0
    f1014  r1638  1.0
    f1015  OBJ  4.125540637571846
    f1015  r270  -1.0
    f1015  r282  1.0
    f1015  r1639  1.0
    f1016  OBJ  5.870489008294482
    f1016  r271  1.0
    f1016  r272  -1.0
    f1016  r1640  1.0
    f1017  OBJ  1.1227156697234932
    f1017  r271  -1.0
    f1017  r272  1.0
    f1017  r1641  1.0
    f1018  OBJ  3.021900054708767
    f1018  r271  1.0
    f1018  r283  -1.0
    f1018  r1642  1.0
    f1019  OBJ  6.057863150573489
    f1019  r271  -1.0
    f1019  r283  1.0
    f1019  r1643  1.0
    f1020  OBJ  8.96832750186815
    f1020  r272  1.0
    f1020  r273  -1.0
    f1020  r1644  1.0
    f1021  OBJ  5.719635655221788
    f1021  r272  -1.0
    f1021  r273  1.0
    f1021  r1645  1.0
    f1022  OBJ  3.5255293439735524
    f1022  r272  1.0
    f1022  r284  -1.0
    f1022  r1646  1.0
    f1023  OBJ  9.48611550989987
    f1023  r272  -1.0
    f1023  r284  1.0
    f1023  r1647  1.0
    f1024  OBJ  8.695746371993316
    f1024  r273  1.0
    f1024  r274  -1.0
    f1024  r1648  1.0
    f1025  OBJ  3.418278390810974
    f1025  r273  -1.0
    f1025  r274  1.0
    f1025  r1649  1.0
    f1026  OBJ  9.934860761595974
    f1026  r273  1.0
    f1026  r285  -1.0
    f1026  r1650  1.0
    f1027  OBJ  7.258274874710123
    f1027  r273  -1.0
    f1027  r285  1.0
    f1027  r1651  1.0
    f1028  OBJ  3.3328534298199513
    f1028  r274  1.0
    f1028  r275  -1.0
    f1028  r1652  1.0
    f1029  OBJ  6.492333955930169
    f1029  r274  -1.0
    f1029  r275  1.0
    f1029  r1653  1.0
    f1030  OBJ  3.9443539764031295
    f1030  r274  1.0
    f1030  r286  -1.0
    f1030  r1654  1.0
    f1031  OBJ  9.315480371727524
    f1031  r274  -1.0
    f1031  r286  1.0
    f1031  r1655  1.0
    f1032  OBJ  6.528412566194859
    f1032  r275  1.0
    f1032  r287  -1.0
    f1032  r1656  1.0
    f1033  OBJ  1.4574915159359643
    f1033  r275  -1.0
    f1033  r287  1.0
    f1033  r1657  1.0
    f1034  OBJ  5.63981982753051
    f1034  r276  1.0
    f1034  r277  -1.0
    f1034  r1658  1.0
    f1035  OBJ  5.910777857561307
    f1035  r276  -1.0
    f1035  r277  1.0
    f1035  r1659  1.0
    f1036  OBJ  8.376216960334341
    f1036  r277  1.0
    f1036  r278  -1.0
    f1036  r1660  1.0
    f1037  OBJ  9.490699764840153
    f1037  r277  -1.0
    f1037  r278  1.0
    f1037  r1661  1.0
    f1038  OBJ  7.1149043862629755
    f1038  r278  1.0
    f1038  r279  -1.0
    f1038  r1662  1.0
    f1039  OBJ  6.221105241873805
    f1039  r278  -1.0
    f1039  r279  1.0
    f1039  r1663  1.0
    f1040  OBJ  5.784367932215563
    f1040  r279  1.0
    f1040  r280  -1.0
    f1040  r1664  1.0
    f1041  OBJ  2.5502291518798677
    f1041  r279  -1.0
    f1041  r280  1.0
    f1041  r1665  1.0
    f1042  OBJ  7.63824342000365
    f1042  r280  1.0
    f1042  r281  -1.0
    f1042  r1666  1.0
    f1043  OBJ  5.508061229245426
    f1043  r280  -1.0
    f1043  r281  1.0
    f1043  r1667  1.0
    f1044  OBJ  4.575305739515346
    f1044  r281  1.0
    f1044  r282  -1.0
    f1044  r1668  1.0
    f1045  OBJ  7.753010370046059
    f1045  r281  -1.0
    f1045  r282  1.0
    f1045  r1669  1.0
    f1046  OBJ  4.2151623050292955
    f1046  r282  1.0
    f1046  r283  -1.0
    f1046  r1670  1.0
    f1047  OBJ  7.337043397927561
    f1047  r282  -1.0
    f1047  r283  1.0
    f1047  r1671  1.0
    f1048  OBJ  3.937409412500358
    f1048  r283  1.0
    f1048  r284  -1.0
    f1048  r1672  1.0
    f1049  OBJ  2.7093259789121125
    f1049  r283  -1.0
    f1049  r284  1.0
    f1049  r1673  1.0
    f1050  OBJ  6.030144895898163
    f1050  r284  1.0
    f1050  r285  -1.0
    f1050  r1674  1.0
    f1051  OBJ  9.248603140452367
    f1051  r284  -1.0
    f1051  r285  1.0
    f1051  r1675  1.0
    f1052  OBJ  2.7012102773291957
    f1052  r285  1.0
    f1052  r286  -1.0
    f1052  r1676  1.0
    f1053  OBJ  2.3516175236739865
    f1053  r285  -1.0
    f1053  r286  1.0
    f1053  r1677  1.0
    f1054  OBJ  3.8723982737810747
    f1054  r286  1.0
    f1054  r287  -1.0
    f1054  r1678  1.0
    f1055  OBJ  8.735968157581555
    f1055  r286  -1.0
    f1055  r287  1.0
    f1055  r1679  1.0
    f1056  OBJ  5.843479163247489
    f1056  r288  1.0
    f1056  r289  -1.0
    f1056  r1152  1.0
    f1057  OBJ  4.089437828320046
    f1057  r288  -1.0
    f1057  r289  1.0
    f1057  r1153  1.0
    f1058  OBJ  4.3216051581584045
    f1058  r288  1.0
    f1058  r300  -1.0
    f1058  r1154  1.0
    f1059  OBJ  4.3704708902909415
    f1059  r288  -1.0
    f1059  r300  1.0
    f1059  r1155  1.0
    f1060  OBJ  9.887004911678199
    f1060  r289  1.0
    f1060  r290  -1.0
    f1060  r1156  1.0
    f1061  OBJ  6.694806453464315
    f1061  r289  -1.0
    f1061  r290  1.0
    f1061  r1157  1.0
    f1062  OBJ  7.068915374540442
    f1062  r289  1.0
    f1062  r301  -1.0
    f1062  r1158  1.0
    f1063  OBJ  3.9696710984691252
    f1063  r289  -1.0
    f1063  r301  1.0
    f1063  r1159  1.0
    f1064  OBJ  7.119258950476201
    f1064  r290  1.0
    f1064  r291  -1.0
    f1064  r1160  1.0
    f1065  OBJ  2.1067513739847104
    f1065  r290  -1.0
    f1065  r291  1.0
    f1065  r1161  1.0
    f1066  OBJ  1.465563087853977
    f1066  r290  1.0
    f1066  r302  -1.0
    f1066  r1162  1.0
    f1067  OBJ  8.651722121279082
    f1067  r290  -1.0
    f1067  r302  1.0
    f1067  r1163  1.0
    f1068  OBJ  1.080062249818912
    f1068  r291  1.0
    f1068  r292  -1.0
    f1068  r1164  1.0
    f1069  OBJ  9.80890805966767
    f1069  r291  -1.0
    f1069  r292  1.0
    f1069  r1165  1.0
    f1070  OBJ  8.443027232371483
    f1070  r291  1.0
    f1070  r303  -1.0
    f1070  r1166  1.0
    f1071  OBJ  8.066898633937342
    f1071  r291  -1.0
    f1071  r303  1.0
    f1071  r1167  1.0
    f1072  OBJ  1.4327513830229184
    f1072  r292  1.0
    f1072  r293  -1.0
    f1072  r1168  1.0
    f1073  OBJ  2.8669533958627724
    f1073  r292  -1.0
    f1073  r293  1.0
    f1073  r1169  1.0
    f1074  OBJ  8.648790679856907
    f1074  r292  1.0
    f1074  r304  -1.0
    f1074  r1170  1.0
    f1075  OBJ  4.892453304895277
    f1075  r292  -1.0
    f1075  r304  1.0
    f1075  r1171  1.0
    f1076  OBJ  6.647211403327665
    f1076  r293  1.0
    f1076  r294  -1.0
    f1076  r1172  1.0
    f1077  OBJ  2.1005415892986745
    f1077  r293  -1.0
    f1077  r294  1.0
    f1077  r1173  1.0
    f1078  OBJ  2.677026868100466
    f1078  r293  1.0
    f1078  r305  -1.0
    f1078  r1174  1.0
    f1079  OBJ  5.4754112146732625
    f1079  r293  -1.0
    f1079  r305  1.0
    f1079  r1175  1.0
    f1080  OBJ  7.835199191401016
    f1080  r294  1.0
    f1080  r295  -1.0
    f1080  r1176  1.0
    f1081  OBJ  5.858714839099925
    f1081  r294  -1.0
    f1081  r295  1.0
    f1081  r1177  1.0
    f1082  OBJ  1.9619207071213822
    f1082  r294  1.0
    f1082  r306  -1.0
    f1082  r1178  1.0
    f1083  OBJ  8.795674706633884
    f1083  r294  -1.0
    f1083  r306  1.0
    f1083  r1179  1.0
    f1084  OBJ  2.2569301861673416
    f1084  r295  1.0
    f1084  r296  -1.0
    f1084  r1180  1.0
    f1085  OBJ  4.956919817610607
    f1085  r295  -1.0
    f1085  r296  1.0
    f1085  r1181  1.0
    f1086  OBJ  6.281645261000175
    f1086  r295  1.0
    f1086  r307  -1.0
    f1086  r1182  1.0
    f1087  OBJ  3.8723455215676785
    f1087  r295  -1.0
    f1087  r307  1.0
    f1087  r1183  1.0
    f1088  OBJ  4.762487492955011
    f1088  r296  1.0
    f1088  r297  -1.0
    f1088  r1184  1.0
    f1089  OBJ  8.982680417439596
    f1089  r296  -1.0
    f1089  r297  1.0
    f1089  r1185  1.0
    f1090  OBJ  5.087221314275144
    f1090  r296  1.0
    f1090  r308  -1.0
    f1090  r1186  1.0
    f1091  OBJ  5.853224012546842
    f1091  r296  -1.0
    f1091  r308  1.0
    f1091  r1187  1.0
    f1092  OBJ  9.734402369267295
    f1092  r297  1.0
    f1092  r298  -1.0
    f1092  r1188  1.0
    f1093  OBJ  3.4838482279023597
    f1093  r297  -1.0
    f1093  r298  1.0
    f1093  r1189  1.0
    f1094  OBJ  9.05311169099006
    f1094  r297  1.0
    f1094  r309  -1.0
    f1094  r1190  1.0
    f1095  OBJ  4.2566996928588825
    f1095  r297  -1.0
    f1095  r309  1.0
    f1095  r1191  1.0
    f1096  OBJ  3.808369156683992
    f1096  r298  1.0
    f1096  r299  -1.0
    f1096  r1192  1.0
    f1097  OBJ  8.931602750040451
    f1097  r298  -1.0
    f1097  r299  1.0
    f1097  r1193  1.0
    f1098  OBJ  1.5894707335339273
    f1098  r298  1.0
    f1098  r310  -1.0
    f1098  r1194  1.0
    f1099  OBJ  8.799896097198229
    f1099  r298  -1.0
    f1099  r310  1.0
    f1099  r1195  1.0
    f1100  OBJ  8.449908565840481
    f1100  r299  1.0
    f1100  r311  -1.0
    f1100  r1196  1.0
    f1101  OBJ  9.05243356990497
    f1101  r299  -1.0
    f1101  r311  1.0
    f1101  r1197  1.0
    f1102  OBJ  1.5378154068686039
    f1102  r300  1.0
    f1102  r301  -1.0
    f1102  r1198  1.0
    f1103  OBJ  3.149250350989603
    f1103  r300  -1.0
    f1103  r301  1.0
    f1103  r1199  1.0
    f1104  OBJ  7.9763825368893055
    f1104  r300  1.0
    f1104  r312  -1.0
    f1104  r1200  1.0
    f1105  OBJ  4.931650790463847
    f1105  r300  -1.0
    f1105  r312  1.0
    f1105  r1201  1.0
    f1106  OBJ  1.0478184276486595
    f1106  r301  1.0
    f1106  r302  -1.0
    f1106  r1202  1.0
    f1107  OBJ  7.233576589265234
    f1107  r301  -1.0
    f1107  r302  1.0
    f1107  r1203  1.0
    f1108  OBJ  8.197927065695021
    f1108  r301  1.0
    f1108  r313  -1.0
    f1108  r1204  1.0
    f1109  OBJ  9.76262446210192
    f1109  r301  -1.0
    f1109  r313  1.0
    f1109  r1205  1.0
    f1110  OBJ  2.3559771646767214
    f1110  r302  1.0
    f1110  r303  -1.0
    f1110  r1206  1.0
    f1111  OBJ  3.2675947743516294
    f1111  r302  -1.0
    f1111  r303  1.0
    f1111  r1207  1.0
    f1112  OBJ  8.57224532832835
    f1112  r302  1.0
    f1112  r314  -1.0
    f1112  r1208  1.0
    f1113  OBJ  1.8262821126624695
    f1113  r302  -1.0
    f1113  r314  1.0
    f1113  r1209  1.0
    f1114  OBJ  3.4684351148653563
    f1114  r303  1.0
    f1114  r304  -1.0
    f1114  r1210  1.0
    f1115  OBJ  5.0658643600840545
    f1115  r303  -1.0
    f1115  r304  1.0
    f1115  r1211  1.0
    f1116  OBJ  4.765085478036262
    f1116  r303  1.0
    f1116  r315  -1.0
    f1116  r1212  1.0
    f1117  OBJ  5.884605364467616
    f1117  r303  -1.0
    f1117  r315  1.0
    f1117  r1213  1.0
    f1118  OBJ  8.81815836304687
    f1118  r304  1.0
    f1118  r305  -1.0
    f1118  r1214  1.0
    f1119  OBJ  6.681370181670063
    f1119  r304  -1.0
    f1119  r305  1.0
    f1119  r1215  1.0
    f1120  OBJ  6.886000713302363
    f1120  r304  1.0
    f1120  r316  -1.0
    f1120  r1216  1.0
    f1121  OBJ  6.329994115698163
    f1121  r304  -1.0
    f1121  r316  1.0
    f1121  r1217  1.0
    f1122  OBJ  2.89745780656496
    f1122  r305  1.0
    f1122  r306  -1.0
    f1122  r1218  1.0
    f1123  OBJ  5.0469319805790125
    f1123  r305  -1.0
    f1123  r306  1.0
    f1123  r1219  1.0
    f1124  OBJ  9.887845518427142
    f1124  r305  1.0
    f1124  r317  -1.0
    f1124  r1220  1.0
    f1125  OBJ  9.18307383604957
    f1125  r305  -1.0
    f1125  r317  1.0
    f1125  r1221  1.0
    f1126  OBJ  7.906999714511775
    f1126  r306  1.0
    f1126  r307  -1.0
    f1126  r1222  1.0
    f1127  OBJ  5.803134985573417
    f1127  r306  -1.0
    f1127  r307  1.0
    f1127  r1223  1.0
    f1128  OBJ  8.819791935718182
    f1128  r306  1.0
    f1128  r318  -1.0
    f1128  r1224  1.0
    f1129  OBJ  6.677942196100848
    f1129  r306  -1.0
    f1129  r318  1.0
    f1129  r1225  1.0
    f1130  OBJ  4.578123395103715
    f1130  r307  1.0
    f1130  r308  -1.0
    f1130  r1226  1.0
    f1131  OBJ  5.73687696795246
    f1131  r307  -1.0
    f1131  r308  1.0
    f1131  r1227  1.0
    f1132  OBJ  2.7872516802821625
    f1132  r307  1.0
    f1132  r319  -1.0
    f1132  r1228  1.0
    f1133  OBJ  6.155381271827194
    f1133  r307  -1.0
    f1133  r319  1.0
    f1133  r1229  1.0
    f1134  OBJ  3.8226207491633226
    f1134  r308  1.0
    f1134  r309  -1.0
    f1134  r1230  1.0
    f1135  OBJ  8.032593923327084
    f1135  r308  -1.0
    f1135  r309  1.0
    f1135  r1231  1.0
    f1136  OBJ  8.447683803834597
    f1136  r308  1.0
    f1136  r320  -1.0
    f1136  r1232  1.0
    f1137  OBJ  9.944166781185652
    f1137  r308  -1.0
    f1137  r320  1.0
    f1137  r1233  1.0
    f1138  OBJ  8.514758067385708
    f1138  r309  1.0
    f1138  r310  -1.0
    f1138  r1234  1.0
    f1139  OBJ  1.5333702487229801
    f1139  r309  -1.0
    f1139  r310  1.0
    f1139  r1235  1.0
    f1140  OBJ  7.518931095523543
    f1140  r309  1.0
    f1140  r321  -1.0
    f1140  r1236  1.0
    f1141  OBJ  8.27361552637164
    f1141  r309  -1.0
    f1141  r321  1.0
    f1141  r1237  1.0
    f1142  OBJ  8.850179988841164
    f1142  r310  1.0
    f1142  r311  -1.0
    f1142  r1238  1.0
    f1143  OBJ  5.425049455804184
    f1143  r310  -1.0
    f1143  r311  1.0
    f1143  r1239  1.0
    f1144  OBJ  5.283204492205081
    f1144  r310  1.0
    f1144  r322  -1.0
    f1144  r1240  1.0
    f1145  OBJ  5.777322522458589
    f1145  r310  -1.0
    f1145  r322  1.0
    f1145  r1241  1.0
    f1146  OBJ  2.3943995005292793
    f1146  r311  1.0
    f1146  r323  -1.0
    f1146  r1242  1.0
    f1147  OBJ  9.612598334079014
    f1147  r311  -1.0
    f1147  r323  1.0
    f1147  r1243  1.0
    f1148  OBJ  9.883038452562197
    f1148  r312  1.0
    f1148  r313  -1.0
    f1148  r1244  1.0
    f1149  OBJ  3.3668479442769903
    f1149  r312  -1.0
    f1149  r313  1.0
    f1149  r1245  1.0
    f1150  OBJ  9.616025266298925
    f1150  r312  1.0
    f1150  r324  -1.0
    f1150  r1246  1.0
    f1151  OBJ  2.8739629222224314
    f1151  r312  -1.0
    f1151  r324  1.0
    f1151  r1247  1.0
    f1152  OBJ  1.762693526837991
    f1152  r313  1.0
    f1152  r314  -1.0
    f1152  r1248  1.0
    f1153  OBJ  7.590067761304782
    f1153  r313  -1.0
    f1153  r314  1.0
    f1153  r1249  1.0
    f1154  OBJ  8.347655313259235
    f1154  r313  1.0
    f1154  r325  -1.0
    f1154  r1250  1.0
    f1155  OBJ  2.7975568257531913
    f1155  r313  -1.0
    f1155  r325  1.0
    f1155  r1251  1.0
    f1156  OBJ  9.583816133482737
    f1156  r314  1.0
    f1156  r315  -1.0
    f1156  r1252  1.0
    f1157  OBJ  4.597594046544144
    f1157  r314  -1.0
    f1157  r315  1.0
    f1157  r1253  1.0
    f1158  OBJ  2.672812870364235
    f1158  r314  1.0
    f1158  r326  -1.0
    f1158  r1254  1.0
    f1159  OBJ  3.705170203073723
    f1159  r314  -1.0
    f1159  r326  1.0
    f1159  r1255  1.0
    f1160  OBJ  2.0152999326320273
    f1160  r315  1.0
    f1160  r316  -1.0
    f1160  r1256  1.0
    f1161  OBJ  7.946388238006956
    f1161  r315  -1.0
    f1161  r316  1.0
    f1161  r1257  1.0
    f1162  OBJ  3.567815501244076
    f1162  r315  1.0
    f1162  r327  -1.0
    f1162  r1258  1.0
    f1163  OBJ  7.2396648493583475
    f1163  r315  -1.0
    f1163  r327  1.0
    f1163  r1259  1.0
    f1164  OBJ  5.148136829860446
    f1164  r316  1.0
    f1164  r317  -1.0
    f1164  r1260  1.0
    f1165  OBJ  2.1247572946633198
    f1165  r316  -1.0
    f1165  r317  1.0
    f1165  r1261  1.0
    f1166  OBJ  6.285209035118809
    f1166  r316  1.0
    f1166  r328  -1.0
    f1166  r1262  1.0
    f1167  OBJ  9.70457902276835
    f1167  r316  -1.0
    f1167  r328  1.0
    f1167  r1263  1.0
    f1168  OBJ  2.6638345376764683
    f1168  r317  1.0
    f1168  r318  -1.0
    f1168  r1264  1.0
    f1169  OBJ  9.663170978821231
    f1169  r317  -1.0
    f1169  r318  1.0
    f1169  r1265  1.0
    f1170  OBJ  2.062633599647878
    f1170  r317  1.0
    f1170  r329  -1.0
    f1170  r1266  1.0
    f1171  OBJ  6.187847879545351
    f1171  r317  -1.0
    f1171  r329  1.0
    f1171  r1267  1.0
    f1172  OBJ  2.562195711301708
    f1172  r318  1.0
    f1172  r319  -1.0
    f1172  r1268  1.0
    f1173  OBJ  9.963749442046902
    f1173  r318  -1.0
    f1173  r319  1.0
    f1173  r1269  1.0
    f1174  OBJ  5.948103521283666
    f1174  r318  1.0
    f1174  r330  -1.0
    f1174  r1270  1.0
    f1175  OBJ  8.84549741097349
    f1175  r318  -1.0
    f1175  r330  1.0
    f1175  r1271  1.0
    f1176  OBJ  7.367531877451553
    f1176  r319  1.0
    f1176  r320  -1.0
    f1176  r1272  1.0
    f1177  OBJ  5.0370586039786325
    f1177  r319  -1.0
    f1177  r320  1.0
    f1177  r1273  1.0
    f1178  OBJ  3.3365114494583135
    f1178  r319  1.0
    f1178  r331  -1.0
    f1178  r1274  1.0
    f1179  OBJ  8.848940341217338
    f1179  r319  -1.0
    f1179  r331  1.0
    f1179  r1275  1.0
    f1180  OBJ  8.967469784989184
    f1180  r320  1.0
    f1180  r321  -1.0
    f1180  r1276  1.0
    f1181  OBJ  8.056301029276604
    f1181  r320  -1.0
    f1181  r321  1.0
    f1181  r1277  1.0
    f1182  OBJ  8.261799444070519
    f1182  r320  1.0
    f1182  r332  -1.0
    f1182  r1278  1.0
    f1183  OBJ  1.3756333709345163
    f1183  r320  -1.0
    f1183  r332  1.0
    f1183  r1279  1.0
    f1184  OBJ  2.9712054557253227
    f1184  r321  1.0
    f1184  r322  -1.0
    f1184  r1280  1.0
    f1185  OBJ  5.990844544374253
    f1185  r321  -1.0
    f1185  r322  1.0
    f1185  r1281  1.0
    f1186  OBJ  1.7070566561872171
    f1186  r321  1.0
    f1186  r333  -1.0
    f1186  r1282  1.0
    f1187  OBJ  6.312234646179124
    f1187  r321  -1.0
    f1187  r333  1.0
    f1187  r1283  1.0
    f1188  OBJ  9.525295460899232
    f1188  r322  1.0
    f1188  r323  -1.0
    f1188  r1284  1.0
    f1189  OBJ  4.184128114500217
    f1189  r322  -1.0
    f1189  r323  1.0
    f1189  r1285  1.0
    f1190  OBJ  7.213383032669854
    f1190  r322  1.0
    f1190  r334  -1.0
    f1190  r1286  1.0
    f1191  OBJ  2.817068174308163
    f1191  r322  -1.0
    f1191  r334  1.0
    f1191  r1287  1.0
    f1192  OBJ  8.168247031162272
    f1192  r323  1.0
    f1192  r335  -1.0
    f1192  r1288  1.0
    f1193  OBJ  9.067977953848253
    f1193  r323  -1.0
    f1193  r335  1.0
    f1193  r1289  1.0
    f1194  OBJ  8.33711188653524
    f1194  r324  1.0
    f1194  r325  -1.0
    f1194  r1290  1.0
    f1195  OBJ  4.966699573658781
    f1195  r324  -1.0
    f1195  r325  1.0
    f1195  r1291  1.0
    f1196  OBJ  4.134208441347036
    f1196  r324  1.0
    f1196  r336  -1.0
    f1196  r1292  1.0
    f1197  OBJ  1.7537281635671031
    f1197  r324  -1.0
    f1197  r336  1.0
    f1197  r1293  1.0
    f1198  OBJ  8.63183269121383
    f1198  r325  1.0
    f1198  r326  -1.0
    f1198  r1294  1.0
    f1199  OBJ  9.134382435850736
    f1199  r325  -1.0
    f1199  r326  1.0
    f1199  r1295  1.0
    f1200  OBJ  6.026333765246144
    f1200  r325  1.0
    f1200  r337  -1.0
    f1200  r1296  1.0
    f1201  OBJ  7.877137223459138
    f1201  r325  -1.0
    f1201  r337  1.0
    f1201  r1297  1.0
    f1202  OBJ  3.051016504982827
    f1202  r326  1.0
    f1202  r327  -1.0
    f1202  r1298  1.0
    f1203  OBJ  7.803565893682319
    f1203  r326  -1.0
    f1203  r327  1.0
    f1203  r1299  1.0
    f1204  OBJ  3.2478880841995856
    f1204  r326  1.0
    f1204  r338  -1.0
    f1204  r1300  1.0
    f1205  OBJ  7.561582696471492
    f1205  r326  -1.0
    f1205  r338  1.0
    f1205  r1301  1.0
    f1206  OBJ  1.1077465912219826
    f1206  r327  1.0
    f1206  r328  -1.0
    f1206  r1302  1.0
    f1207  OBJ  4.462274498932999
    f1207  r327  -1.0
    f1207  r328  1.0
    f1207  r1303  1.0
    f1208  OBJ  3.143718312821855
    f1208  r327  1.0
    f1208  r339  -1.0
    f1208  r1304  1.0
    f1209  OBJ  1.3637892144637211
    f1209  r327  -1.0
    f1209  r339  1.0
    f1209  r1305  1.0
    f1210  OBJ  3.33536780497219
    f1210  r328  1.0
    f1210  r329  -1.0
    f1210  r1306  1.0
    f1211  OBJ  9.266985127160817
    f1211  r328  -1.0
    f1211  r329  1.0
    f1211  r1307  1.0
    f1212  OBJ  3.722854116303524
    f1212  r328  1.0
    f1212  r340  -1.0
    f1212  r1308  1.0
    f1213  OBJ  2.0478493989999245
    f1213  r328  -1.0
    f1213  r340  1.0
    f1213  r1309  1.0
    f1214  OBJ  7.001245287843152
    f1214  r329  1.0
    f1214  r330  -1.0
    f1214  r1310  1.0
    f1215  OBJ  7.9504753566883855
    f1215  r329  -1.0
    f1215  r330  1.0
    f1215  r1311  1.0
    f1216  OBJ  4.103119615708474
    f1216  r329  1.0
    f1216  r341  -1.0
    f1216  r1312  1.0
    f1217  OBJ  9.309033217289178
    f1217  r329  -1.0
    f1217  r341  1.0
    f1217  r1313  1.0
    f1218  OBJ  7.2741644884964956
    f1218  r330  1.0
    f1218  r331  -1.0
    f1218  r1314  1.0
    f1219  OBJ  5.837914239590002
    f1219  r330  -1.0
    f1219  r331  1.0
    f1219  r1315  1.0
    f1220  OBJ  9.069344515184543
    f1220  r330  1.0
    f1220  r342  -1.0
    f1220  r1316  1.0
    f1221  OBJ  8.28092182168296
    f1221  r330  -1.0
    f1221  r342  1.0
    f1221  r1317  1.0
    f1222  OBJ  6.438311445129069
    f1222  r331  1.0
    f1222  r332  -1.0
    f1222  r1318  1.0
    f1223  OBJ  3.2615425620963867
    f1223  r331  -1.0
    f1223  r332  1.0
    f1223  r1319  1.0
    f1224  OBJ  5.702488824101116
    f1224  r331  1.0
    f1224  r343  -1.0
    f1224  r1320  1.0
    f1225  OBJ  6.5851428786607675
    f1225  r331  -1.0
    f1225  r343  1.0
    f1225  r1321  1.0
    f1226  OBJ  9.071908100696
    f1226  r332  1.0
    f1226  r333  -1.0
    f1226  r1322  1.0
    f1227  OBJ  9.449913545414963
    f1227  r332  -1.0
    f1227  r333  1.0
    f1227  r1323  1.0
    f1228  OBJ  1.5526027546476011
    f1228  r332  1.0
    f1228  r344  -1.0
    f1228  r1324  1.0
    f1229  OBJ  5.740635528499118
    f1229  r332  -1.0
    f1229  r344  1.0
    f1229  r1325  1.0
    f1230  OBJ  9.43475860238855
    f1230  r333  1.0
    f1230  r334  -1.0
    f1230  r1326  1.0
    f1231  OBJ  4.879177272008489
    f1231  r333  -1.0
    f1231  r334  1.0
    f1231  r1327  1.0
    f1232  OBJ  7.784157847221835
    f1232  r333  1.0
    f1232  r345  -1.0
    f1232  r1328  1.0
    f1233  OBJ  3.067777991068951
    f1233  r333  -1.0
    f1233  r345  1.0
    f1233  r1329  1.0
    f1234  OBJ  8.840366234762376
    f1234  r334  1.0
    f1234  r335  -1.0
    f1234  r1330  1.0
    f1235  OBJ  2.569338415546724
    f1235  r334  -1.0
    f1235  r335  1.0
    f1235  r1331  1.0
    f1236  OBJ  3.3569594822839144
    f1236  r334  1.0
    f1236  r346  -1.0
    f1236  r1332  1.0
    f1237  OBJ  3.2123559621221753
    f1237  r334  -1.0
    f1237  r346  1.0
    f1237  r1333  1.0
    f1238  OBJ  2.2788823876101647
    f1238  r335  1.0
    f1238  r347  -1.0
    f1238  r1334  1.0
    f1239  OBJ  7.024989198482375
    f1239  r335  -1.0
    f1239  r347  1.0
    f1239  r1335  1.0
    f1240  OBJ  8.584841705834307
    f1240  r336  1.0
    f1240  r337  -1.0
    f1240  r1336  1.0
    f1241  OBJ  2.4180513221150917
    f1241  r336  -1.0
    f1241  r337  1.0
    f1241  r1337  1.0
    f1242  OBJ  2.7928105422408227
    f1242  r336  1.0
    f1242  r348  -1.0
    f1242  r1338  1.0
    f1243  OBJ  4.576467726391256
    f1243  r336  -1.0
    f1243  r348  1.0
    f1243  r1339  1.0
    f1244  OBJ  3.707947218147749
    f1244  r337  1.0
    f1244  r338  -1.0
    f1244  r1340  1.0
    f1245  OBJ  6.741770927053644
    f1245  r337  -1.0
    f1245  r338  1.0
    f1245  r1341  1.0
    f1246  OBJ  2.053531136352788
    f1246  r337  1.0
    f1246  r349  -1.0
    f1246  r1342  1.0
    f1247  OBJ  6.243616247545115
    f1247  r337  -1.0
    f1247  r349  1.0
    f1247  r1343  1.0
    f1248  OBJ  5.533037581812857
    f1248  r338  1.0
    f1248  r339  -1.0
    f1248  r1344  1.0
    f1249  OBJ  2.057070778845458
    f1249  r338  -1.0
    f1249  r339  1.0
    f1249  r1345  1.0
    f1250  OBJ  5.03319964067469
    f1250  r338  1.0
    f1250  r350  -1.0
    f1250  r1346  1.0
    f1251  OBJ  4.372981205688504
    f1251  r338  -1.0
    f1251  r350  1.0
    f1251  r1347  1.0
    f1252  OBJ  1.6071602069885822
    f1252  r339  1.0
    f1252  r340  -1.0
    f1252  r1348  1.0
    f1253  OBJ  3.932915843468632
    f1253  r339  -1.0
    f1253  r340  1.0
    f1253  r1349  1.0
    f1254  OBJ  6.784274421345183
    f1254  r339  1.0
    f1254  r351  -1.0
    f1254  r1350  1.0
    f1255  OBJ  8.87767040252694
    f1255  r339  -1.0
    f1255  r351  1.0
    f1255  r1351  1.0
    f1256  OBJ  9.57364570157721
    f1256  r340  1.0
    f1256  r341  -1.0
    f1256  r1352  1.0
    f1257  OBJ  7.629171914559498
    f1257  r340  -1.0
    f1257  r341  1.0
    f1257  r1353  1.0
    f1258  OBJ  4.673521736950686
    f1258  r340  1.0
    f1258  r352  -1.0
    f1258  r1354  1.0
    f1259  OBJ  2.3395263729787823
    f1259  r340  -1.0
    f1259  r352  1.0
    f1259  r1355  1.0
    f1260  OBJ  7.148071082372267
    f1260  r341  1.0
    f1260  r342  -1.0
    f1260  r1356  1.0
    f1261  OBJ  6.157914246676193
    f1261  r341  -1.0
    f1261  r342  1.0
    f1261  r1357  1.0
    f1262  OBJ  8.750560649496279
    f1262  r341  1.0
    f1262  r353  -1.0
    f1262  r1358  1.0
    f1263  OBJ  3.3051466646524137
    f1263  r341  -1.0
    f1263  r353  1.0
    f1263  r1359  1.0
    f1264  OBJ  6.912073358897169
    f1264  r342  1.0
    f1264  r343  -1.0
    f1264  r1360  1.0
    f1265  OBJ  1.8413904953890992
    f1265  r342  -1.0
    f1265  r343  1.0
    f1265  r1361  1.0
    f1266  OBJ  3.7859444762361294
    f1266  r342  1.0
    f1266  r354  -1.0
    f1266  r1362  1.0
    f1267  OBJ  4.880219335322179
    f1267  r342  -1.0
    f1267  r354  1.0
    f1267  r1363  1.0
    f1268  OBJ  8.248199274184902
    f1268  r343  1.0
    f1268  r344  -1.0
    f1268  r1364  1.0
    f1269  OBJ  4.129360889985302
    f1269  r343  -1.0
    f1269  r344  1.0
    f1269  r1365  1.0
    f1270  OBJ  6.570008312930026
    f1270  r343  1.0
    f1270  r355  -1.0
    f1270  r1366  1.0
    f1271  OBJ  9.874236205574777
    f1271  r343  -1.0
    f1271  r355  1.0
    f1271  r1367  1.0
    f1272  OBJ  9.51646875545354
    f1272  r344  1.0
    f1272  r345  -1.0
    f1272  r1368  1.0
    f1273  OBJ  5.298509275495396
    f1273  r344  -1.0
    f1273  r345  1.0
    f1273  r1369  1.0
    f1274  OBJ  2.8837232785759013
    f1274  r344  1.0
    f1274  r356  -1.0
    f1274  r1370  1.0
    f1275  OBJ  6.539390050808525
    f1275  r344  -1.0
    f1275  r356  1.0
    f1275  r1371  1.0
    f1276  OBJ  8.141807889146136
    f1276  r345  1.0
    f1276  r346  -1.0
    f1276  r1372  1.0
    f1277  OBJ  6.344872540246349
    f1277  r345  -1.0
    f1277  r346  1.0
    f1277  r1373  1.0
    f1278  OBJ  7.7292342535858936
    f1278  r345  1.0
    f1278  r357  -1.0
    f1278  r1374  1.0
    f1279  OBJ  2.919929548367037
    f1279  r345  -1.0
    f1279  r357  1.0
    f1279  r1375  1.0
    f1280  OBJ  3.5722688038057053
    f1280  r346  1.0
    f1280  r347  -1.0
    f1280  r1376  1.0
    f1281  OBJ  2.4058364065093754
    f1281  r346  -1.0
    f1281  r347  1.0
    f1281  r1377  1.0
    f1282  OBJ  1.5181313304897963
    f1282  r346  1.0
    f1282  r358  -1.0
    f1282  r1378  1.0
    f1283  OBJ  5.14441361017963
    f1283  r346  -1.0
    f1283  r358  1.0
    f1283  r1379  1.0
    f1284  OBJ  7.958578806368944
    f1284  r347  1.0
    f1284  r359  -1.0
    f1284  r1380  1.0
    f1285  OBJ  4.369669474409982
    f1285  r347  -1.0
    f1285  r359  1.0
    f1285  r1381  1.0
    f1286  OBJ  9.578268517437737
    f1286  r348  1.0
    f1286  r349  -1.0
    f1286  r1382  1.0
    f1287  OBJ  4.162536277129916
    f1287  r348  -1.0
    f1287  r349  1.0
    f1287  r1383  1.0
    f1288  OBJ  4.426687129543275
    f1288  r348  1.0
    f1288  r360  -1.0
    f1288  r1384  1.0
    f1289  OBJ  8.671251806248794
    f1289  r348  -1.0
    f1289  r360  1.0
    f1289  r1385  1.0
    f1290  OBJ  6.942519417241746
    f1290  r349  1.0
    f1290  r350  -1.0
    f1290  r1386  1.0
    f1291  OBJ  5.8091713864273
    f1291  r349  -1.0
    f1291  r350  1.0
    f1291  r1387  1.0
    f1292  OBJ  3.1250306131869907
    f1292  r349  1.0
    f1292  r361  -1.0
    f1292  r1388  1.0
    f1293  OBJ  1.7881153042109728
    f1293  r349  -1.0
    f1293  r361  1.0
    f1293  r1389  1.0
    f1294  OBJ  2.4738175169074745
    f1294  r350  1.0
    f1294  r351  -1.0
    f1294  r1390  1.0
    f1295  OBJ  2.4884050604864716
    f1295  r350  -1.0
    f1295  r351  1.0
    f1295  r1391  1.0
    f1296  OBJ  4.770114184150721
    f1296  r350  1.0
    f1296  r362  -1.0
    f1296  r1392  1.0
    f1297  OBJ  3.9764102922479694
    f1297  r350  -1.0
    f1297  r362  1.0
    f1297  r1393  1.0
    f1298  OBJ  5.924309803353416
    f1298  r351  1.0
    f1298  r352  -1.0
    f1298  r1394  1.0
    f1299  OBJ  3.3385493242589894
    f1299  r351  -1.0
    f1299  r352  1.0
    f1299  r1395  1.0
    f1300  OBJ  7.144749280430248
    f1300  r351  1.0
    f1300  r363  -1.0
    f1300  r1396  1.0
    f1301  OBJ  9.515200012995304
    f1301  r351  -1.0
    f1301  r363  1.0
    f1301  r1397  1.0
    f1302  OBJ  8.36033005720306
    f1302  r352  1.0
    f1302  r353  -1.0
    f1302  r1398  1.0
    f1303  OBJ  6.18865062078726
    f1303  r352  -1.0
    f1303  r353  1.0
    f1303  r1399  1.0
    f1304  OBJ  3.3278283690821286
    f1304  r352  1.0
    f1304  r364  -1.0
    f1304  r1400  1.0
    f1305  OBJ  8.118879965779355
    f1305  r352  -1.0
    f1305  r364  1.0
    f1305  r1401  1.0
    f1306  OBJ  8.525642503999077
    f1306  r353  1.0
    f1306  r354  -1.0
    f1306  r1402  1.0
    f1307  OBJ  1.8471927545361946
    f1307  r353  -1.0
    f1307  r354  1.0
    f1307  r1403  1.0
    f1308  OBJ  8.617861454104808
    f1308  r353  1.0
    f1308  r365  -1.0
    f1308  r1404  1.0
    f1309  OBJ  9.28184385663278
    f1309  r353  -1.0
    f1309  r365  1.0
    f1309  r1405  1.0
    f1310  OBJ  2.8218006430295373
    f1310  r354  1.0
    f1310  r355  -1.0
    f1310  r1406  1.0
    f1311  OBJ  2.651246163103225
    f1311  r354  -1.0
    f1311  r355  1.0
    f1311  r1407  1.0
    f1312  OBJ  7.5372506585615735
    f1312  r354  1.0
    f1312  r366  -1.0
    f1312  r1408  1.0
    f1313  OBJ  5.323717629241309
    f1313  r354  -1.0
    f1313  r366  1.0
    f1313  r1409  1.0
    f1314  OBJ  1.6656547324045405
    f1314  r355  1.0
    f1314  r356  -1.0
    f1314  r1410  1.0
    f1315  OBJ  6.520511657077648
    f1315  r355  -1.0
    f1315  r356  1.0
    f1315  r1411  1.0
    f1316  OBJ  8.462742992442585
    f1316  r355  1.0
    f1316  r367  -1.0
    f1316  r1412  1.0
    f1317  OBJ  7.562753261045978
    f1317  r355  -1.0
    f1317  r367  1.0
    f1317  r1413  1.0
    f1318  OBJ  1.4579849945343457
    f1318  r356  1.0
    f1318  r357  -1.0
    f1318  r1414  1.0
    f1319  OBJ  1.3840722864476893
    f1319  r356  -1.0
    f1319  r357  1.0
    f1319  r1415  1.0
    f1320  OBJ  5.6617811913676315
    f1320  r356  1.0
    f1320  r368  -1.0
    f1320  r1416  1.0
    f1321  OBJ  6.919498005080287
    f1321  r356  -1.0
    f1321  r368  1.0
    f1321  r1417  1.0
    f1322  OBJ  9.285794023306087
    f1322  r357  1.0
    f1322  r358  -1.0
    f1322  r1418  1.0
    f1323  OBJ  7.3993322363938745
    f1323  r357  -1.0
    f1323  r358  1.0
    f1323  r1419  1.0
    f1324  OBJ  7.101977977434503
    f1324  r357  1.0
    f1324  r369  -1.0
    f1324  r1420  1.0
    f1325  OBJ  8.876980031369033
    f1325  r357  -1.0
    f1325  r369  1.0
    f1325  r1421  1.0
    f1326  OBJ  4.66136303553649
    f1326  r358  1.0
    f1326  r359  -1.0
    f1326  r1422  1.0
    f1327  OBJ  2.547443857546328
    f1327  r358  -1.0
    f1327  r359  1.0
    f1327  r1423  1.0
    f1328  OBJ  2.0348893291575196
    f1328  r358  1.0
    f1328  r370  -1.0
    f1328  r1424  1.0
    f1329  OBJ  4.213952179581336
    f1329  r358  -1.0
    f1329  r370  1.0
    f1329  r1425  1.0
    f1330  OBJ  8.779879443746765
    f1330  r359  1.0
    f1330  r371  -1.0
    f1330  r1426  1.0
    f1331  OBJ  5.940792123148839
    f1331  r359  -1.0
    f1331  r371  1.0
    f1331  r1427  1.0
    f1332  OBJ  1.3920125076769931
    f1332  r360  1.0
    f1332  r361  -1.0
    f1332  r1428  1.0
    f1333  OBJ  9.163801058965287
    f1333  r360  -1.0
    f1333  r361  1.0
    f1333  r1429  1.0
    f1334  OBJ  8.413501768673024
    f1334  r360  1.0
    f1334  r372  -1.0
    f1334  r1430  1.0
    f1335  OBJ  1.5022974905585167
    f1335  r360  -1.0
    f1335  r372  1.0
    f1335  r1431  1.0
    f1336  OBJ  8.073763821337996
    f1336  r361  1.0
    f1336  r362  -1.0
    f1336  r1432  1.0
    f1337  OBJ  2.641997978893971
    f1337  r361  -1.0
    f1337  r362  1.0
    f1337  r1433  1.0
    f1338  OBJ  1.4524969311091085
    f1338  r361  1.0
    f1338  r373  -1.0
    f1338  r1434  1.0
    f1339  OBJ  4.560439970223803
    f1339  r361  -1.0
    f1339  r373  1.0
    f1339  r1435  1.0
    f1340  OBJ  7.349986377101174
    f1340  r362  1.0
    f1340  r363  -1.0
    f1340  r1436  1.0
    f1341  OBJ  3.4211263859867955
    f1341  r362  -1.0
    f1341  r363  1.0
    f1341  r1437  1.0
    f1342  OBJ  4.886653339206574
    f1342  r362  1.0
    f1342  r374  -1.0
    f1342  r1438  1.0
    f1343  OBJ  8.553204349239795
    f1343  r362  -1.0
    f1343  r374  1.0
    f1343  r1439  1.0
    f1344  OBJ  2.0931257120590527
    f1344  r363  1.0
    f1344  r364  -1.0
    f1344  r1440  1.0
    f1345  OBJ  6.764007836463744
    f1345  r363  -1.0
    f1345  r364  1.0
    f1345  r1441  1.0
    f1346  OBJ  3.8351177230513684
    f1346  r363  1.0
    f1346  r375  -1.0
    f1346  r1442  1.0
    f1347  OBJ  1.553625881370926
    f1347  r363  -1.0
    f1347  r375  1.0
    f1347  r1443  1.0
    f1348  OBJ  7.872044218655729
    f1348  r364  1.0
    f1348  r365  -1.0
    f1348  r1444  1.0
    f1349  OBJ  7.06928082643932
    f1349  r364  -1.0
    f1349  r365  1.0
    f1349  r1445  1.0
    f1350  OBJ  5.150207075823104
    f1350  r364  1.0
    f1350  r376  -1.0
    f1350  r1446  1.0
    f1351  OBJ  5.202706668736231
    f1351  r364  -1.0
    f1351  r376  1.0
    f1351  r1447  1.0
    f1352  OBJ  4.495388412323753
    f1352  r365  1.0
    f1352  r366  -1.0
    f1352  r1448  1.0
    f1353  OBJ  7.119590207632811
    f1353  r365  -1.0
    f1353  r366  1.0
    f1353  r1449  1.0
    f1354  OBJ  1.0846305661855613
    f1354  r365  1.0
    f1354  r377  -1.0
    f1354  r1450  1.0
    f1355  OBJ  1.9779784306069956
    f1355  r365  -1.0
    f1355  r377  1.0
    f1355  r1451  1.0
    f1356  OBJ  1.7656223383448246
    f1356  r366  1.0
    f1356  r367  -1.0
    f1356  r1452  1.0
    f1357  OBJ  1.9757356636276593
    f1357  r366  -1.0
    f1357  r367  1.0
    f1357  r1453  1.0
    f1358  OBJ  5.984399077982553
    f1358  r366  1.0
    f1358  r378  -1.0
    f1358  r1454  1.0
    f1359  OBJ  4.751953812845244
    f1359  r366  -1.0
    f1359  r378  1.0
    f1359  r1455  1.0
    f1360  OBJ  6.911526938116024
    f1360  r367  1.0
    f1360  r368  -1.0
    f1360  r1456  1.0
    f1361  OBJ  5.701495629352302
    f1361  r367  -1.0
    f1361  r368  1.0
    f1361  r1457  1.0
    f1362  OBJ  8.044580428570983
    f1362  r367  1.0
    f1362  r379  -1.0
    f1362  r1458  1.0
    f1363  OBJ  7.324669472023794
    f1363  r367  -1.0
    f1363  r379  1.0
    f1363  r1459  1.0
    f1364  OBJ  1.314066547938094
    f1364  r368  1.0
    f1364  r369  -1.0
    f1364  r1460  1.0
    f1365  OBJ  1.7861996272793332
    f1365  r368  -1.0
    f1365  r369  1.0
    f1365  r1461  1.0
    f1366  OBJ  6.983858312706064
    f1366  r368  1.0
    f1366  r380  -1.0
    f1366  r1462  1.0
    f1367  OBJ  8.675731147502312
    f1367  r368  -1.0
    f1367  r380  1.0
    f1367  r1463  1.0
    f1368  OBJ  8.427046161750996
    f1368  r369  1.0
    f1368  r370  -1.0
    f1368  r1464  1.0
    f1369  OBJ  1.8228964051985819
    f1369  r369  -1.0
    f1369  r370  1.0
    f1369  r1465  1.0
    f1370  OBJ  6.409233468018879
    f1370  r369  1.0
    f1370  r381  -1.0
    f1370  r1466  1.0
    f1371  OBJ  2.3497677657611447
    f1371  r369  -1.0
    f1371  r381  1.0
    f1371  r1467  1.0
    f1372  OBJ  3.7086207054581948
    f1372  r370  1.0
    f1372  r371  -1.0
    f1372  r1468  1.0
    f1373  OBJ  8.65715624722977
    f1373  r370  -1.0
    f1373  r371  1.0
    f1373  r1469  1.0
    f1374  OBJ  6.595096110933911
    f1374  r370  1.0
    f1374  r382  -1.0
    f1374  r1470  1.0
    f1375  OBJ  8.537672872213488
    f1375  r370  -1.0
    f1375  r382  1.0
    f1375  r1471  1.0
    f1376  OBJ  6.4434897279176155
    f1376  r371  1.0
    f1376  r383  -1.0
    f1376  r1472  1.0
    f1377  OBJ  9.13032417858997
    f1377  r371  -1.0
    f1377  r383  1.0
    f1377  r1473  1.0
    f1378  OBJ  3.4661275108262677
    f1378  r372  1.0
    f1378  r373  -1.0
    f1378  r1474  1.0
    f1379  OBJ  5.314808375552716
    f1379  r372  -1.0
    f1379  r373  1.0
    f1379  r1475  1.0
    f1380  OBJ  9.415650543340698
    f1380  r372  1.0
    f1380  r384  -1.0
    f1380  r1476  1.0
    f1381  OBJ  7.876608463745178
    f1381  r372  -1.0
    f1381  r384  1.0
    f1381  r1477  1.0
    f1382  OBJ  1.4555185085717608
    f1382  r373  1.0
    f1382  r374  -1.0
    f1382  r1478  1.0
    f1383  OBJ  2.8941717934539652
    f1383  r373  -1.0
    f1383  r374  1.0
    f1383  r1479  1.0
    f1384  OBJ  4.342485411336144
    f1384  r373  1.0
    f1384  r385  -1.0
    f1384  r1480  1.0
    f1385  OBJ  6.743615544985133
    f1385  r373  -1.0
    f1385  r385  1.0
    f1385  r1481  1.0
    f1386  OBJ  3.61203237863454
    f1386  r374  1.0
    f1386  r375  -1.0
    f1386  r1482  1.0
    f1387  OBJ  8.55096368863703
    f1387  r374  -1.0
    f1387  r375  1.0
    f1387  r1483  1.0
    f1388  OBJ  8.27410362430896
    f1388  r374  1.0
    f1388  r386  -1.0
    f1388  r1484  1.0
    f1389  OBJ  4.760315867692679
    f1389  r374  -1.0
    f1389  r386  1.0
    f1389  r1485  1.0
    f1390  OBJ  3.271951507739692
    f1390  r375  1.0
    f1390  r376  -1.0
    f1390  r1486  1.0
    f1391  OBJ  3.1289069487998327
    f1391  r375  -1.0
    f1391  r376  1.0
    f1391  r1487  1.0
    f1392  OBJ  3.0383411253968777
    f1392  r375  1.0
    f1392  r387  -1.0
    f1392  r1488  1.0
    f1393  OBJ  5.480200952044394
    f1393  r375  -1.0
    f1393  r387  1.0
    f1393  r1489  1.0
    f1394  OBJ  5.89233280359704
    f1394  r376  1.0
    f1394  r377  -1.0
    f1394  r1490  1.0
    f1395  OBJ  9.034834307474533
    f1395  r376  -1.0
    f1395  r377  1.0
    f1395  r1491  1.0
    f1396  OBJ  5.48019352885476
    f1396  r376  1.0
    f1396  r388  -1.0
    f1396  r1492  1.0
    f1397  OBJ  6.063511377019814
    f1397  r376  -1.0
    f1397  r388  1.0
    f1397  r1493  1.0
    f1398  OBJ  3.056570100539143
    f1398  r377  1.0
    f1398  r378  -1.0
    f1398  r1494  1.0
    f1399  OBJ  9.839114102074996
    f1399  r377  -1.0
    f1399  r378  1.0
    f1399  r1495  1.0
    f1400  OBJ  5.288831991624837
    f1400  r377  1.0
    f1400  r389  -1.0
    f1400  r1496  1.0
    f1401  OBJ  2.3618639776040853
    f1401  r377  -1.0
    f1401  r389  1.0
    f1401  r1497  1.0
    f1402  OBJ  3.6106988058510683
    f1402  r378  1.0
    f1402  r379  -1.0
    f1402  r1498  1.0
    f1403  OBJ  7.580321328506547
    f1403  r378  -1.0
    f1403  r379  1.0
    f1403  r1499  1.0
    f1404  OBJ  3.4236954706385108
    f1404  r378  1.0
    f1404  r390  -1.0
    f1404  r1500  1.0
    f1405  OBJ  9.935351400755525
    f1405  r378  -1.0
    f1405  r390  1.0
    f1405  r1501  1.0
    f1406  OBJ  6.0414245812900464
    f1406  r379  1.0
    f1406  r380  -1.0
    f1406  r1502  1.0
    f1407  OBJ  8.128246327252945
    f1407  r379  -1.0
    f1407  r380  1.0
    f1407  r1503  1.0
    f1408  OBJ  6.405207842179179
    f1408  r379  1.0
    f1408  r391  -1.0
    f1408  r1504  1.0
    f1409  OBJ  7.175588659685827
    f1409  r379  -1.0
    f1409  r391  1.0
    f1409  r1505  1.0
    f1410  OBJ  4.55280268396465
    f1410  r380  1.0
    f1410  r381  -1.0
    f1410  r1506  1.0
    f1411  OBJ  8.284176006510918
    f1411  r380  -1.0
    f1411  r381  1.0
    f1411  r1507  1.0
    f1412  OBJ  8.258425480846048
    f1412  r380  1.0
    f1412  r392  -1.0
    f1412  r1508  1.0
    f1413  OBJ  8.243636724075234
    f1413  r380  -1.0
    f1413  r392  1.0
    f1413  r1509  1.0
    f1414  OBJ  6.657537466663689
    f1414  r381  1.0
    f1414  r382  -1.0
    f1414  r1510  1.0
    f1415  OBJ  8.164781925273541
    f1415  r381  -1.0
    f1415  r382  1.0
    f1415  r1511  1.0
    f1416  OBJ  8.20681290475072
    f1416  r381  1.0
    f1416  r393  -1.0
    f1416  r1512  1.0
    f1417  OBJ  3.094638847430028
    f1417  r381  -1.0
    f1417  r393  1.0
    f1417  r1513  1.0
    f1418  OBJ  1.4217384987424868
    f1418  r382  1.0
    f1418  r383  -1.0
    f1418  r1514  1.0
    f1419  OBJ  9.287341261502519
    f1419  r382  -1.0
    f1419  r383  1.0
    f1419  r1515  1.0
    f1420  OBJ  4.510003809796323
    f1420  r382  1.0
    f1420  r394  -1.0
    f1420  r1516  1.0
    f1421  OBJ  1.689584135205687
    f1421  r382  -1.0
    f1421  r394  1.0
    f1421  r1517  1.0
    f1422  OBJ  8.829369194969871
    f1422  r383  1.0
    f1422  r395  -1.0
    f1422  r1518  1.0
    f1423  OBJ  8.579225926976626
    f1423  r383  -1.0
    f1423  r395  1.0
    f1423  r1519  1.0
    f1424  OBJ  6.515070056482823
    f1424  r384  1.0
    f1424  r385  -1.0
    f1424  r1520  1.0
    f1425  OBJ  1.9333861611603584
    f1425  r384  -1.0
    f1425  r385  1.0
    f1425  r1521  1.0
    f1426  OBJ  8.821126256390787
    f1426  r384  1.0
    f1426  r396  -1.0
    f1426  r1522  1.0
    f1427  OBJ  5.380010869548395
    f1427  r384  -1.0
    f1427  r396  1.0
    f1427  r1523  1.0
    f1428  OBJ  1.79435476258808
    f1428  r385  1.0
    f1428  r386  -1.0
    f1428  r1524  1.0
    f1429  OBJ  2.5881345830087987
    f1429  r385  -1.0
    f1429  r386  1.0
    f1429  r1525  1.0
    f1430  OBJ  2.2709020232246275
    f1430  r385  1.0
    f1430  r397  -1.0
    f1430  r1526  1.0
    f1431  OBJ  8.817342286568334
    f1431  r385  -1.0
    f1431  r397  1.0
    f1431  r1527  1.0
    f1432  OBJ  8.986263428543289
    f1432  r386  1.0
    f1432  r387  -1.0
    f1432  r1528  1.0
    f1433  OBJ  9.38185667015476
    f1433  r386  -1.0
    f1433  r387  1.0
    f1433  r1529  1.0
    f1434  OBJ  3.9106694183611115
    f1434  r386  1.0
    f1434  r398  -1.0
    f1434  r1530  1.0
    f1435  OBJ  6.2581326213504145
    f1435  r386  -1.0
    f1435  r398  1.0
    f1435  r1531  1.0
    f1436  OBJ  6.5413224246684765
    f1436  r387  1.0
    f1436  r388  -1.0
    f1436  r1532  1.0
    f1437  OBJ  4.24723656890971
    f1437  r387  -1.0
    f1437  r388  1.0
    f1437  r1533  1.0
    f1438  OBJ  1.1530270433944918
    f1438  r387  1.0
    f1438  r399  -1.0
    f1438  r1534  1.0
    f1439  OBJ  1.5456931069157984
    f1439  r387  -1.0
    f1439  r399  1.0
    f1439  r1535  1.0
    f1440  OBJ  1.7241574018463028
    f1440  r388  1.0
    f1440  r389  -1.0
    f1440  r1536  1.0
    f1441  OBJ  5.060393063505103
    f1441  r388  -1.0
    f1441  r389  1.0
    f1441  r1537  1.0
    f1442  OBJ  4.717674001218046
    f1442  r388  1.0
    f1442  r400  -1.0
    f1442  r1538  1.0
    f1443  OBJ  1.247230558457763
    f1443  r388  -1.0
    f1443  r400  1.0
    f1443  r1539  1.0
    f1444  OBJ  1.54764450308056
    f1444  r389  1.0
    f1444  r390  -1.0
    f1444  r1540  1.0
    f1445  OBJ  4.436901121272687
    f1445  r389  -1.0
    f1445  r390  1.0
    f1445  r1541  1.0
    f1446  OBJ  6.816823571619188
    f1446  r389  1.0
    f1446  r401  -1.0
    f1446  r1542  1.0
    f1447  OBJ  5.525496290785183
    f1447  r389  -1.0
    f1447  r401  1.0
    f1447  r1543  1.0
    f1448  OBJ  7.7892030889215045
    f1448  r390  1.0
    f1448  r391  -1.0
    f1448  r1544  1.0
    f1449  OBJ  6.021613449681658
    f1449  r390  -1.0
    f1449  r391  1.0
    f1449  r1545  1.0
    f1450  OBJ  1.7925975732094421
    f1450  r390  1.0
    f1450  r402  -1.0
    f1450  r1546  1.0
    f1451  OBJ  1.9605881002043333
    f1451  r390  -1.0
    f1451  r402  1.0
    f1451  r1547  1.0
    f1452  OBJ  4.214847872386429
    f1452  r391  1.0
    f1452  r392  -1.0
    f1452  r1548  1.0
    f1453  OBJ  6.4358061135036415
    f1453  r391  -1.0
    f1453  r392  1.0
    f1453  r1549  1.0
    f1454  OBJ  8.791756014834748
    f1454  r391  1.0
    f1454  r403  -1.0
    f1454  r1550  1.0
    f1455  OBJ  8.906412266607497
    f1455  r391  -1.0
    f1455  r403  1.0
    f1455  r1551  1.0
    f1456  OBJ  9.642936026015834
    f1456  r392  1.0
    f1456  r393  -1.0
    f1456  r1552  1.0
    f1457  OBJ  8.74458457431033
    f1457  r392  -1.0
    f1457  r393  1.0
    f1457  r1553  1.0
    f1458  OBJ  4.632826881809093
    f1458  r392  1.0
    f1458  r404  -1.0
    f1458  r1554  1.0
    f1459  OBJ  6.036208381774288
    f1459  r392  -1.0
    f1459  r404  1.0
    f1459  r1555  1.0
    f1460  OBJ  1.5445529663505415
    f1460  r393  1.0
    f1460  r394  -1.0
    f1460  r1556  1.0
    f1461  OBJ  9.46800502409497
    f1461  r393  -1.0
    f1461  r394  1.0
    f1461  r1557  1.0
    f1462  OBJ  6.293069097224333
    f1462  r393  1.0
    f1462  r405  -1.0
    f1462  r1558  1.0
    f1463  OBJ  1.392109310130999
    f1463  r393  -1.0
    f1463  r405  1.0
    f1463  r1559  1.0
    f1464  OBJ  8.98243592093765
    f1464  r394  1.0
    f1464  r395  -1.0
    f1464  r1560  1.0
    f1465  OBJ  7.457874392090199
    f1465  r394  -1.0
    f1465  r395  1.0
    f1465  r1561  1.0
    f1466  OBJ  9.86636593405365
    f1466  r394  1.0
    f1466  r406  -1.0
    f1466  r1562  1.0
    f1467  OBJ  1.884113845238686
    f1467  r394  -1.0
    f1467  r406  1.0
    f1467  r1563  1.0
    f1468  OBJ  4.817695723273715
    f1468  r395  1.0
    f1468  r407  -1.0
    f1468  r1564  1.0
    f1469  OBJ  1.9663286839312208
    f1469  r395  -1.0
    f1469  r407  1.0
    f1469  r1565  1.0
    f1470  OBJ  9.466546608877756
    f1470  r396  1.0
    f1470  r397  -1.0
    f1470  r1566  1.0
    f1471  OBJ  2.35517321804957
    f1471  r396  -1.0
    f1471  r397  1.0
    f1471  r1567  1.0
    f1472  OBJ  7.463676282084244
    f1472  r396  1.0
    f1472  r408  -1.0
    f1472  r1568  1.0
    f1473  OBJ  7.092173550062428
    f1473  r396  -1.0
    f1473  r408  1.0
    f1473  r1569  1.0
    f1474  OBJ  6.419758665712502
    f1474  r397  1.0
    f1474  r398  -1.0
    f1474  r1570  1.0
    f1475  OBJ  5.28633868688531
    f1475  r397  -1.0
    f1475  r398  1.0
    f1475  r1571  1.0
    f1476  OBJ  4.866007560405688
    f1476  r397  1.0
    f1476  r409  -1.0
    f1476  r1572  1.0
    f1477  OBJ  8.167183958198226
    f1477  r397  -1.0
    f1477  r409  1.0
    f1477  r1573  1.0
    f1478  OBJ  6.429584491675617
    f1478  r398  1.0
    f1478  r399  -1.0
    f1478  r1574  1.0
    f1479  OBJ  4.055450924783071
    f1479  r398  -1.0
    f1479  r399  1.0
    f1479  r1575  1.0
    f1480  OBJ  7.581300347906965
    f1480  r398  1.0
    f1480  r410  -1.0
    f1480  r1576  1.0
    f1481  OBJ  7.0298196315608354
    f1481  r398  -1.0
    f1481  r410  1.0
    f1481  r1577  1.0
    f1482  OBJ  4.957681743166404
    f1482  r399  1.0
    f1482  r400  -1.0
    f1482  r1578  1.0
    f1483  OBJ  7.318285653973427
    f1483  r399  -1.0
    f1483  r400  1.0
    f1483  r1579  1.0
    f1484  OBJ  2.4897868945411625
    f1484  r399  1.0
    f1484  r411  -1.0
    f1484  r1580  1.0
    f1485  OBJ  4.850063341307448
    f1485  r399  -1.0
    f1485  r411  1.0
    f1485  r1581  1.0
    f1486  OBJ  8.033896025571028
    f1486  r400  1.0
    f1486  r401  -1.0
    f1486  r1582  1.0
    f1487  OBJ  8.097860416424329
    f1487  r400  -1.0
    f1487  r401  1.0
    f1487  r1583  1.0
    f1488  OBJ  7.774866557965757
    f1488  r400  1.0
    f1488  r412  -1.0
    f1488  r1584  1.0
    f1489  OBJ  9.98372389208314
    f1489  r400  -1.0
    f1489  r412  1.0
    f1489  r1585  1.0
    f1490  OBJ  4.51239723509016
    f1490  r401  1.0
    f1490  r402  -1.0
    f1490  r1586  1.0
    f1491  OBJ  9.22551467867278
    f1491  r401  -1.0
    f1491  r402  1.0
    f1491  r1587  1.0
    f1492  OBJ  7.985321819227965
    f1492  r401  1.0
    f1492  r413  -1.0
    f1492  r1588  1.0
    f1493  OBJ  7.853878487528075
    f1493  r401  -1.0
    f1493  r413  1.0
    f1493  r1589  1.0
    f1494  OBJ  3.8988307865943725
    f1494  r402  1.0
    f1494  r403  -1.0
    f1494  r1590  1.0
    f1495  OBJ  1.8213408431341964
    f1495  r402  -1.0
    f1495  r403  1.0
    f1495  r1591  1.0
    f1496  OBJ  7.923969680330949
    f1496  r402  1.0
    f1496  r414  -1.0
    f1496  r1592  1.0
    f1497  OBJ  1.563767453091939
    f1497  r402  -1.0
    f1497  r414  1.0
    f1497  r1593  1.0
    f1498  OBJ  6.935198814097371
    f1498  r403  1.0
    f1498  r404  -1.0
    f1498  r1594  1.0
    f1499  OBJ  1.140233599419127
    f1499  r403  -1.0
    f1499  r404  1.0
    f1499  r1595  1.0
    f1500  OBJ  2.667798011767858
    f1500  r403  1.0
    f1500  r415  -1.0
    f1500  r1596  1.0
    f1501  OBJ  4.993681071225831
    f1501  r403  -1.0
    f1501  r415  1.0
    f1501  r1597  1.0
    f1502  OBJ  8.51136799825362
    f1502  r404  1.0
    f1502  r405  -1.0
    f1502  r1598  1.0
    f1503  OBJ  3.6987857321639197
    f1503  r404  -1.0
    f1503  r405  1.0
    f1503  r1599  1.0
    f1504  OBJ  9.300556541774627
    f1504  r404  1.0
    f1504  r416  -1.0
    f1504  r1600  1.0
    f1505  OBJ  9.475496473088528
    f1505  r404  -1.0
    f1505  r416  1.0
    f1505  r1601  1.0
    f1506  OBJ  7.7584063045366145
    f1506  r405  1.0
    f1506  r406  -1.0
    f1506  r1602  1.0
    f1507  OBJ  4.126292753714269
    f1507  r405  -1.0
    f1507  r406  1.0
    f1507  r1603  1.0
    f1508  OBJ  5.0828380217659666
    f1508  r405  1.0
    f1508  r417  -1.0
    f1508  r1604  1.0
    f1509  OBJ  9.7307357511208
    f1509  r405  -1.0
    f1509  r417  1.0
    f1509  r1605  1.0
    f1510  OBJ  6.106322066837172
    f1510  r406  1.0
    f1510  r407  -1.0
    f1510  r1606  1.0
    f1511  OBJ  6.3511769264331015
    f1511  r406  -1.0
    f1511  r407  1.0
    f1511  r1607  1.0
    f1512  OBJ  6.085853555964545
    f1512  r406  1.0
    f1512  r418  -1.0
    f1512  r1608  1.0
    f1513  OBJ  2.4188610871705665
    f1513  r406  -1.0
    f1513  r418  1.0
    f1513  r1609  1.0
    f1514  OBJ  9.924103008796113
    f1514  r407  1.0
    f1514  r419  -1.0
    f1514  r1610  1.0
    f1515  OBJ  6.3299777034315134
    f1515  r407  -1.0
    f1515  r419  1.0
    f1515  r1611  1.0
    f1516  OBJ  7.109020812874268
    f1516  r408  1.0
    f1516  r409  -1.0
    f1516  r1612  1.0
    f1517  OBJ  8.310746585559563
    f1517  r408  -1.0
    f1517  r409  1.0
    f1517  r1613  1.0
    f1518  OBJ  5.443692129422634
    f1518  r408  1.0
    f1518  r420  -1.0
    f1518  r1614  1.0
    f1519  OBJ  3.231987722633258
    f1519  r408  -1.0
    f1519  r420  1.0
    f1519  r1615  1.0
    f1520  OBJ  9.430566867020026
    f1520  r409  1.0
    f1520  r410  -1.0
    f1520  r1616  1.0
    f1521  OBJ  2.595050864337804
    f1521  r409  -1.0
    f1521  r410  1.0
    f1521  r1617  1.0
    f1522  OBJ  4.318987023072978
    f1522  r409  1.0
    f1522  r421  -1.0
    f1522  r1618  1.0
    f1523  OBJ  7.329669428774082
    f1523  r409  -1.0
    f1523  r421  1.0
    f1523  r1619  1.0
    f1524  OBJ  4.9836887656897915
    f1524  r410  1.0
    f1524  r411  -1.0
    f1524  r1620  1.0
    f1525  OBJ  6.352318630146749
    f1525  r410  -1.0
    f1525  r411  1.0
    f1525  r1621  1.0
    f1526  OBJ  2.99987842617096
    f1526  r410  1.0
    f1526  r422  -1.0
    f1526  r1622  1.0
    f1527  OBJ  8.620083490919386
    f1527  r410  -1.0
    f1527  r422  1.0
    f1527  r1623  1.0
    f1528  OBJ  8.771843830234175
    f1528  r411  1.0
    f1528  r412  -1.0
    f1528  r1624  1.0
    f1529  OBJ  4.955466875694067
    f1529  r411  -1.0
    f1529  r412  1.0
    f1529  r1625  1.0
    f1530  OBJ  9.247771892131468
    f1530  r411  1.0
    f1530  r423  -1.0
    f1530  r1626  1.0
    f1531  OBJ  8.81945506426993
    f1531  r411  -1.0
    f1531  r423  1.0
    f1531  r1627  1.0
    f1532  OBJ  6.830438423101554
    f1532  r412  1.0
    f1532  r413  -1.0
    f1532  r1628  1.0
    f1533  OBJ  3.051525755682319
    f1533  r412  -1.0
    f1533  r413  1.0
    f1533  r1629  1.0
    f1534  OBJ  1.2806710336649478
    f1534  r412  1.0
    f1534  r424  -1.0
    f1534  r1630  1.0
    f1535  OBJ  9.385515893642298
    f1535  r412  -1.0
    f1535  r424  1.0
    f1535  r1631  1.0
    f1536  OBJ  9.347005011305704
    f1536  r413  1.0
    f1536  r414  -1.0
    f1536  r1632  1.0
    f1537  OBJ  6.523754702624132
    f1537  r413  -1.0
    f1537  r414  1.0
    f1537  r1633  1.0
    f1538  OBJ  5.84234211010877
    f1538  r413  1.0
    f1538  r425  -1.0
    f1538  r1634  1.0
    f1539  OBJ  7.604297408003552
    f1539  r413  -1.0
    f1539  r425  1.0
    f1539  r1635  1.0
    f1540  OBJ  4.560010615077432
    f1540  r414  1.0
    f1540  r415  -1.0
    f1540  r1636  1.0
    f1541  OBJ  3.8763856694749403
    f1541  r414  -1.0
    f1541  r415  1.0
    f1541  r1637  1.0
    f1542  OBJ  4.127448896846589
    f1542  r414  1.0
    f1542  r426  -1.0
    f1542  r1638  1.0
    f1543  OBJ  4.125540637571846
    f1543  r414  -1.0
    f1543  r426  1.0
    f1543  r1639  1.0
    f1544  OBJ  5.870489008294482
    f1544  r415  1.0
    f1544  r416  -1.0
    f1544  r1640  1.0
    f1545  OBJ  1.1227156697234932
    f1545  r415  -1.0
    f1545  r416  1.0
    f1545  r1641  1.0
    f1546  OBJ  3.021900054708767
    f1546  r415  1.0
    f1546  r427  -1.0
    f1546  r1642  1.0
    f1547  OBJ  6.057863150573489
    f1547  r415  -1.0
    f1547  r427  1.0
    f1547  r1643  1.0
    f1548  OBJ  8.96832750186815
    f1548  r416  1.0
    f1548  r417  -1.0
    f1548  r1644  1.0
    f1549  OBJ  5.719635655221788
    f1549  r416  -1.0
    f1549  r417  1.0
    f1549  r1645  1.0
    f1550  OBJ  3.5255293439735524
    f1550  r416  1.0
    f1550  r428  -1.0
    f1550  r1646  1.0
    f1551  OBJ  9.48611550989987
    f1551  r416  -1.0
    f1551  r428  1.0
    f1551  r1647  1.0
    f1552  OBJ  8.695746371993316
    f1552  r417  1.0
    f1552  r418  -1.0
    f1552  r1648  1.0
    f1553  OBJ  3.418278390810974
    f1553  r417  -1.0
    f1553  r418  1.0
    f1553  r1649  1.0
    f1554  OBJ  9.934860761595974
    f1554  r417  1.0
    f1554  r429  -1.0
    f1554  r1650  1.0
    f1555  OBJ  7.258274874710123
    f1555  r417  -1.0
    f1555  r429  1.0
    f1555  r1651  1.0
    f1556  OBJ  3.3328534298199513
    f1556  r418  1.0
    f1556  r419  -1.0
    f1556  r1652  1.0
    f1557  OBJ  6.492333955930169
    f1557  r418  -1.0
    f1557  r419  1.0
    f1557  r1653  1.0
    f1558  OBJ  3.9443539764031295
    f1558  r418  1.0
    f1558  r430  -1.0
    f1558  r1654  1.0
    f1559  OBJ  9.315480371727524
    f1559  r418  -1.0
    f1559  r430  1.0
    f1559  r1655  1.0
    f1560  OBJ  6.528412566194859
    f1560  r419  1.0
    f1560  r431  -1.0
    f1560  r1656  1.0
    f1561  OBJ  1.4574915159359643
    f1561  r419  -1.0
    f1561  r431  1.0
    f1561  r1657  1.0
    f1562  OBJ  5.63981982753051
    f1562  r420  1.0
    f1562  r421  -1.0
    f1562  r1658  1.0
    f1563  OBJ  5.910777857561307
    f1563  r420  -1.0
    f1563  r421  1.0
    f1563  r1659  1.0
    f1564  OBJ  8.376216960334341
    f1564  r421  1.0
    f1564  r422  -1.0
    f1564  r1660  1.0
    f1565  OBJ  9.490699764840153
    f1565  r421  -1.0
    f1565  r422  1.0
    f1565  r1661  1.0
    f1566  OBJ  7.1149043862629755
    f1566  r422  1.0
    f1566  r423  -1.0
    f1566  r1662  1.0
    f1567  OBJ  6.221105241873805
    f1567  r422  -1.0
    f1567  r423  1.0
    f1567  r1663  1.0
    f1568  OBJ  5.784367932215563
    f1568  r423  1.0
    f1568  r424  -1.0
    f1568  r1664  1.0
    f1569  OBJ  2.5502291518798677
    f1569  r423  -1.0
    f1569  r424  1.0
    f1569  r1665  1.0
    f1570  OBJ  7.63824342000365
    f1570  r424  1.0
    f1570  r425  -1.0
    f1570  r1666  1.0
    f1571  OBJ  5.508061229245426
    f1571  r424  -1.0
    f1571  r425  1.0
    f1571  r1667  1.0
    f1572  OBJ  4.575305739515346
    f1572  r425  1.0
    f1572  r426  -1.0
    f1572  r1668  1.0
    f1573  OBJ  7.753010370046059
    f1573  r425  -1.0
    f1573  r426  1.0
    f1573  r1669  1.0
    f1574  OBJ  4.2151623050292955
    f1574  r426  1.0
    f1574  r427  -1.0
    f1574  r1670  1.0
    f1575  OBJ  7.337043397927561
    f1575  r426  -1.0
    f1575  r427  1.0
    f1575  r1671  1.0
    f1576  OBJ  3.937409412500358
    f1576  r427  1.0
    f1576  r428  -1.0
    f1576  r1672  1.0
    f1577  OBJ  2.7093259789121125
    f1577  r427  -1.0
    f1577  r428  1.0
    f1577  r1673  1.0
    f1578  OBJ  6.030144895898163
    f1578  r428  1.0
    f1578  r429  -1.0
    f1578  r1674  1.0
    f1579  OBJ  9.248603140452367
    f1579  r428  -1.0
    f1579  r429  1.0
    f1579  r1675  1.0
    f1580  OBJ  2.7012102773291957
    f1580  r429  1.0
    f1580  r430  -1.0
    f1580  r1676  1.0
    f1581  OBJ  2.3516175236739865
    f1581  r429  -1.0
    f1581  r430  1.0
    f1581  r1677  1.0
    f1582  OBJ  3.8723982737810747
    f1582  r430  1.0
    f1582  r431  -1.0
    f1582  r1678  1.0
    f1583  OBJ  8.735968157581555
    f1583  r430  -1.0
    f1583  r431  1.0
    f1583  r1679  1.0
    f1584  OBJ  5.843479163247489
    f1584  r432  1.0
    f1584  r433  -1.0
    f1584  r1152  1.0
    f1585  OBJ  4.089437828320046
    f1585  r432  -1.0
    f1585  r433  1.0
    f1585  r1153  1.0
    f1586  OBJ  4.3216051581584045
    f1586  r432  1.0
    f1586  r444  -1.0
    f1586  r1154  1.0
    f1587  OBJ  4.3704708902909415
    f1587  r432  -1.0
    f1587  r444  1.0
    f1587  r1155  1.0
    f1588  OBJ  9.887004911678199
    f1588  r433  1.0
    f1588  r434  -1.0
    f1588  r1156  1.0
    f1589  OBJ  6.694806453464315
    f1589  r433  -1.0
    f1589  r434  1.0
    f1589  r1157  1.0
    f1590  OBJ  7.068915374540442
    f1590  r433  1.0
    f1590  r445  -1.0
    f1590  r1158  1.0
    f1591  OBJ  3.9696710984691252
    f1591  r433  -1.0
    f1591  r445  1.0
    f1591  r1159  1.0
    f1592  OBJ  7.119258950476201
    f1592  r434  1.0
    f1592  r435  -1.0
    f1592  r1160  1.0
    f1593  OBJ  2.1067513739847104
    f1593  r434  -1.0
    f1593  r435  1.0
    f1593  r1161  1.0
    f1594  OBJ  1.465563087853977
    f1594  r434  1.0
    f1594  r446  -1.0
    f1594  r1162  1.0
    f1595  OBJ  8.651722121279082
    f1595  r434  -1.0
    f1595  r446  1.0
    f1595  r1163  1.0
    f1596  OBJ  1.080062249818912
    f1596  r435  1.0
    f1596  r436  -1.0
    f1596  r1164  1.0
    f1597  OBJ  9.80890805966767
    f1597  r435  -1.0
    f1597  r436  1.0
    f1597  r1165  1.0
    f1598  OBJ  8.443027232371483
    f1598  r435  1.0
    f1598  r447  -1.0
    f1598  r1166  1.0
    f1599  OBJ  8.066898633937342
    f1599  r435  -1.0
    f1599  r447  1.0
    f1599  r1167  1.0
    f1600  OBJ  1.4327513830229184
    f1600  r436  1.0
    f1600  r437  -1.0
    f1600  r1168  1.0
    f1601  OBJ  2.8669533958627724
    f1601  r436  -1.0
    f1601  r437  1.0
    f1601  r1169  1.0
    f1602  OBJ  8.648790679856907
    f1602  r436  1.0
    f1602  r448  -1.0
    f1602  r1170  1.0
    f1603  OBJ  4.892453304895277
    f1603  r436  -1.0
    f1603  r448  1.0
    f1603  r1171  1.0
    f1604  OBJ  6.647211403327665
    f1604  r437  1.0
    f1604  r438  -1.0
    f1604  r1172  1.0
    f1605  OBJ  2.1005415892986745
    f1605  r437  -1.0
    f1605  r438  1.0
    f1605  r1173  1.0
    f1606  OBJ  2.677026868100466
    f1606  r437  1.0
    f1606  r449  -1.0
    f1606  r1174  1.0
    f1607  OBJ  5.4754112146732625
    f1607  r437  -1.0
    f1607  r449  1.0
    f1607  r1175  1.0
    f1608  OBJ  7.835199191401016
    f1608  r438  1.0
    f1608  r439  -1.0
    f1608  r1176  1.0
    f1609  OBJ  5.858714839099925
    f1609  r438  -1.0
    f1609  r439  1.0
    f1609  r1177  1.0
    f1610  OBJ  1.9619207071213822
    f1610  r438  1.0
    f1610  r450  -1.0
    f1610  r1178  1.0
    f1611  OBJ  8.795674706633884
    f1611  r438  -1.0
    f1611  r450  1.0
    f1611  r1179  1.0
    f1612  OBJ  2.2569301861673416
    f1612  r439  1.0
    f1612  r440  -1.0
    f1612  r1180  1.0
    f1613  OBJ  4.956919817610607
    f1613  r439  -1.0
    f1613  r440  1.0
    f1613  r1181  1.0
    f1614  OBJ  6.281645261000175
    f1614  r439  1.0
    f1614  r451  -1.0
    f1614  r1182  1.0
    f1615  OBJ  3.8723455215676785
    f1615  r439  -1.0
    f1615  r451  1.0
    f1615  r1183  1.0
    f1616  OBJ  4.762487492955011
    f1616  r440  1.0
    f1616  r441  -1.0
    f1616  r1184  1.0
    f1617  OBJ  8.982680417439596
    f1617  r440  -1.0
    f1617  r441  1.0
    f1617  r1185  1.0
    f1618  OBJ  5.087221314275144
    f1618  r440  1.0
    f1618  r452  -1.0
    f1618  r1186  1.0
    f1619  OBJ  5.853224012546842
    f1619  r440  -1.0
    f1619  r452  1.0
    f1619  r1187  1.0
    f1620  OBJ  9.734402369267295
    f1620  r441  1.0
    f1620  r442  -1.0
    f1620  r1188  1.0
    f1621  OBJ  3.4838482279023597
    f1621  r441  -1.0
    f1621  r442  1.0
    f1621  r1189  1.0
    f1622  OBJ  9.05311169099006
    f1622  r441  1.0
    f1622  r453  -1.0
    f1622  r1190  1.0
    f1623  OBJ  4.2566996928588825
    f1623  r441  -1.0
    f1623  r453  1.0
    f1623  r1191  1.0
    f1624  OBJ  3.808369156683992
    f1624  r442  1.0
    f1624  r443  -1.0
    f1624  r1192  1.0
    f1625  OBJ  8.931602750040451
    f1625  r442  -1.0
    f1625  r443  1.0
    f1625  r1193  1.0
    f1626  OBJ  1.5894707335339273
    f1626  r442  1.0
    f1626  r454  -1.0
    f1626  r1194  1.0
    f1627  OBJ  8.799896097198229
    f1627  r442  -1.0
    f1627  r454  1.0
    f1627  r1195  1.0
    f1628  OBJ  8.449908565840481
    f1628  r443  1.0
    f1628  r455  -1.0
    f1628  r1196  1.0
    f1629  OBJ  9.05243356990497
    f1629  r443  -1.0
    f1629  r455  1.0
    f1629  r1197  1.0
    f1630  OBJ  1.5378154068686039
    f1630  r444  1.0
    f1630  r445  -1.0
    f1630  r1198  1.0
    f1631  OBJ  3.149250350989603
    f1631  r444  -1.0
    f1631  r445  1.0
    f1631  r1199  1.0
    f1632  OBJ  7.9763825368893055
    f1632  r444  1.0
    f1632  r456  -1.0
    f1632  r1200  1.0
    f1633  OBJ  4.931650790463847
    f1633  r444  -1.0
    f1633  r456  1.0
    f1633  r1201  1.0
    f1634  OBJ  1.0478184276486595
    f1634  r445  1.0
    f1634  r446  -1.0
    f1634  r1202  1.0
    f1635  OBJ  7.233576589265234
    f1635  r445  -1.0
    f1635  r446  1.0
    f1635  r1203  1.0
    f1636  OBJ  8.197927065695021
    f1636  r445  1.0
    f1636  r457  -1.0
    f1636  r1204  1.0
    f1637  OBJ  9.76262446210192
    f1637  r445  -1.0
    f1637  r457  1.0
    f1637  r1205  1.0
    f1638  OBJ  2.3559771646767214
    f1638  r446  1.0
    f1638  r447  -1.0
    f1638  r1206  1.0
    f1639  OBJ  3.2675947743516294
    f1639  r446  -1.0
    f1639  r447  1.0
    f1639  r1207  1.0
    f1640  OBJ  8.57224532832835
    f1640  r446  1.0
    f1640  r458  -1.0
    f1640  r1208  1.0
    f1641  OBJ  1.8262821126624695
    f1641  r446  -1.0
    f1641  r458  1.0
    f1641  r1209  1.0
    f1642  OBJ  3.4684351148653563
    f1642  r447  1.0
    f1642  r448  -1.0
    f1642  r1210  1.0
    f1643  OBJ  5.0658643600840545
    f1643  r447  -1.0
    f1643  r448  1.0
    f1643  r1211  1.0
    f1644  OBJ  4.765085478036262
    f1644  r447  1.0
    f1644  r459  -1.0
    f1644  r1212  1.0
    f1645  OBJ  5.884605364467616
    f1645  r447  -1.0
    f1645  r459  1.0
    f1645  r1213  1.0
    f1646  OBJ  8.81815836304687
    f1646  r448  1.0
    f1646  r449  -1.0
    f1646  r1214  1.0
    f1647  OBJ  6.681370181670063
    f1647  r448  -1.0
    f1647  r449  1.0
    f1647  r1215  1.0
    f1648  OBJ  6.886000713302363
    f1648  r448  1.0
    f1648  r460  -1.0
    f1648  r1216  1.0
    f1649  OBJ  6.329994115698163
    f1649  r448  -1.0
    f1649  r460  1.0
    f1649  r1217  1.0
    f1650  OBJ  2.89745780656496
    f1650  r449  1.0
    f1650  r450  -1.0
    f1650  r1218  1.0
    f1651  OBJ  5.0469319805790125
    f1651  r449  -1.0
    f1651  r450  1.0
    f1651  r1219  1.0
    f1652  OBJ  9.887845518427142
    f1652  r449  1.0
    f1652  r461  -1.0
    f1652  r1220  1.0
    f1653  OBJ  9.18307383604957
    f1653  r449  -1.0
    f1653  r461  1.0
    f1653  r1221  1.0
    f1654  OBJ  7.906999714511775
    f1654  r450  1.0
    f1654  r451  -1.0
    f1654  r1222  1.0
    f1655  OBJ  5.803134985573417
    f1655  r450  -1.0
    f1655  r451  1.0
    f1655  r1223  1.0
    f1656  OBJ  8.819791935718182
    f1656  r450  1.0
    f1656  r462  -1.0
    f1656  r1224  1.0
    f1657  OBJ  6.677942196100848
    f1657  r450  -1.0
    f1657  r462  1.0
    f1657  r1225  1.0
    f1658  OBJ  4.578123395103715
    f1658  r451  1.0
    f1658  r452  -1.0
    f1658  r1226  1.0
    f1659  OBJ  5.73687696795246
    f1659  r451  -1.0
    f1659  r452  1.0
    f1659  r1227  1.0
    f1660  OBJ  2.7872516802821625
    f1660  r451  1.0
    f1660  r463  -1.0
    f1660  r1228  1.0
    f1661  OBJ  6.155381271827194
    f1661  r451  -1.0
    f1661  r463  1.0
    f1661  r1229  1.0
    f1662  OBJ  3.8226207491633226
    f1662  r452  1.0
    f1662  r453  -1.0
    f1662  r1230  1.0
    f1663  OBJ  8.032593923327084
    f1663  r452  -1.0
    f1663  r453  1.0
    f1663  r1231  1.0
    f1664  OBJ  8.447683803834597
    f1664  r452  1.0
    f1664  r464  -1.0
    f1664  r1232  1.0
    f1665  OBJ  9.944166781185652
    f1665  r452  -1.0
    f1665  r464  1.0
    f1665  r1233  1.0
    f1666  OBJ  8.514758067385708
    f1666  r453  1.0
    f1666  r454  -1.0
    f1666  r1234  1.0
    f1667  OBJ  1.5333702487229801
    f1667  r453  -1.0
    f1667  r454  1.0
    f1667  r1235  1.0
    f1668  OBJ  7.518931095523543
    f1668  r453  1.0
    f1668  r465  -1.0
    f1668  r1236  1.0
    f1669  OBJ  8.27361552637164
    f1669  r453  -1.0
    f1669  r465  1.0
    f1669  r1237  1.0
    f1670  OBJ  8.850179988841164
    f1670  r454  1.0
    f1670  r455  -1.0
    f1670  r1238  1.0
    f1671  OBJ  5.425049455804184
    f1671  r454  -1.0
    f1671  r455  1.0
    f1671  r1239  1.0
    f1672  OBJ  5.283204492205081
    f1672  r454  1.0
    f1672  r466  -1.0
    f1672  r1240  1.0
    f1673  OBJ  5.777322522458589
    f1673  r454  -1.0
    f1673  r466  1.0
    f1673  r1241  1.0
    f1674  OBJ  2.3943995005292793
    f1674  r455  1.0
    f1674  r467  -1.0
    f1674  r1242  1.0
    f1675  OBJ  9.612598334079014
    f1675  r455  -1.0
    f1675  r467  1.0
    f1675  r1243  1.0
    f1676  OBJ  9.883038452562197
    f1676  r456  1.0
    f1676  r457  -1.0
    f1676  r1244  1.0
    f1677  OBJ  3.3668479442769903
    f1677  r456  -1.0
    f1677  r457  1.0
    f1677  r1245  1.0
    f1678  OBJ  9.616025266298925
    f1678  r456  1.0
    f1678  r468  -1.0
    f1678  r1246  1.0
    f1679  OBJ  2.8739629222224314
    f1679  r456  -1.0
    f1679  r468  1.0
    f1679  r1247  1.0
    f1680  OBJ  1.762693526837991
    f1680  r457  1.0
    f1680  r458  -1.0
    f1680  r1248  1.0
    f1681  OBJ  7.590067761304782
    f1681  r457  -1.0
    f1681  r458  1.0
    f1681  r1249  1.0
    f1682  OBJ  8.347655313259235
    f1682  r457  1.0
    f1682  r469  -1.0
    f1682  r1250  1.0
    f1683  OBJ  2.7975568257531913
    f1683  r457  -1.0
    f1683  r469  1.0
    f1683  r1251  1.0
    f1684  OBJ  9.583816133482737
    f1684  r458  1.0
    f1684  r459  -1.0
    f1684  r1252  1.0
    f1685  OBJ  4.597594046544144
    f1685  r458  -1.0
    f1685  r459  1.0
    f1685  r1253  1.0
    f1686  OBJ  2.672812870364235
    f1686  r458  1.0
    f1686  r470  -1.0
    f1686  r1254  1.0
    f1687  OBJ  3.705170203073723
    f1687  r458  -1.0
    f1687  r470  1.0
    f1687  r1255  1.0
    f1688  OBJ  2.0152999326320273
    f1688  r459  1.0
    f1688  r460  -1.0
    f1688  r1256  1.0
    f1689  OBJ  7.946388238006956
    f1689  r459  -1.0
    f1689  r460  1.0
    f1689  r1257  1.0
    f1690  OBJ  3.567815501244076
    f1690  r459  1.0
    f1690  r471  -1.0
    f1690  r1258  1.0
    f1691  OBJ  7.2396648493583475
    f1691  r459  -1.0
    f1691  r471  1.0
    f1691  r1259  1.0
    f1692  OBJ  5.148136829860446
    f1692  r460  1.0
    f1692  r461  -1.0
    f1692  r1260  1.0
    f1693  OBJ  2.1247572946633198
    f1693  r460  -1.0
    f1693  r461  1.0
    f1693  r1261  1.0
    f1694  OBJ  6.285209035118809
    f1694  r460  1.0
    f1694  r472  -1.0
    f1694  r1262  1.0
    f1695  OBJ  9.70457902276835
    f1695  r460  -1.0
    f1695  r472  1.0
    f1695  r1263  1.0
    f1696  OBJ  2.6638345376764683
    f1696  r461  1.0
    f1696  r462  -1.0
    f1696  r1264  1.0
    f1697  OBJ  9.663170978821231
    f1697  r461  -1.0
    f1697  r462  1.0
    f1697  r1265  1.0
    f1698  OBJ  2.062633599647878
    f1698  r461  1.0
    f1698  r473  -1.0
    f1698  r1266  1.0
    f1699  OBJ  6.187847879545351
    f1699  r461  -1.0
    f1699  r473  1.0
    f1699  r1267  1.0
    f1700  OBJ  2.562195711301708
    f1700  r462  1.0
    f1700  r463  -1.0
    f1700  r1268  1.0
    f1701  OBJ  9.963749442046902
    f1701  r462  -1.0
    f1701  r463  1.0
    f1701  r1269  1.0
    f1702  OBJ  5.948103521283666
    f1702  r462  1.0
    f1702  r474  -1.0
    f1702  r1270  1.0
    f1703  OBJ  8.84549741097349
    f1703  r462  -1.0
    f1703  r474  1.0
    f1703  r1271  1.0
    f1704  OBJ  7.367531877451553
    f1704  r463  1.0
    f1704  r464  -1.0
    f1704  r1272  1.0
    f1705  OBJ  5.0370586039786325
    f1705  r463  -1.0
    f1705  r464  1.0
    f1705  r1273  1.0
    f1706  OBJ  3.3365114494583135
    f1706  r463  1.0
    f1706  r475  -1.0
    f1706  r1274  1.0
    f1707  OBJ  8.848940341217338
    f1707  r463  -1.0
    f1707  r475  1.0
    f1707  r1275  1.0
    f1708  OBJ  8.967469784989184
    f1708  r464  1.0
    f1708  r465  -1.0
    f1708  r1276  1.0
    f1709  OBJ  8.056301029276604
    f1709  r464  -1.0
    f1709  r465  1.0
    f1709  r1277  1.0
    f1710  OBJ  8.261799444070519
    f1710  r464  1.0
    f1710  r476  -1.0
    f1710  r1278  1.0
    f1711  OBJ  1.3756333709345163
    f1711  r464  -1.0
    f1711  r476  1.0
    f1711  r1279  1.0
    f1712  OBJ  2.9712054557253227
    f1712  r465  1.0
    f1712  r466  -1.0
    f1712  r1280  1.0
    f1713  OBJ  5.990844544374253
    f1713  r465  -1.0
    f1713  r466  1.0
    f1713  r1281  1.0
    f1714  OBJ  1.7070566561872171
    f1714  r465  1.0
    f1714  r477  -1.0
    f1714  r1282  1.0
    f1715  OBJ  6.312234646179124
    f1715  r465  -1.0
    f1715  r477  1.0
    f1715  r1283  1.0
    f1716  OBJ  9.525295460899232
    f1716  r466  1.0
    f1716  r467  -1.0
    f1716  r1284  1.0
    f1717  OBJ  4.184128114500217
    f1717  r466  -1.0
    f1717  r467  1.0
    f1717  r1285  1.0
    f1718  OBJ  7.213383032669854
    f1718  r466  1.0
    f1718  r478  -1.0
    f1718  r1286  1.0
    f1719  OBJ  2.817068174308163
    f1719  r466  -1.0
    f1719  r478  1.0
    f1719  r1287  1.0
    f1720  OBJ  8.168247031162272
    f1720  r467  1.0
    f1720  r479  -1.0
    f1720  r1288  1.0
    f1721  OBJ  9.067977953848253
    f1721  r467  -1.0
    f1721  r479  1.0
    f1721  r1289  1.0
    f1722  OBJ  8.33711188653524
    f1722  r468  1.0
    f1722  r469  -1.0
    f1722  r1290  1.0
    f1723  OBJ  4.966699573658781
    f1723  r468  -1.0
    f1723  r469  1.0
    f1723  r1291  1.0
    f1724  OBJ  4.134208441347036
    f1724  r468  1.0
    f1724  r480  -1.0
    f1724  r1292  1.0
    f1725  OBJ  1.7537281635671031
    f1725  r468  -1.0
    f1725  r480  1.0
    f1725  r1293  1.0
    f1726  OBJ  8.63183269121383
    f1726  r469  1.0
    f1726  r470  -1.0
    f1726  r1294  1.0
    f1727  OBJ  9.134382435850736
    f1727  r469  -1.0
    f1727  r470  1.0
    f1727  r1295  1.0
    f1728  OBJ  6.026333765246144
    f1728  r469  1.0
    f1728  r481  -1.0
    f1728  r1296  1.0
    f1729  OBJ  7.877137223459138
    f1729  r469  -1.0
    f1729  r481  1.0
    f1729  r1297  1.0
    f1730  OBJ  3.051016504982827
    f1730  r470  1.0
    f1730  r471  -1.0
    f1730  r1298  1.0
    f1731  OBJ  7.803565893682319
    f1731  r470  -1.0
    f1731  r471  1.0
    f1731  r1299  1.0
    f1732  OBJ  3.2478880841995856
    f1732  r470  1.0
    f1732  r482  -1.0
    f1732  r1300  1.0
    f1733  OBJ  7.561582696471492
    f1733  r470  -1.0
    f1733  r482  1.0
    f1733  r1301  1.0
    f1734  OBJ  1.1077465912219826
    f1734  r471  1.0
    f1734  r472  -1.0
    f1734  r1302  1.0
    f1735  OBJ  4.462274498932999
    f1735  r471  -1.0
    f1735  r472  1.0
    f1735  r1303  1.0
    f1736  OBJ  3.143718312821855
    f1736  r471  1.0
    f1736  r483  -1.0
    f1736  r1304  1.0
    f1737  OBJ  1.3637892144637211
    f1737  r471  -1.0
    f1737  r483  1.0
    f1737  r1305  1.0
    f1738  OBJ  3.33536780497219
    f1738  r472  1.0
    f1738  r473  -1.0
    f1738  r1306  1.0
    f1739  OBJ  9.266985127160817
    f1739  r472  -1.0
    f1739  r473  1.0
    f1739  r1307  1.0
    f1740  OBJ  3.722854116303524
    f1740  r472  1.0
    f1740  r484  -1.0
    f1740  r1308  1.0
    f1741  OBJ  2.0478493989999245
    f1741  r472  -1.0
    f1741  r484  1.0
    f1741  r1309  1.0
    f1742  OBJ  7.001245287843152
    f1742  r473  1.0
    f1742  r474  -1.0
    f1742  r1310  1.0
    f1743  OBJ  7.9504753566883855
    f1743  r473  -1.0
    f1743  r474  1.0
    f1743  r1311  1.0
    f1744  OBJ  4.103119615708474
    f1744  r473  1.0
    f1744  r485  -1.0
    f1744  r1312  1.0
    f1745  OBJ  9.309033217289178
    f1745  r473  -1.0
    f1745  r485  1.0
    f1745  r1313  1.0
    f1746  OBJ  7.2741644884964956
    f1746  r474  1.0
    f1746  r475  -1.0
    f1746  r1314  1.0
    f1747  OBJ  5.837914239590002
    f1747  r474  -1.0
    f1747  r475  1.0
    f1747  r1315  1.0
    f1748  OBJ  9.069344515184543
    f1748  r474  1.0
    f1748  r486  -1.0
    f1748  r1316  1.0
    f1749  OBJ  8.28092182168296
    f1749  r474  -1.0
    f1749  r486  1.0
    f1749  r1317  1.0
    f1750  OBJ  6.438311445129069
    f1750  r475  1.0
    f1750  r476  -1.0
    f1750  r1318  1.0
    f1751  OBJ  3.2615425620963867
    f1751  r475  -1.0
    f1751  r476  1.0
    f1751  r1319  1.0
    f1752  OBJ  5.702488824101116
    f1752  r475  1.0
    f1752  r487  -1.0
    f1752  r1320  1.0
    f1753  OBJ  6.5851428786607675
    f1753  r475  -1.0
    f1753  r487  1.0
    f1753  r1321  1.0
    f1754  OBJ  9.071908100696
    f1754  r476  1.0
    f1754  r477  -1.0
    f1754  r1322  1.0
    f1755  OBJ  9.449913545414963
    f1755  r476  -1.0
    f1755  r477  1.0
    f1755  r1323  1.0
    f1756  OBJ  1.5526027546476011
    f1756  r476  1.0
    f1756  r488  -1.0
    f1756  r1324  1.0
    f1757  OBJ  5.740635528499118
    f1757  r476  -1.0
    f1757  r488  1.0
    f1757  r1325  1.0
    f1758  OBJ  9.43475860238855
    f1758  r477  1.0
    f1758  r478  -1.0
    f1758  r1326  1.0
    f1759  OBJ  4.879177272008489
    f1759  r477  -1.0
    f1759  r478  1.0
    f1759  r1327  1.0
    f1760  OBJ  7.784157847221835
    f1760  r477  1.0
    f1760  r489  -1.0
    f1760  r1328  1.0
    f1761  OBJ  3.067777991068951
    f1761  r477  -1.0
    f1761  r489  1.0
    f1761  r1329  1.0
    f1762  OBJ  8.840366234762376
    f1762  r478  1.0
    f1762  r479  -1.0
    f1762  r1330  1.0
    f1763  OBJ  2.569338415546724
    f1763  r478  -1.0
    f1763  r479  1.0
    f1763  r1331  1.0
    f1764  OBJ  3.3569594822839144
    f1764  r478  1.0
    f1764  r490  -1.0
    f1764  r1332  1.0
    f1765  OBJ  3.2123559621221753
    f1765  r478  -1.0
    f1765  r490  1.0
    f1765  r1333  1.0
    f1766  OBJ  2.2788823876101647
    f1766  r479  1.0
    f1766  r491  -1.0
    f1766  r1334  1.0
    f1767  OBJ  7.024989198482375
    f1767  r479  -1.0
    f1767  r491  1.0
    f1767  r1335  1.0
    f1768  OBJ  8.584841705834307
    f1768  r480  1.0
    f1768  r481  -1.0
    f1768  r1336  1.0
    f1769  OBJ  2.4180513221150917
    f1769  r480  -1.0
    f1769  r481  1.0
    f1769  r1337  1.0
    f1770  OBJ  2.7928105422408227
    f1770  r480  1.0
    f1770  r492  -1.0
    f1770  r1338  1.0
    f1771  OBJ  4.576467726391256
    f1771  r480  -1.0
    f1771  r492  1.0
    f1771  r1339  1.0
    f1772  OBJ  3.707947218147749
    f1772  r481  1.0
    f1772  r482  -1.0
    f1772  r1340  1.0
    f1773  OBJ  6.741770927053644
    f1773  r481  -1.0
    f1773  r482  1.0
    f1773  r1341  1.0
    f1774  OBJ  2.053531136352788
    f1774  r481  1.0
    f1774  r493  -1.0
    f1774  r1342  1.0
    f1775  OBJ  6.243616247545115
    f1775  r481  -1.0
    f1775  r493  1.0
    f1775  r1343  1.0
    f1776  OBJ  5.533037581812857
    f1776  r482  1.0
    f1776  r483  -1.0
    f1776  r1344  1.0
    f1777  OBJ  2.057070778845458
    f1777  r482  -1.0
    f1777  r483  1.0
    f1777  r1345  1.0
    f1778  OBJ  5.03319964067469
    f1778  r482  1.0
    f1778  r494  -1.0
    f1778  r1346  1.0
    f1779  OBJ  4.372981205688504
    f1779  r482  -1.0
    f1779  r494  1.0
    f1779  r1347  1.0
    f1780  OBJ  1.6071602069885822
    f1780  r483  1.0
    f1780  r484  -1.0
    f1780  r1348  1.0
    f1781  OBJ  3.932915843468632
    f1781  r483  -1.0
    f1781  r484  1.0
    f1781  r1349  1.0
    f1782  OBJ  6.784274421345183
    f1782  r483  1.0
    f1782  r495  -1.0
    f1782  r1350  1.0
    f1783  OBJ  8.87767040252694
    f1783  r483  -1.0
    f1783  r495  1.0
    f1783  r1351  1.0
    f1784  OBJ  9.57364570157721
    f1784  r484  1.0
    f1784  r485  -1.0
    f1784  r1352  1.0
    f1785  OBJ  7.629171914559498
    f1785  r484  -1.0
    f1785  r485  1.0
    f1785  r1353  1.0
    f1786  OBJ  4.673521736950686
    f1786  r484  1.0
    f1786  r496  -1.0
    f1786  r1354  1.0
    f1787  OBJ  2.3395263729787823
    f1787  r484  -1.0
    f1787  r496  1.0
    f1787  r1355  1.0
    f1788  OBJ  7.148071082372267
    f1788  r485  1.0
    f1788  r486  -1.0
    f1788  r1356  1.0
    f1789  OBJ  6.157914246676193
    f1789  r485  -1.0
    f1789  r486  1.0
    f1789  r1357  1.0
    f1790  OBJ  8.750560649496279
    f1790  r485  1.0
    f1790  r497  -1.0
    f1790  r1358  1.0
    f1791  OBJ  3.3051466646524137
    f1791  r485  -1.0
    f1791  r497  1.0
    f1791  r1359  1.0
    f1792  OBJ  6.912073358897169
    f1792  r486  1.0
    f1792  r487  -1.0
    f1792  r1360  1.0
    f1793  OBJ  1.8413904953890992
    f1793  r486  -1.0
    f1793  r487  1.0
    f1793  r1361  1.0
    f1794  OBJ  3.7859444762361294
    f1794  r486  1.0
    f1794  r498  -1.0
    f1794  r1362  1.0
    f1795  OBJ  4.880219335322179
    f1795  r486  -1.0
    f1795  r498  1.0
    f1795  r1363  1.0
    f1796  OBJ  8.248199274184902
    f1796  r487  1.0
    f1796  r488  -1.0
    f1796  r1364  1.0
    f1797  OBJ  4.129360889985302
    f1797  r487  -1.0
    f1797  r488  1.0
    f1797  r1365  1.0
    f1798  OBJ  6.570008312930026
    f1798  r487  1.0
    f1798  r499  -1.0
    f1798  r1366  1.0
    f1799  OBJ  9.874236205574777
    f1799  r487  -1.0
    f1799  r499  1.0
    f1799  r1367  1.0
    f1800  OBJ  9.51646875545354
    f1800  r488  1.0
    f1800  r489  -1.0
    f1800  r1368  1.0
    f1801  OBJ  5.298509275495396
    f1801  r488  -1.0
    f1801  r489  1.0
    f1801  r1369  1.0
    f1802  OBJ  2.8837232785759013
    f1802  r488  1.0
    f1802  r500  -1.0
    f1802  r1370  1.0
    f1803  OBJ  6.539390050808525
    f1803  r488  -1.0
    f1803  r500  1.0
    f1803  r1371  1.0
    f1804  OBJ  8.141807889146136
    f1804  r489  1.0
    f1804  r490  -1.0
    f1804  r1372  1.0
    f1805  OBJ  6.344872540246349
    f1805  r489  -1.0
    f1805  r490  1.0
    f1805  r1373  1.0
    f1806  OBJ  7.7292342535858936
    f1806  r489  1.0
    f1806  r501  -1.0
    f1806  r1374  1.0
    f1807  OBJ  2.919929548367037
    f1807  r489  -1.0
    f1807  r501  1.0
    f1807  r1375  1.0
    f1808  OBJ  3.5722688038057053
    f1808  r490  1.0
    f1808  r491  -1.0
    f1808  r1376  1.0
    f1809  OBJ  2.4058364065093754
    f1809  r490  -1.0
    f1809  r491  1.0
    f1809  r1377  1.0
    f1810  OBJ  1.5181313304897963
    f1810  r490  1.0
    f1810  r502  -1.0
    f1810  r1378  1.0
    f1811  OBJ  5.14441361017963
    f1811  r490  -1.0
    f1811  r502  1.0
    f1811  r1379  1.0
    f1812  OBJ  7.958578806368944
    f1812  r491  1.0
    f1812  r503  -1.0
    f1812  r1380  1.0
    f1813  OBJ  4.369669474409982
    f1813  r491  -1.0
    f1813  r503  1.0
    f1813  r1381  1.0
    f1814  OBJ  9.578268517437737
    f1814  r492  1.0
    f1814  r493  -1.0
    f1814  r1382  1.0
    f1815  OBJ  4.162536277129916
    f1815  r492  -1.0
    f1815  r493  1.0
    f1815  r1383  1.0
    f1816  OBJ  4.426687129543275
    f1816  r492  1.0
    f1816  r504  -1.0
    f1816  r1384  1.0
    f1817  OBJ  8.671251806248794
    f1817  r492  -1.0
    f1817  r504  1.0
    f1817  r1385  1.0
    f1818  OBJ  6.942519417241746
    f1818  r493  1.0
    f1818  r494  -1.0
    f1818  r1386  1.0
    f1819  OBJ  5.8091713864273
    f1819  r493  -1.0
    f1819  r494  1.0
    f1819  r1387  1.0
    f1820  OBJ  3.1250306131869907
    f1820  r493  1.0
    f1820  r505  -1.0
    f1820  r1388  1.0
    f1821  OBJ  1.7881153042109728
    f1821  r493  -1.0
    f1821  r505  1.0
    f1821  r1389  1.0
    f1822  OBJ  2.4738175169074745
    f1822  r494  1.0
    f1822  r495  -1.0
    f1822  r1390  1.0
    f1823  OBJ  2.4884050604864716
    f1823  r494  -1.0
    f1823  r495  1.0
    f1823  r1391  1.0
    f1824  OBJ  4.770114184150721
    f1824  r494  1.0
    f1824  r506  -1.0
    f1824  r1392  1.0
    f1825  OBJ  3.9764102922479694
    f1825  r494  -1.0
    f1825  r506  1.0
    f1825  r1393  1.0
    f1826  OBJ  5.924309803353416
    f1826  r495  1.0
    f1826  r496  -1.0
    f1826  r1394  1.0
    f1827  OBJ  3.3385493242589894
    f1827  r495  -1.0
    f1827  r496  1.0
    f1827  r1395  1.0
    f1828  OBJ  7.144749280430248
    f1828  r495  1.0
    f1828  r507  -1.0
    f1828  r1396  1.0
    f1829  OBJ  9.515200012995304
    f1829  r495  -1.0
    f1829  r507  1.0
    f1829  r1397  1.0
    f1830  OBJ  8.36033005720306
    f1830  r496  1.0
    f1830  r497  -1.0
    f1830  r1398  1.0
    f1831  OBJ  6.18865062078726
    f1831  r496  -1.0
    f1831  r497  1.0
    f1831  r1399  1.0
    f1832  OBJ  3.3278283690821286
    f1832  r496  1.0
    f1832  r508  -1.0
    f1832  r1400  1.0
    f1833  OBJ  8.118879965779355
    f1833  r496  -1.0
    f1833  r508  1.0
    f1833  r1401  1.0
    f1834  OBJ  8.525642503999077
    f1834  r497  1.0
    f1834  r498  -1.0
    f1834  r1402  1.0
    f1835  OBJ  1.8471927545361946
    f1835  r497  -1.0
    f1835  r498  1.0
    f1835  r1403  1.0
    f1836  OBJ  8.617861454104808
    f1836  r497  1.0
    f1836  r509  -1.0
    f1836  r1404  1.0
    f1837  OBJ  9.28184385663278
    f1837  r497  -1.0
    f1837  r509  1.0
    f1837  r1405  1.0
    f1838  OBJ  2.8218006430295373
    f1838  r498  1.0
    f1838  r499  -1.0
    f1838  r1406  1.0
    f1839  OBJ  2.651246163103225
    f1839  r498  -1.0
    f1839  r499  1.0
    f1839  r1407  1.0
    f1840  OBJ  7.5372506585615735
    f1840  r498  1.0
    f1840  r510  -1.0
    f1840  r1408  1.0
    f1841  OBJ  5.323717629241309
    f1841  r498  -1.0
    f1841  r510  1.0
    f1841  r1409  1.0
    f1842  OBJ  1.6656547324045405
    f1842  r499  1.0
    f1842  r500  -1.0
    f1842  r1410  1.0
    f1843  OBJ  6.520511657077648
    f1843  r499  -1.0
    f1843  r500  1.0
    f1843  r1411  1.0
    f1844  OBJ  8.462742992442585
    f1844  r499  1.0
    f1844  r511  -1.0
    f1844  r1412  1.0
    f1845  OBJ  7.562753261045978
    f1845  r499  -1.0
    f1845  r511  1.0
    f1845  r1413  1.0
    f1846  OBJ  1.4579849945343457
    f1846  r500  1.0
    f1846  r501  -1.0
    f1846  r1414  1.0
    f1847  OBJ  1.3840722864476893
    f1847  r500  -1.0
    f1847  r501  1.0
    f1847  r1415  1.0
    f1848  OBJ  5.6617811913676315
    f1848  r500  1.0
    f1848  r512  -1.0
    f1848  r1416  1.0
    f1849  OBJ  6.919498005080287
    f1849  r500  -1.0
    f1849  r512  1.0
    f1849  r1417  1.0
    f1850  OBJ  9.285794023306087
    f1850  r501  1.0
    f1850  r502  -1.0
    f1850  r1418  1.0
    f1851  OBJ  7.3993322363938745
    f1851  r501  -1.0
    f1851  r502  1.0
    f1851  r1419  1.0
    f1852  OBJ  7.101977977434503
    f1852  r501  1.0
    f1852  r513  -1.0
    f1852  r1420  1.0
    f1853  OBJ  8.876980031369033
    f1853  r501  -1.0
    f1853  r513  1.0
    f1853  r1421  1.0
    f1854  OBJ  4.66136303553649
    f1854  r502  1.0
    f1854  r503  -1.0
    f1854  r1422  1.0
    f1855  OBJ  2.547443857546328
    f1855  r502  -1.0
    f1855  r503  1.0
    f1855  r1423  1.0
    f1856  OBJ  2.0348893291575196
    f1856  r502  1.0
    f1856  r514  -1.0
    f1856  r1424  1.0
    f1857  OBJ  4.213952179581336
    f1857  r502  -1.0
    f1857  r514  1.0
    f1857  r1425  1.0
    f1858  OBJ  8.779879443746765
    f1858  r503  1.0
    f1858  r515  -1.0
    f1858  r1426  1.0
    f1859  OBJ  5.940792123148839
    f1859  r503  -1.0
    f1859  r515  1.0
    f1859  r1427  1.0
    f1860  OBJ  1.3920125076769931
    f1860  r504  1.0
    f1860  r505  -1.0
    f1860  r1428  1.0
    f1861  OBJ  9.163801058965287
    f1861  r504  -1.0
    f1861  r505  1.0
    f1861  r1429  1.0
    f1862  OBJ  8.413501768673024
    f1862  r504  1.0
    f1862  r516  -1.0
    f1862  r1430  1.0
    f1863  OBJ  1.5022974905585167
    f1863  r504  -1.0
    f1863  r516  1.0
    f1863  r1431  1.0
    f1864  OBJ  8.073763821337996
    f1864  r505  1.0
    f1864  r506  -1.0
    f1864  r1432  1.0
    f1865  OBJ  2.641997978893971
    f1865  r505  -1.0
    f1865  r506  1.0
    f1865  r1433  1.0
    f1866  OBJ  1.4524969311091085
    f1866  r505  1.0
    f1866  r517  -1.0
    f1866  r1434  1.0
    f1867  OBJ  4.560439970223803
    f1867  r505  -1.0
    f1867  r517  1.0
    f1867  r1435  1.0
    f1868  OBJ  7.349986377101174
    f1868  r506  1.0
    f1868  r507  -1.0
    f1868  r1436  1.0
    f1869  OBJ  3.4211263859867955
    f1869  r506  -1.0
    f1869  r507  1.0
    f1869  r1437  1.0
    f1870  OBJ  4.886653339206574
    f1870  r506  1.0
    f1870  r518  -1.0
    f1870  r1438  1.0
    f1871  OBJ  8.553204349239795
    f1871  r506  -1.0
    f1871  r518  1.0
    f1871  r1439  1.0
    f1872  OBJ  2.0931257120590527
    f1872  r507  1.0
    f1872  r508  -1.0
    f1872  r1440  1.0
    f1873  OBJ  6.764007836463744
    f1873  r507  -1.0
    f1873  r508  1.0
    f1873  r1441  1.0
    f1874  OBJ  3.8351177230513684
    f1874  r507  1.0
    f1874  r519  -1.0
    f1874  r1442  1.0
    f1875  OBJ  1.553625881370926
    f1875  r507  -1.0
    f1875  r519  1.0
    f1875  r1443  1.0
    f1876  OBJ  7.872044218655729
    f1876  r508  1.0
    f1876  r509  -1.0
    f1876  r1444  1.0
    f1877  OBJ  7.06928082643932
    f1877  r508  -1.0
    f1877  r509  1.0
    f1877  r1445  1.0
    f1878  OBJ  5.150207075823104
    f1878  r508  1.0
    f1878  r520  -1.0
    f1878  r1446  1.0
    f1879  OBJ  5.202706668736231
    f1879  r508  -1.0
    f1879  r520  1.0
    f1879  r1447  1.0
    f1880  OBJ  4.495388412323753
    f1880  r509  1.0
    f1880  r510  -1.0
    f1880  r1448  1.0
    f1881  OBJ  7.119590207632811
    f1881  r509  -1.0
    f1881  r510  1.0
    f1881  r1449  1.0
    f1882  OBJ  1.0846305661855613
    f1882  r509  1.0
    f1882  r521  -1.0
    f1882  r1450  1.0
    f1883  OBJ  1.9779784306069956
    f1883  r509  -1.0
    f1883  r521  1.0
    f1883  r1451  1.0
    f1884  OBJ  1.7656223383448246
    f1884  r510  1.0
    f1884  r511  -1.0
    f1884  r1452  1.0
    f1885  OBJ  1.9757356636276593
    f1885  r510  -1.0
    f1885  r511  1.0
    f1885  r1453  1.0
    f1886  OBJ  5.984399077982553
    f1886  r510  1.0
    f1886  r522  -1.0
    f1886  r1454  1.0
    f1887  OBJ  4.751953812845244
    f1887  r510  -1.0
    f1887  r522  1.0
    f1887  r1455  1.0
    f1888  OBJ  6.911526938116024
    f1888  r511  1.0
    f1888  r512  -1.0
    f1888  r1456  1.0
    f1889  OBJ  5.701495629352302
    f1889  r511  -1.0
    f1889  r512  1.0
    f1889  r1457  1.0
    f1890  OBJ  8.044580428570983
    f1890  r511  1.0
    f1890  r523  -1.0
    f1890  r1458  1.0
    f1891  OBJ  7.324669472023794
    f1891  r511  -1.0
    f1891  r523  1.0
    f1891  r1459  1.0
    f1892  OBJ  1.314066547938094
    f1892  r512  1.0
    f1892  r513  -1.0
    f1892  r1460  1.0
    f1893  OBJ  1.7861996272793332
    f1893  r512  -1.0
    f1893  r513  1.0
    f1893  r1461  1.0
    f1894  OBJ  6.983858312706064
    f1894  r512  1.0
    f1894  r524  -1.0
    f1894  r1462  1.0
    f1895  OBJ  8.675731147502312
    f1895  r512  -1.0
    f1895  r524  1.0
    f1895  r1463  1.0
    f1896  OBJ  8.427046161750996
    f1896  r513  1.0
    f1896  r514  -1.0
    f1896  r1464  1.0
    f1897  OBJ  1.8228964051985819
    f1897  r513  -1.0
    f1897  r514  1.0
    f1897  r1465  1.0
    f1898  OBJ  6.409233468018879
    f1898  r513  1.0
    f1898  r525  -1.0
    f1898  r1466  1.0
    f1899  OBJ  2.3497677657611447
    f1899  r513  -1.0
    f1899  r525  1.0
    f1899  r1467  1.0
    f1900  OBJ  3.7086207054581948
    f1900  r514  1.0
    f1900  r515  -1.0
    f1900  r1468  1.0
    f1901  OBJ  8.65715624722977
    f1901  r514  -1.0
    f1901  r515  1.0
    f1901  r1469  1.0
    f1902  OBJ  6.595096110933911
    f1902  r514  1.0
    f1902  r526  -1.0
    f1902  r1470  1.0
    f1903  OBJ  8.537672872213488
    f1903  r514  -1.0
    f1903  r526  1.0
    f1903  r1471  1.0
    f1904  OBJ  6.4434897279176155
    f1904  r515  1.0
    f1904  r527  -1.0
    f1904  r1472  1.0
    f1905  OBJ  9.13032417858997
    f1905  r515  -1.0
    f1905  r527  1.0
    f1905  r1473  1.0
    f1906  OBJ  3.4661275108262677
    f1906  r516  1.0
    f1906  r517  -1.0
    f1906  r1474  1.0
    f1907  OBJ  5.314808375552716
    f1907  r516  -1.0
    f1907  r517  1.0
    f1907  r1475  1.0
    f1908  OBJ  9.415650543340698
    f1908  r516  1.0
    f1908  r528  -1.0
    f1908  r1476  1.0
    f1909  OBJ  7.876608463745178
    f1909  r516  -1.0
    f1909  r528  1.0
    f1909  r1477  1.0
    f1910  OBJ  1.4555185085717608
    f1910  r517  1.0
    f1910  r518  -1.0
    f1910  r1478  1.0
    f1911  OBJ  2.8941717934539652
    f1911  r517  -1.0
    f1911  r518  1.0
    f1911  r1479  1.0
    f1912  OBJ  4.342485411336144
    f1912  r517  1.0
    f1912  r529  -1.0
    f1912  r1480  1.0
    f1913  OBJ  6.743615544985133
    f1913  r517  -1.0
    f1913  r529  1.0
    f1913  r1481  1.0
    f1914  OBJ  3.61203237863454
    f1914  r518  1.0
    f1914  r519  -1.0
    f1914  r1482  1.0
    f1915  OBJ  8.55096368863703
    f1915  r518  -1.0
    f1915  r519  1.0
    f1915  r1483  1.0
    f1916  OBJ  8.27410362430896
    f1916  r518  1.0
    f1916  r530  -1.0
    f1916  r1484  1.0
    f1917  OBJ  4.760315867692679
    f1917  r518  -1.0
    f1917  r530  1.0
    f1917  r1485  1.0
    f1918  OBJ  3.271951507739692
    f1918  r519  1.0
    f1918  r520  -1.0
    f1918  r1486  1.0
    f1919  OBJ  3.1289069487998327
    f1919  r519  -1.0
    f1919  r520  1.0
    f1919  r1487  1.0
    f1920  OBJ  3.0383411253968777
    f1920  r519  1.0
    f1920  r531  -1.0
    f1920  r1488  1.0
    f1921  OBJ  5.480200952044394
    f1921  r519  -1.0
    f1921  r531  1.0
    f1921  r1489  1.0
    f1922  OBJ  5.89233280359704
    f1922  r520  1.0
    f1922  r521  -1.0
    f1922  r1490  1.0
    f1923  OBJ  9.034834307474533
    f1923  r520  -1.0
    f1923  r521  1.0
    f1923  r1491  1.0
    f1924  OBJ  5.48019352885476
    f1924  r520  1.0
    f1924  r532  -1.0
    f1924  r1492  1.0
    f1925  OBJ  6.063511377019814
    f1925  r520  -1.0
    f1925  r532  1.0
    f1925  r1493  1.0
    f1926  OBJ  3.056570100539143
    f1926  r521  1.0
    f1926  r522  -1.0
    f1926  r1494  1.0
    f1927  OBJ  9.839114102074996
    f1927  r521  -1.0
    f1927  r522  1.0
    f1927  r1495  1.0
    f1928  OBJ  5.288831991624837
    f1928  r521  1.0
    f1928  r533  -1.0
    f1928  r1496  1.0
    f1929  OBJ  2.3618639776040853
    f1929  r521  -1.0
    f1929  r533  1.0
    f1929  r1497  1.0
    f1930  OBJ  3.6106988058510683
    f1930  r522  1.0
    f1930  r523  -1.0
    f1930  r1498  1.0
    f1931  OBJ  7.580321328506547
    f1931  r522  -1.0
    f1931  r523  1.0
    f1931  r1499  1.0
    f1932  OBJ  3.4236954706385108
    f1932  r522  1.0
    f1932  r534  -1.0
    f1932  r1500  1.0
    f1933  OBJ  9.935351400755525
    f1933  r522  -1.0
    f1933  r534  1.0
    f1933  r1501  1.0
    f1934  OBJ  6.0414245812900464
    f1934  r523  1.0
    f1934  r524  -1.0
    f1934  r1502  1.0
    f1935  OBJ  8.128246327252945
    f1935  r523  -1.0
    f1935  r524  1.0
    f1935  r1503  1.0
    f1936  OBJ  6.405207842179179
    f1936  r523  1.0
    f1936  r535  -1.0
    f1936  r1504  1.0
    f1937  OBJ  7.175588659685827
    f1937  r523  -1.0
    f1937  r535  1.0
    f1937  r1505  1.0
    f1938  OBJ  4.55280268396465
    f1938  r524  1.0
    f1938  r525  -1.0
    f1938  r1506  1.0
    f1939  OBJ  8.284176006510918
    f1939  r524  -1.0
    f1939  r525  1.0
    f1939  r1507  1.0
    f1940  OBJ  8.258425480846048
    f1940  r524  1.0
    f1940  r536  -1.0
    f1940  r1508  1.0
    f1941  OBJ  8.243636724075234
    f1941  r524  -1.0
    f1941  r536  1.0
    f1941  r1509  1.0
    f1942  OBJ  6.657537466663689
    f1942  r525  1.0
    f1942  r526  -1.0
    f1942  r1510  1.0
    f1943  OBJ  8.164781925273541
    f1943  r525  -1.0
    f1943  r526  1.0
    f1943  r1511  1.0
    f1944  OBJ  8.20681290475072
    f1944  r525  1.0
    f1944  r537  -1.0
    f1944  r1512  1.0
    f1945  OBJ  3.094638847430028
    f1945  r525  -1.0
    f1945  r537  1.0
    f1945  r1513  1.0
    f1946  OBJ  1.4217384987424868
    f1946  r526  1.0
    f1946  r527  -1.0
    f1946  r1514  1.0
    f1947  OBJ  9.287341261502519
    f1947  r526  -1.0
    f1947  r527  1.0
    f1947  r1515  1.0
    f1948  OBJ  4.510003809796323
    f1948  r526  1.0
    f1948  r538  -1.0
    f1948  r1516  1.0
    f1949  OBJ  1.689584135205687
    f1949  r526  -1.0
    f1949  r538  1.0
    f1949  r1517  1.0
    f1950  OBJ  8.829369194969871
    f1950  r527  1.0
    f1950  r539  -1.0
    f1950  r1518  1.0
    f1951  OBJ  8.579225926976626
    f1951  r527  -1.0
    f1951  r539  1.0
    f1951  r1519  1.0
    f1952  OBJ  6.515070056482823
    f1952  r528  1.0
    f1952  r529  -1.0
    f1952  r1520  1.0
    f1953  OBJ  1.9333861611603584
    f1953  r528  -1.0
    f1953  r529  1.0
    f1953  r1521  1.0
    f1954  OBJ  8.821126256390787
    f1954  r528  1.0
    f1954  r540  -1.0
    f1954  r1522  1.0
    f1955  OBJ  5.380010869548395
    f1955  r528  -1.0
    f1955  r540  1.0
    f1955  r1523  1.0
    f1956  OBJ  1.79435476258808
    f1956  r529  1.0
    f1956  r530  -1.0
    f1956  r1524  1.0
    f1957  OBJ  2.5881345830087987
    f1957  r529  -1.0
    f1957  r530  1.0
    f1957  r1525  1.0
    f1958  OBJ  2.2709020232246275
    f1958  r529  1.0
    f1958  r541  -1.0
    f1958  r1526  1.0
    f1959  OBJ  8.817342286568334
    f1959  r529  -1.0
    f1959  r541  1.0
    f1959  r1527  1.0
    f1960  OBJ  8.986263428543289
    f1960  r530  1.0
    f1960  r531  -1.0
    f1960  r1528  1.0
    f1961  OBJ  9.38185667015476
    f1961  r530  -1.0
    f1961  r531  1.0
    f1961  r1529  1.0
    f1962  OBJ  3.9106694183611115
    f1962  r530  1.0
    f1962  r542  -1.0
    f1962  r1530  1.0
    f1963  OBJ  6.2581326213504145
    f1963  r530  -1.0
    f1963  r542  1.0
    f1963  r1531  1.0
    f1964  OBJ  6.5413224246684765
    f1964  r531  1.0
    f1964  r532  -1.0
    f1964  r1532  1.0
    f1965  OBJ  4.24723656890971
    f1965  r531  -1.0
    f1965  r532  1.0
    f1965  r1533  1.0
    f1966  OBJ  1.1530270433944918
    f1966  r531  1.0
    f1966  r543  -1.0
    f1966  r1534  1.0
    f1967  OBJ  1.5456931069157984
    f1967  r531  -1.0
    f1967  r543  1.0
    f1967  r1535  1.0
    f1968  OBJ  1.7241574018463028
    f1968  r532  1.0
    f1968  r533  -1.0
    f1968  r1536  1.0
    f1969  OBJ  5.060393063505103
    f1969  r532  -1.0
    f1969  r533  1.0
    f1969  r1537  1.0
    f1970  OBJ  4.717674001218046
    f1970  r532  1.0
    f1970  r544  -1.0
    f1970  r1538  1.0
    f1971  OBJ  1.247230558457763
    f1971  r532  -1.0
    f1971  r544  1.0
    f1971  r1539  1.0
    f1972  OBJ  1.54764450308056
    f1972  r533  1.0
    f1972  r534  -1.0
    f1972  r1540  1.0
    f1973  OBJ  4.436901121272687
    f1973  r533  -1.0
    f1973  r534  1.0
    f1973  r1541  1.0
    f1974  OBJ  6.816823571619188
    f1974  r533  1.0
    f1974  r545  -1.0
    f1974  r1542  1.0
    f1975  OBJ  5.525496290785183
    f1975  r533  -1.0
    f1975  r545  1.0
    f1975  r1543  1.0
    f1976  OBJ  7.7892030889215045
    f1976  r534  1.0
    f1976  r535  -1.0
    f1976  r1544  1.0
    f1977  OBJ  6.021613449681658
    f1977  r534  -1.0
    f1977  r535  1.0
    f1977  r1545  1.0
    f1978  OBJ  1.7925975732094421
    f1978  r534  1.0
    f1978  r546  -1.0
    f1978  r1546  1.0
    f1979  OBJ  1.9605881002043333
    f1979  r534  -1.0
    f1979  r546  1.0
    f1979  r1547  1.0
    f1980  OBJ  4.214847872386429
    f1980  r535  1.0
    f1980  r536  -1.0
    f1980  r1548  1.0
    f1981  OBJ  6.4358061135036415
    f1981  r535  -1.0
    f1981  r536  1.0
    f1981  r1549  1.0
    f1982  OBJ  8.791756014834748
    f1982  r535  1.0
    f1982  r547  -1.0
    f1982  r1550  1.0
    f1983  OBJ  8.906412266607497
    f1983  r535  -1.0
    f1983  r547  1.0
    f1983  r1551  1.0
    f1984  OBJ  9.642936026015834
    f1984  r536  1.0
    f1984  r537  -1.0
    f1984  r1552  1.0
    f1985  OBJ  8.74458457431033
    f1985  r536  -1.0
    f1985  r537  1.0
    f1985  r1553  1.0
    f1986  OBJ  4.632826881809093
    f1986  r536  1.0
    f1986  r548  -1.0
    f1986  r1554  1.0
    f1987  OBJ  6.036208381774288
    f1987  r536  -1.0
    f1987  r548  1.0
    f1987  r1555  1.0
    f1988  OBJ  1.5445529663505415
    f1988  r537  1.0
    f1988  r538  -1.0
    f1988  r1556  1.0
    f1989  OBJ  9.46800502409497
    f1989  r537  -1.0
    f1989  r538  1.0
    f1989  r1557  1.0
    f1990  OBJ  6.293069097224333
    f1990  r537  1.0
    f1990  r549  -1.0
    f1990  r1558  1.0
    f1991  OBJ  1.392109310130999
    f1991  r537  -1.0
    f1991  r549  1.0
    f1991  r1559  1.0
    f1992  OBJ  8.98243592093765
    f1992  r538  1.0
    f1992  r539  -1.0
    f1992  r1560  1.0
    f1993  OBJ  7.457874392090199
    f1993  r538  -1.0
    f1993  r539  1.0
    f1993  r1561  1.0
    f1994  OBJ  9.86636593405365
    f1994  r538  1.0
    f1994  r550  -1.0
    f1994  r1562  1.0
    f1995  OBJ  1.884113845238686
    f1995  r538  -1.0
    f1995  r550  1.0
    f1995  r1563  1.0
    f1996  OBJ  4.817695723273715
    f1996  r539  1.0
    f1996  r551  -1.0
    f1996  r1564  1.0
    f1997  OBJ  1.9663286839312208
    f1997  r539  -1.0
    f1997  r551  1.0
    f1997  r1565  1.0
    f1998  OBJ  9.466546608877756
    f1998  r540  1.0
    f1998  r541  -1.0
    f1998  r1566  1.0
    f1999  OBJ  2.35517321804957
    f1999  r540  -1.0
    f1999  r541  1.0
    f1999  r1567  1.0
    f2000  OBJ  7.463676282084244
    f2000  r540  1.0
    f2000  r552  -1.0
    f2000  r1568  1.0
    f2001  OBJ  7.092173550062428
    f2001  r540  -1.0
    f2001  r552  1.0
    f2001  r1569  1.0
    f2002  OBJ  6.419758665712502
    f2002  r541  1.0
    f2002  r542  -1.0
    f2002  r1570  1.0
    f2003  OBJ  5.28633868688531
    f2003  r541  -1.0
    f2003  r542  1.0
    f2003  r1571  1.0
    f2004  OBJ  4.866007560405688
    f2004  r541  1.0
    f2004  r553  -1.0
    f2004  r1572  1.0
    f2005  OBJ  8.167183958198226
    f2005  r541  -1.0
    f2005  r553  1.0
    f2005  r1573  1.0
    f2006  OBJ  6.429584491675617
    f2006  r542  1.0
    f2006  r543  -1.0
    f2006  r1574  1.0
    f2007  OBJ  4.055450924783071
    f2007  r542  -1.0
    f2007  r543  1.0
    f2007  r1575  1.0
    f2008  OBJ  7.581300347906965
    f2008  r542  1.0
    f2008  r554  -1.0
    f2008  r1576  1.0
    f2009  OBJ  7.0298196315608354
    f2009  r542  -1.0
    f2009  r554  1.0
    f2009  r1577  1.0
    f2010  OBJ  4.957681743166404
    f2010  r543  1.0
    f2010  r544  -1.0
    f2010  r1578  1.0
    f2011  OBJ  7.318285653973427
    f2011  r543  -1.0
    f2011  r544  1.0
    f2011  r1579  1.0
    f2012  OBJ  2.4897868945411625
    f2012  r543  1.0
    f2012  r555  -1.0
    f2012  r1580  1.0
    f2013  OBJ  4.850063341307448
    f2013  r543  -1.0
    f2013  r555  1.0
    f2013  r1581  1.0
    f2014  OBJ  8.033896025571028
    f2014  r544  1.0
    f2014  r545  -1.0
    f2014  r1582  1.0
    f2015  OBJ  8.097860416424329
    f2015  r544  -1.0
    f2015  r545  1.0
    f2015  r1583  1.0
    f2016  OBJ  7.774866557965757
    f2016  r544  1.0
    f2016  r556  -1.0
    f2016  r1584  1.0
    f2017  OBJ  9.98372389208314
    f2017  r544  -1.0
    f2017  r556  1.0
    f2017  r1585  1.0
    f2018  OBJ  4.51239723509016
    f2018  r545  1.0
    f2018  r546  -1.0
    f2018  r1586  1.0
    f2019  OBJ  9.22551467867278
    f2019  r545  -1.0
    f2019  r546  1.0
    f2019  r1587  1.0
    f2020  OBJ  7.985321819227965
    f2020  r545  1.0
    f2020  r557  -1.0
    f2020  r1588  1.0
    f2021  OBJ  7.853878487528075
    f2021  r545  -1.0
    f2021  r557  1.0
    f2021  r1589  1.0
    f2022  OBJ  3.8988307865943725
    f2022  r546  1.0
    f2022  r547  -1.0
    f2022  r1590  1.0
    f2023  OBJ  1.8213408431341964
    f2023  r546  -1.0
    f2023  r547  1.0
    f2023  r1591  1.0
    f2024  OBJ  7.923969680330949
    f2024  r546  1.0
    f2024  r558  -1.0
    f2024  r1592  1.0
    f2025  OBJ  1.563767453091939
    f2025  r546  -1.0
    f2025  r558  1.0
    f2025  r1593  1.0
    f2026  OBJ  6.935198814097371
    f2026  r547  1.0
    f2026  r548  -1.0
    f2026  r1594  1.0
    f2027  OBJ  1.140233599419127
    f2027  r547  -1.0
    f2027  r548  1.0
    f2027  r1595  1.0
    f2028  OBJ  2.667798011767858
    f2028  r547  1.0
    f2028  r559  -1.0
    f2028  r1596  1.0
    f2029  OBJ  4.993681071225831
    f2029  r547  -1.0
    f2029  r559  1.0
    f2029  r1597  1.0
    f2030  OBJ  8.51136799825362
    f2030  r548  1.0
    f2030  r549  -1.0
    f2030  r1598  1.0
    f2031  OBJ  3.6987857321639197
    f2031  r548  -1.0
    f2031  r549  1.0
    f2031  r1599  1.0
    f2032  OBJ  9.300556541774627
    f2032  r548  1.0
    f2032  r560  -1.0
    f2032  r1600  1.0
    f2033  OBJ  9.475496473088528
    f2033  r548  -1.0
    f2033  r560  1.0
    f2033  r1601  1.0
    f2034  OBJ  7.7584063045366145
    f2034  r549  1.0
    f2034  r550  -1.0
    f2034  r1602  1.0
    f2035  OBJ  4.126292753714269
    f2035  r549  -1.0
    f2035  r550  1.0
    f2035  r1603  1.0
    f2036  OBJ  5.0828380217659666
    f2036  r549  1.0
    f2036  r561  -1.0
    f2036  r1604  1.0
    f2037  OBJ  9.7307357511208
    f2037  r549  -1.0
    f2037  r561  1.0
    f2037  r1605  1.0
    f2038  OBJ  6.106322066837172
    f2038  r550  1.0
    f2038  r551  -1.0
    f2038  r1606  1.0
    f2039  OBJ  6.3511769264331015
    f2039  r550  -1.0
    f2039  r551  1.0
    f2039  r1607  1.0
    f2040  OBJ  6.085853555964545
    f2040  r550  1.0
    f2040  r562  -1.0
    f2040  r1608  1.0
    f2041  OBJ  2.4188610871705665
    f2041  r550  -1.0
    f2041  r562  1.0
    f2041  r1609  1.0
    f2042  OBJ  9.924103008796113
    f2042  r551  1.0
    f2042  r563  -1.0
    f2042  r1610  1.0
    f2043  OBJ  6.3299777034315134
    f2043  r551  -1.0
    f2043  r563  1.0
    f2043  r1611  1.0
    f2044  OBJ  7.109020812874268
    f2044  r552  1.0
    f2044  r553  -1.0
    f2044  r1612  1.0
    f2045  OBJ  8.310746585559563
    f2045  r552  -1.0
    f2045  r553  1.0
    f2045  r1613  1.0
    f2046  OBJ  5.443692129422634
    f2046  r552  1.0
    f2046  r564  -1.0
    f2046  r1614  1.0
    f2047  OBJ  3.231987722633258
    f2047  r552  -1.0
    f2047  r564  1.0
    f2047  r1615  1.0
    f2048  OBJ  9.430566867020026
    f2048  r553  1.0
    f2048  r554  -1.0
    f2048  r1616  1.0
    f2049  OBJ  2.595050864337804
    f2049  r553  -1.0
    f2049  r554  1.0
    f2049  r1617  1.0
    f2050  OBJ  4.318987023072978
    f2050  r553  1.0
    f2050  r565  -1.0
    f2050  r1618  1.0
    f2051  OBJ  7.329669428774082
    f2051  r553  -1.0
    f2051  r565  1.0
    f2051  r1619  1.0
    f2052  OBJ  4.9836887656897915
    f2052  r554  1.0
    f2052  r555  -1.0
    f2052  r1620  1.0
    f2053  OBJ  6.352318630146749
    f2053  r554  -1.0
    f2053  r555  1.0
    f2053  r1621  1.0
    f2054  OBJ  2.99987842617096
    f2054  r554  1.0
    f2054  r566  -1.0
    f2054  r1622  1.0
    f2055  OBJ  8.620083490919386
    f2055  r554  -1.0
    f2055  r566  1.0
    f2055  r1623  1.0
    f2056  OBJ  8.771843830234175
    f2056  r555  1.0
    f2056  r556  -1.0
    f2056  r1624  1.0
    f2057  OBJ  4.955466875694067
    f2057  r555  -1.0
    f2057  r556  1.0
    f2057  r1625  1.0
    f2058  OBJ  9.247771892131468
    f2058  r555  1.0
    f2058  r567  -1.0
    f2058  r1626  1.0
    f2059  OBJ  8.81945506426993
    f2059  r555  -1.0
    f2059  r567  1.0
    f2059  r1627  1.0
    f2060  OBJ  6.830438423101554
    f2060  r556  1.0
    f2060  r557  -1.0
    f2060  r1628  1.0
    f2061  OBJ  3.051525755682319
    f2061  r556  -1.0
    f2061  r557  1.0
    f2061  r1629  1.0
    f2062  OBJ  1.2806710336649478
    f2062  r556  1.0
    f2062  r568  -1.0
    f2062  r1630  1.0
    f2063  OBJ  9.385515893642298
    f2063  r556  -1.0
    f2063  r568  1.0
    f2063  r1631  1.0
    f2064  OBJ  9.347005011305704
    f2064  r557  1.0
    f2064  r558  -1.0
    f2064  r1632  1.0
    f2065  OBJ  6.523754702624132
    f2065  r557  -1.0
    f2065  r558  1.0
    f2065  r1633  1.0
    f2066  OBJ  5.84234211010877
    f2066  r557  1.0
    f2066  r569  -1.0
    f2066  r1634  1.0
    f2067  OBJ  7.604297408003552
    f2067  r557  -1.0
    f2067  r569  1.0
    f2067  r1635  1.0
    f2068  OBJ  4.560010615077432
    f2068  r558  1.0
    f2068  r559  -1.0
    f2068  r1636  1.0
    f2069  OBJ  3.8763856694749403
    f2069  r558  -1.0
    f2069  r559  1.0
    f2069  r1637  1.0
    f2070  OBJ  4.127448896846589
    f2070  r558  1.0
    f2070  r570  -1.0
    f2070  r1638  1.0
    f2071  OBJ  4.125540637571846
    f2071  r558  -1.0
    f2071  r570  1.0
    f2071  r1639  1.0
    f2072  OBJ  5.870489008294482
    f2072  r559  1.0
    f2072  r560  -1.0
    f2072  r1640  1.0
    f2073  OBJ  1.1227156697234932
    f2073  r559  -1.0
    f2073  r560  1.0
    f2073  r1641  1.0
    f2074  OBJ  3.021900054708767
    f2074  r559  1.0
    f2074  r571  -1.0
    f2074  r1642  1.0
    f2075  OBJ  6.057863150573489
    f2075  r559  -1.0
    f2075  r571  1.0
    f2075  r1643  1.0
    f2076  OBJ  8.96832750186815
    f2076  r560  1.0
    f2076  r561  -1.0
    f2076  r1644  1.0
    f2077  OBJ  5.719635655221788
    f2077  r560  -1.0
    f2077  r561  1.0
    f2077  r1645  1.0
    f2078  OBJ  3.5255293439735524
    f2078  r560  1.0
    f2078  r572  -1.0
    f2078  r1646  1.0
    f2079  OBJ  9.48611550989987
    f2079  r560  -1.0
    f2079  r572  1.0
    f2079  r1647  1.0
    f2080  OBJ  8.695746371993316
    f2080  r561  1.0
    f2080  r562  -1.0
    f2080  r1648  1.0
    f2081  OBJ  3.418278390810974
    f2081  r561  -1.0
    f2081  r562  1.0
    f2081  r1649  1.0
    f2082  OBJ  9.934860761595974
    f2082  r561  1.0
    f2082  r573  -1.0
    f2082  r1650  1.0
    f2083  OBJ  7.258274874710123
    f2083  r561  -1.0
    f2083  r573  1.0
    f2083  r1651  1.0
    f2084  OBJ  3.3328534298199513
    f2084  r562  1.0
    f2084  r563  -1.0
    f2084  r1652  1.0
    f2085  OBJ  6.492333955930169
    f2085  r562  -1.0
    f2085  r563  1.0
    f2085  r1653  1.0
    f2086  OBJ  3.9443539764031295
    f2086  r562  1.0
    f2086  r574  -1.0
    f2086  r1654  1.0
    f2087  OBJ  9.315480371727524
    f2087  r562  -1.0
    f2087  r574  1.0
    f2087  r1655  1.0
    f2088  OBJ  6.528412566194859
    f2088  r563  1.0
    f2088  r575  -1.0
    f2088  r1656  1.0
    f2089  OBJ  1.4574915159359643
    f2089  r563  -1.0
    f2089  r575  1.0
    f2089  r1657  1.0
    f2090  OBJ  5.63981982753051
    f2090  r564  1.0
    f2090  r565  -1.0
    f2090  r1658  1.0
    f2091  OBJ  5.910777857561307
    f2091  r564  -1.0
    f2091  r565  1.0
    f2091  r1659  1.0
    f2092  OBJ  8.376216960334341
    f2092  r565  1.0
    f2092  r566  -1.0
    f2092  r1660  1.0
    f2093  OBJ  9.490699764840153
    f2093  r565  -1.0
    f2093  r566  1.0
    f2093  r1661  1.0
    f2094  OBJ  7.1149043862629755
    f2094  r566  1.0
    f2094  r567  -1.0
    f2094  r1662  1.0
    f2095  OBJ  6.221105241873805
    f2095  r566  -1.0
    f2095  r567  1.0
    f2095  r1663  1.0
    f2096  OBJ  5.784367932215563
    f2096  r567  1.0
    f2096  r568  -1.0
    f2096  r1664  1.0
    f2097  OBJ  2.5502291518798677
    f2097  r567  -1.0
    f2097  r568  1.0
    f2097  r1665  1.0
    f2098  OBJ  7.63824342000365
    f2098  r568  1.0
    f2098  r569  -1.0
    f2098  r1666  1.0
    f2099  OBJ  5.508061229245426
    f2099  r568  -1.0
    f2099  r569  1.0
    f2099  r1667  1.0
    f2100  OBJ  4.575305739515346
    f2100  r569  1.0
    f2100  r570  -1.0
    f2100  r1668  1.0
    f2101  OBJ  7.753010370046059
    f2101  r569  -1.0
    f2101  r570  1.0
    f2101  r1669  1.0
    f2102  OBJ  4.2151623050292955
    f2102  r570  1.0
    f2102  r571  -1.0
    f2102  r1670  1.0
    f2103  OBJ  7.337043397927561
    f2103  r570  -1.0
    f2103  r571  1.0
    f2103  r1671  1.0
    f2104  OBJ  3.937409412500358
    f2104  r571  1.0
    f2104  r572  -1.0
    f2104  r1672  1.0
    f2105  OBJ  2.7093259789121125
    f2105  r571  -1.0
    f2105  r572  1.0
    f2105  r1673  1.0
    f2106  OBJ  6.030144895898163
    f2106  r572  1.0
    f2106  r573  -1.0
    f2106  r1674  1.0
    f2107  OBJ  9.248603140452367
    f2107  r572  -1.0
    f2107  r573  1.0
    f2107  r1675  1.0
    f2108  OBJ  2.7012102773291957
    f2108  r573  1.0
    f2108  r574  -1.0
    f2108  r1676  1.0
    f2109  OBJ  2.3516175236739865
    f2109  r573  -1.0
    f2109  r574  1.0
    f2109  r1677  1.0
    f2110  OBJ  3.8723982737810747
    f2110  r574  1.0
    f2110  r575  -1.0
    f2110  r1678  1.0
    f2111  OBJ  8.735968157581555
    f2111  r574  -1.0
    f2111  r575  1.0
    f2111  r1679  1.0
    f2112  OBJ  5.843479163247489
    f2112  r576  1.0
    f2112  r577  -1.0
    f2112  r1152  1.0
    f2113  OBJ  4.089437828320046
    f2113  r576  -1.0
    f2113  r577  1.0
    f2113  r1153  1.0
    f2114  OBJ  4.3216051581584045
    f2114  r576  1.0
    f2114  r588  -1.0
    f2114  r1154  1.0
    f2115  OBJ  4.3704708902909415
    f2115  r576  -1.0
    f2115  r588  1.0
    f2115  r1155  1.0
    f2116  OBJ  9.887004911678199
    f2116  r577  1.0
    f2116  r578  -1.0
    f2116  r1156  1.0
    f2117  OBJ  6.694806453464315
    f2117  r577  -1.0
    f2117  r578  1.0
    f2117  r1157  1.0
    f2118  OBJ  7.068915374540442
    f2118  r577  1.0
    f2118  r589  -1.0
    f2118  r1158  1.0
    f2119  OBJ  3.9696710984691252
    f2119  r577  -1.0
    f2119  r589  1.0
    f2119  r1159  1.0
    f2120  OBJ  7.119258950476201
    f2120  r578  1.0
    f2120  r579  -1.0
    f2120  r1160  1.0
    f2121  OBJ  2.1067513739847104
    f2121  r578  -1.0
    f2121  r579  1.0
    f2121  r1161  1.0
    f2122  OBJ  1.465563087853977
    f2122  r578  1.0
    f2122  r590  -1.0
    f2122  r1162  1.0
    f2123  OBJ  8.651722121279082
    f2123  r578  -1.0
    f2123  r590  1.0
    f2123  r1163  1.0
    f2124  OBJ  1.080062249818912
    f2124  r579  1.0
    f2124  r580  -1.0
    f2124  r1164  1.0
    f2125  OBJ  9.80890805966767
    f2125  r579  -1.0
    f2125  r580  1.0
    f2125  r1165  1.0
    f2126  OBJ  8.443027232371483
    f2126  r579  1.0
    f2126  r591  -1.0
    f2126  r1166  1.0
    f2127  OBJ  8.066898633937342
    f2127  r579  -1.0
    f2127  r591  1.0
    f2127  r1167  1.0
    f2128  OBJ  1.4327513830229184
    f2128  r580  1.0
    f2128  r581  -1.0
    f2128  r1168  1.0
    f2129  OBJ  2.8669533958627724
    f2129  r580  -1.0
    f2129  r581  1.0
    f2129  r1169  1.0
    f2130  OBJ  8.648790679856907
    f2130  r580  1.0
    f2130  r592  -1.0
    f2130  r1170  1.0
    f2131  OBJ  4.892453304895277
    f2131  r580  -1.0
    f2131  r592  1.0
    f2131  r1171  1.0
    f2132  OBJ  6.647211403327665
    f2132  r581  1.0
    f2132  r582  -1.0
    f2132  r1172  1.0
    f2133  OBJ  2.1005415892986745
    f2133  r581  -1.0
    f2133  r582  1.0
    f2133  r1173  1.0
    f2134  OBJ  2.677026868100466
    f2134  r581  1.0
    f2134  r593  -1.0
    f2134  r1174  1.0
    f2135  OBJ  5.4754112146732625
    f2135  r581  -1.0
    f2135  r593  1.0
    f2135  r1175  1.0
    f2136  OBJ  7.835199191401016
    f2136  r582  1.0
    f2136  r583  -1.0
    f2136  r1176  1.0
    f2137  OBJ  5.858714839099925
    f2137  r582  -1.0
    f2137  r583  1.0
    f2137  r1177  1.0
    f2138  OBJ  1.9619207071213822
    f2138  r582  1.0
    f2138  r594  -1.0
    f2138  r1178  1.0
    f2139  OBJ  8.795674706633884
    f2139  r582  -1.0
    f2139  r594  1.0
    f2139  r1179  1.0
    f2140  OBJ  2.2569301861673416
    f2140  r583  1.0
    f2140  r584  -1.0
    f2140  r1180  1.0
    f2141  OBJ  4.956919817610607
    f2141  r583  -1.0
    f2141  r584  1.0
    f2141  r1181  1.0
    f2142  OBJ  6.281645261000175
    f2142  r583  1.0
    f2142  r595  -1.0
    f2142  r1182  1.0
    f2143  OBJ  3.8723455215676785
    f2143  r583  -1.0
    f2143  r595  1.0
    f2143  r1183  1.0
    f2144  OBJ  4.762487492955011
    f2144  r584  1.0
    f2144  r585  -1.0
    f2144  r1184  1.0
    f2145  OBJ  8.982680417439596
    f2145  r584  -1.0
    f2145  r585  1.0
    f2145  r1185  1.0
    f2146  OBJ  5.087221314275144
    f2146  r584  1.0
    f2146  r596  -1.0
    f2146  r1186  1.0
    f2147  OBJ  5.853224012546842
    f2147  r584  -1.0
    f2147  r596  1.0
    f2147  r1187  1.0
    f2148  OBJ  9.734402369267295
    f2148  r585  1.0
    f2148  r586  -1.0
    f2148  r1188  1.0
    f2149  OBJ  3.4838482279023597
    f2149  r585  -1.0
    f2149  r586  1.0
    f2149  r1189  1.0
    f2150  OBJ  9.05311169099006
    f2150  r585  1.0
    f2150  r597  -1.0
    f2150  r1190  1.0
    f2151  OBJ  4.2566996928588825
    f2151  r585  -1.0
    f2151  r597  1.0
    f2151  r1191  1.0
    f2152  OBJ  3.808369156683992
    f2152  r586  1.0
    f2152  r587  -1.0
    f2152  r1192  1.0
    f2153  OBJ  8.931602750040451
    f2153  r586  -1.0
    f2153  r587  1.0
    f2153  r1193  1.0
    f2154  OBJ  1.5894707335339273
    f2154  r586  1.0
    f2154  r598  -1.0
    f2154  r1194  1.0
    f2155  OBJ  8.799896097198229
    f2155  r586  -1.0
    f2155  r598  1.0
    f2155  r1195  1.0
    f2156  OBJ  8.449908565840481
    f2156  r587  1.0
    f2156  r599  -1.0
    f2156  r1196  1.0
    f2157  OBJ  9.05243356990497
    f2157  r587  -1.0
    f2157  r599  1.0
    f2157  r1197  1.0
    f2158  OBJ  1.5378154068686039
    f2158  r588  1.0
    f2158  r589  -1.0
    f2158  r1198  1.0
    f2159  OBJ  3.149250350989603
    f2159  r588  -1.0
    f2159  r589  1.0
    f2159  r1199  1.0
    f2160  OBJ  7.9763825368893055
    f2160  r588  1.0
    f2160  r600  -1.0
    f2160  r1200  1.0
    f2161  OBJ  4.931650790463847
    f2161  r588  -1.0
    f2161  r600  1.0
    f2161  r1201  1.0
    f2162  OBJ  1.0478184276486595
    f2162  r589  1.0
    f2162  r590  -1.0
    f2162  r1202  1.0
    f2163  OBJ  7.233576589265234
    f2163  r589  -1.0
    f2163  r590  1.0
    f2163  r1203  1.0
    f2164  OBJ  8.197927065695021
    f2164  r589  1.0
    f2164  r601  -1.0
    f2164  r1204  1.0
    f2165  OBJ  9.76262446210192
    f2165  r589  -1.0
    f2165  r601  1.0
    f2165  r1205  1.0
    f2166  OBJ  2.3559771646767214
    f2166  r590  1.0
    f2166  r591  -1.0
    f2166  r1206  1.0
    f2167  OBJ  3.2675947743516294
    f2167  r590  -1.0
    f2167  r591  1.0
    f2167  r1207  1.0
    f2168  OBJ  8.57224532832835
    f2168  r590  1.0
    f2168  r602  -1.0
    f2168  r1208  1.0
    f2169  OBJ  1.8262821126624695
    f2169  r590  -1.0
    f2169  r602  1.0
    f2169  r1209  1.0
    f2170  OBJ  3.4684351148653563
    f2170  r591  1.0
    f2170  r592  -1.0
    f2170  r1210  1.0
    f2171  OBJ  5.0658643600840545
    f2171  r591  -1.0
    f2171  r592  1.0
    f2171  r1211  1.0
    f2172  OBJ  4.765085478036262
    f2172  r591  1.0
    f2172  r603  -1.0
    f2172  r1212  1.0
    f2173  OBJ  5.884605364467616
    f2173  r591  -1.0
    f2173  r603  1.0
    f2173  r1213  1.0
    f2174  OBJ  8.81815836304687
    f2174  r592  1.0
    f2174  r593  -1.0
    f2174  r1214  1.0
    f2175  OBJ  6.681370181670063
    f2175  r592  -1.0
    f2175  r593  1.0
    f2175  r1215  1.0
    f2176  OBJ  6.886000713302363
    f2176  r592  1.0
    f2176  r604  -1.0
    f2176  r1216  1.0
    f2177  OBJ  6.329994115698163
    f2177  r592  -1.0
    f2177  r604  1.0
    f2177  r1217  1.0
    f2178  OBJ  2.89745780656496
    f2178  r593  1.0
    f2178  r594  -1.0
    f2178  r1218  1.0
    f2179  OBJ  5.0469319805790125
    f2179  r593  -1.0
    f2179  r594  1.0
    f2179  r1219  1.0
    f2180  OBJ  9.887845518427142
    f2180  r593  1.0
    f2180  r605  -1.0
    f2180  r1220  1.0
    f2181  OBJ  9.18307383604957
    f2181  r593  -1.0
    f2181  r605  1.0
    f2181  r1221  1.0
    f2182  OBJ  7.906999714511775
    f2182  r594  1.0
    f2182  r595  -1.0
    f2182  r1222  1.0
    f2183  OBJ  5.803134985573417
    f2183  r594  -1.0
    f2183  r595  1.0
    f2183  r1223  1.0
    f2184  OBJ  8.819791935718182
    f2184  r594  1.0
    f2184  r606  -1.0
    f2184  r1224  1.0
    f2185  OBJ  6.677942196100848
    f2185  r594  -1.0
    f2185  r606  1.0
    f2185  r1225  1.0
    f2186  OBJ  4.578123395103715
    f2186  r595  1.0
    f2186  r596  -1.0
    f2186  r1226  1.0
    f2187  OBJ  5.73687696795246
    f2187  r595  -1.0
    f2187  r596  1.0
    f2187  r1227  1.0
    f2188  OBJ  2.7872516802821625
    f2188  r595  1.0
    f2188  r607  -1.0
    f2188  r1228  1.0
    f2189  OBJ  6.155381271827194
    f2189  r595  -1.0
    f2189  r607  1.0
    f2189  r1229  1.0
    f2190  OBJ  3.8226207491633226
    f2190  r596  1.0
    f2190  r597  -1.0
    f2190  r1230  1.0
    f2191  OBJ  8.032593923327084
    f2191  r596  -1.0
    f2191  r597  1.0
    f2191  r1231  1.0
    f2192  OBJ  8.447683803834597
    f2192  r596  1.0
    f2192  r608  -1.0
    f2192  r1232  1.0
    f2193  OBJ  9.944166781185652
    f2193  r596  -1.0
    f2193  r608  1.0
    f2193  r1233  1.0
    f2194  OBJ  8.514758067385708
    f2194  r597  1.0
    f2194  r598  -1.0
    f2194  r1234  1.0
    f2195  OBJ  1.5333702487229801
    f2195  r597  -1.0
    f2195  r598  1.0
    f2195  r1235  1.0
    f2196  OBJ  7.518931095523543
    f2196  r597  1.0
    f2196  r609  -1.0
    f2196  r1236  1.0
    f2197  OBJ  8.27361552637164
    f2197  r597  -1.0
    f2197  r609  1.0
    f2197  r1237  1.0
    f2198  OBJ  8.850179988841164
    f2198  r598  1.0
    f2198  r599  -1.0
    f2198  r1238  1.0
    f2199  OBJ  5.425049455804184
    f2199  r598  -1.0
    f2199  r599  1.0
    f2199  r1239  1.0
    f2200  OBJ  5.283204492205081
    f2200  r598  1.0
    f2200  r610  -1.0
    f2200  r1240  1.0
    f2201  OBJ  5.777322522458589
    f2201  r598  -1.0
    f2201  r610  1.0
    f2201  r1241  1.0
    f2202  OBJ  2.3943995005292793
    f2202  r599  1.0
    f2202  r611  -1.0
    f2202  r1242  1.0
    f2203  OBJ  9.612598334079014
    f2203  r599  -1.0
    f2203  r611  1.0
    f2203  r1243  1.0
    f2204  OBJ  9.883038452562197
    f2204  r600  1.0
    f2204  r601  -1.0
    f2204  r1244  1.0
    f2205  OBJ  3.3668479442769903
    f2205  r600  -1.0
    f2205  r601  1.0
    f2205  r1245  1.0
    f2206  OBJ  9.616025266298925
    f2206  r600  1.0
    f2206  r612  -1.0
    f2206  r1246  1.0
    f2207  OBJ  2.8739629222224314
    f2207  r600  -1.0
    f2207  r612  1.0
    f2207  r1247  1.0
    f2208  OBJ  1.762693526837991
    f2208  r601  1.0
    f2208  r602  -1.0
    f2208  r1248  1.0
    f2209  OBJ  7.590067761304782
    f2209  r601  -1.0
    f2209  r602  1.0
    f2209  r1249  1.0
    f2210  OBJ  8.347655313259235
    f2210  r601  1.0
    f2210  r613  -1.0
    f2210  r1250  1.0
    f2211  OBJ  2.7975568257531913
    f2211  r601  -1.0
    f2211  r613  1.0
    f2211  r1251  1.0
    f2212  OBJ  9.583816133482737
    f2212  r602  1.0
    f2212  r603  -1.0
    f2212  r1252  1.0
    f2213  OBJ  4.597594046544144
    f2213  r602  -1.0
    f2213  r603  1.0
    f2213  r1253  1.0
    f2214  OBJ  2.672812870364235
    f2214  r602  1.0
    f2214  r614  -1.0
    f2214  r1254  1.0
    f2215  OBJ  3.705170203073723
    f2215  r602  -1.0
    f2215  r614  1.0
    f2215  r1255  1.0
    f2216  OBJ  2.0152999326320273
    f2216  r603  1.0
    f2216  r604  -1.0
    f2216  r1256  1.0
    f2217  OBJ  7.946388238006956
    f2217  r603  -1.0
    f2217  r604  1.0
    f2217  r1257  1.0
    f2218  OBJ  3.567815501244076
    f2218  r603  1.0
    f2218  r615  -1.0
    f2218  r1258  1.0
    f2219  OBJ  7.2396648493583475
    f2219  r603  -1.0
    f2219  r615  1.0
    f2219  r1259  1.0
    f2220  OBJ  5.148136829860446
    f2220  r604  1.0
    f2220  r605  -1.0
    f2220  r1260  1.0
    f2221  OBJ  2.1247572946633198
    f2221  r604  -1.0
    f2221  r605  1.0
    f2221  r1261  1.0
    f2222  OBJ  6.285209035118809
    f2222  r604  1.0
    f2222  r616  -1.0
    f2222  r1262  1.0
    f2223  OBJ  9.70457902276835
    f2223  r604  -1.0
    f2223  r616  1.0
    f2223  r1263  1.0
    f2224  OBJ  2.6638345376764683
    f2224  r605  1.0
    f2224  r606  -1.0
    f2224  r1264  1.0
    f2225  OBJ  9.663170978821231
    f2225  r605  -1.0
    f2225  r606  1.0
    f2225  r1265  1.0
    f2226  OBJ  2.062633599647878
    f2226  r605  1.0
    f2226  r617  -1.0
    f2226  r1266  1.0
    f2227  OBJ  6.187847879545351
    f2227  r605  -1.0
    f2227  r617  1.0
    f2227  r1267  1.0
    f2228  OBJ  2.562195711301708
    f2228  r606  1.0
    f2228  r607  -1.0
    f2228  r1268  1.0
    f2229  OBJ  9.963749442046902
    f2229  r606  -1.0
    f2229  r607  1.0
    f2229  r1269  1.0
    f2230  OBJ  5.948103521283666
    f2230  r606  1.0
    f2230  r618  -1.0
    f2230  r1270  1.0
    f2231  OBJ  8.84549741097349
    f2231  r606  -1.0
    f2231  r618  1.0
    f2231  r1271  1.0
    f2232  OBJ  7.367531877451553
    f2232  r607  1.0
    f2232  r608  -1.0
    f2232  r1272  1.0
    f2233  OBJ  5.0370586039786325
    f2233  r607  -1.0
    f2233  r608  1.0
    f2233  r1273  1.0
    f2234  OBJ  3.3365114494583135
    f2234  r607  1.0
    f2234  r619  -1.0
    f2234  r1274  1.0
    f2235  OBJ  8.848940341217338
    f2235  r607  -1.0
    f2235  r619  1.0
    f2235  r1275  1.0
    f2236  OBJ  8.967469784989184
    f2236  r608  1.0
    f2236  r609  -1.0
    f2236  r1276  1.0
    f2237  OBJ  8.056301029276604
    f2237  r608  -1.0
    f2237  r609  1.0
    f2237  r1277  1.0
    f2238  OBJ  8.261799444070519
    f2238  r608  1.0
    f2238  r620  -1.0
    f2238  r1278  1.0
    f2239  OBJ  1.3756333709345163
    f2239  r608  -1.0
    f2239  r620  1.0
    f2239  r1279  1.0
    f2240  OBJ  2.9712054557253227
    f2240  r609  1.0
    f2240  r610  -1.0
    f2240  r1280  1.0
    f2241  OBJ  5.990844544374253
    f2241  r609  -1.0
    f2241  r610  1.0
    f2241  r1281  1.0
    f2242  OBJ  1.7070566561872171
    f2242  r609  1.0
    f2242  r621  -1.0
    f2242  r1282  1.0
    f2243  OBJ  6.312234646179124
    f2243  r609  -1.0
    f2243  r621  1.0
    f2243  r1283  1.0
    f2244  OBJ  9.525295460899232
    f2244  r610  1.0
    f2244  r611  -1.0
    f2244  r1284  1.0
    f2245  OBJ  4.184128114500217
    f2245  r610  -1.0
    f2245  r611  1.0
    f2245  r1285  1.0
    f2246  OBJ  7.213383032669854
    f2246  r610  1.0
    f2246  r622  -1.0
    f2246  r1286  1.0
    f2247  OBJ  2.817068174308163
    f2247  r610  -1.0
    f2247  r622  1.0
    f2247  r1287  1.0
    f2248  OBJ  8.168247031162272
    f2248  r611  1.0
    f2248  r623  -1.0
    f2248  r1288  1.0
    f2249  OBJ  9.067977953848253
    f2249  r611  -1.0
    f2249  r623  1.0
    f2249  r1289  1.0
    f2250  OBJ  8.33711188653524
    f2250  r612  1.0
    f2250  r613  -1.0
    f2250  r1290  1.0
    f2251  OBJ  4.966699573658781
    f2251  r612  -1.0
    f2251  r613  1.0
    f2251  r1291  1.0
    f2252  OBJ  4.134208441347036
    f2252  r612  1.0
    f2252  r624  -1.0
    f2252  r1292  1.0
    f2253  OBJ  1.7537281635671031
    f2253  r612  -1.0
    f2253  r624  1.0
    f2253  r1293  1.0
    f2254  OBJ  8.63183269121383
    f2254  r613  1.0
    f2254  r614  -1.0
    f2254  r1294  1.0
    f2255  OBJ  9.134382435850736
    f2255  r613  -1.0
    f2255  r614  1.0
    f2255  r1295  1.0
    f2256  OBJ  6.026333765246144
    f2256  r613  1.0
    f2256  r625  -1.0
    f2256  r1296  1.0
    f2257  OBJ  7.877137223459138
    f2257  r613  -1.0
    f2257  r625  1.0
    f2257  r1297  1.0
    f2258  OBJ  3.051016504982827
    f2258  r614  1.0
    f2258  r615  -1.0
    f2258  r1298  1.0
    f2259  OBJ  7.803565893682319
    f2259  r614  -1.0
    f2259  r615  1.0
    f2259  r1299  1.0
    f2260  OBJ  3.2478880841995856
    f2260  r614  1.0
    f2260  r626  -1.0
    f2260  r1300  1.0
    f2261  OBJ  7.561582696471492
    f2261  r614  -1.0
    f2261  r626  1.0
    f2261  r1301  1.0
    f2262  OBJ  1.1077465912219826
    f2262  r615  1.0
    f2262  r616  -1.0
    f2262  r1302  1.0
    f2263  OBJ  4.462274498932999
    f2263  r615  -1.0
    f2263  r616  1.0
    f2263  r1303  1.0
    f2264  OBJ  3.143718312821855
    f2264  r615  1.0
    f2264  r627  -1.0
    f2264  r1304  1.0
    f2265  OBJ  1.3637892144637211
    f2265  r615  -1.0
    f2265  r627  1.0
    f2265  r1305  1.0
    f2266  OBJ  3.33536780497219
    f2266  r616  1.0
    f2266  r617  -1.0
    f2266  r1306  1.0
    f2267  OBJ  9.266985127160817
    f2267  r616  -1.0
    f2267  r617  1.0
    f2267  r1307  1.0
    f2268  OBJ  3.722854116303524
    f2268  r616  1.0
    f2268  r628  -1.0
    f2268  r1308  1.0
    f2269  OBJ  2.0478493989999245
    f2269  r616  -1.0
    f2269  r628  1.0
    f2269  r1309  1.0
    f2270  OBJ  7.001245287843152
    f2270  r617  1.0
    f2270  r618  -1.0
    f2270  r1310  1.0
    f2271  OBJ  7.9504753566883855
    f2271  r617  -1.0
    f2271  r618  1.0
    f2271  r1311  1.0
    f2272  OBJ  4.103119615708474
    f2272  r617  1.0
    f2272  r629  -1.0
    f2272  r1312  1.0
    f2273  OBJ  9.309033217289178
    f2273  r617  -1.0
    f2273  r629  1.0
    f2273  r1313  1.0
    f2274  OBJ  7.2741644884964956
    f2274  r618  1.0
    f2274  r619  -1.0
    f2274  r1314  1.0
    f2275  OBJ  5.837914239590002
    f2275  r618  -1.0
    f2275  r619  1.0
    f2275  r1315  1.0
    f2276  OBJ  9.069344515184543
    f2276  r618  1.0
    f2276  r630  -1.0
    f2276  r1316  1.0
    f2277  OBJ  8.28092182168296
    f2277  r618  -1.0
    f2277  r630  1.0
    f2277  r1317  1.0
    f2278  OBJ  6.438311445129069
    f2278  r619  1.0
    f2278  r620  -1.0
    f2278  r1318  1.0
    f2279  OBJ  3.2615425620963867
    f2279  r619  -1.0
    f2279  r620  1.0
    f2279  r1319  1.0
    f2280  OBJ  5.702488824101116
    f2280  r619  1.0
    f2280  r631  -1.0
    f2280  r1320  1.0
    f2281  OBJ  6.5851428786607675
    f2281  r619  -1.0
    f2281  r631  1.0
    f2281  r1321  1.0
    f2282  OBJ  9.071908100696
    f2282  r620  1.0
    f2282  r621  -1.0
    f2282  r1322  1.0
    f2283  OBJ  9.449913545414963
    f2283  r620  -1.0
    f2283  r621  1.0
    f2283  r1323  1.0
    f2284  OBJ  1.5526027546476011
    f2284  r620  1.0
    f2284  r632  -1.0
    f2284  r1324  1.0
    f2285  OBJ  5.740635528499118
    f2285  r620  -1.0
    f2285  r632  1.0
    f2285  r1325  1.0
    f2286  OBJ  9.43475860238855
    f2286  r621  1.0
    f2286  r622  -1.0
    f2286  r1326  1.0
    f2287  OBJ  4.879177272008489
    f2287  r621  -1.0
    f2287  r622  1.0
    f2287  r1327  1.0
    f2288  OBJ  7.784157847221835
    f2288  r621  1.0
    f2288  r633  -1.0
    f2288  r1328  1.0
    f2289  OBJ  3.067777991068951
    f2289  r621  -1.0
    f2289  r633  1.0
    f2289  r1329  1.0
    f2290  OBJ  8.840366234762376
    f2290  r622  1.0
    f2290  r623  -1.0
    f2290  r1330  1.0
    f2291  OBJ  2.569338415546724
    f2291  r622  -1.0
    f2291  r623  1.0
    f2291  r1331  1.0
    f2292  OBJ  3.3569594822839144
    f2292  r622  1.0
    f2292  r634  -1.0
    f2292  r1332  1.0
    f2293  OBJ  3.2123559621221753
    f2293  r622  -1.0
    f2293  r634  1.0
    f2293  r1333  1.0
    f2294  OBJ  2.2788823876101647
    f2294  r623  1.0
    f2294  r635  -1.0
    f2294  r1334  1.0
    f2295  OBJ  7.024989198482375
    f2295  r623  -1.0
    f2295  r635  1.0
    f2295  r1335  1.0
    f2296  OBJ  8.584841705834307
    f2296  r624  1.0
    f2296  r625  -1.0
    f2296  r1336  1.0
    f2297  OBJ  2.4180513221150917
    f2297  r624  -1.0
    f2297  r625  1.0
    f2297  r1337  1.0
    f2298  OBJ  2.7928105422408227
    f2298  r624  1.0
    f2298  r636  -1.0
    f2298  r1338  1.0
    f2299  OBJ  4.576467726391256
    f2299  r624  -1.0
    f2299  r636  1.0
    f2299  r1339  1.0
    f2300  OBJ  3.707947218147749
    f2300  r625  1.0
    f2300  r626  -1.0
    f2300  r1340  1.0
    f2301  OBJ  6.741770927053644
    f2301  r625  -1.0
    f2301  r626  1.0
    f2301  r1341  1.0
    f2302  OBJ  2.053531136352788
    f2302  r625  1.0
    f2302  r637  -1.0
    f2302  r1342  1.0
    f2303  OBJ  6.243616247545115
    f2303  r625  -1.0
    f2303  r637  1.0
    f2303  r1343  1.0
    f2304  OBJ  5.533037581812857
    f2304  r626  1.0
    f2304  r627  -1.0
    f2304  r1344  1.0
    f2305  OBJ  2.057070778845458
    f2305  r626  -1.0
    f2305  r627  1.0
    f2305  r1345  1.0
    f2306  OBJ  5.03319964067469
    f2306  r626  1.0
    f2306  r638  -1.0
    f2306  r1346  1.0
    f2307  OBJ  4.372981205688504
    f2307  r626  -1.0
    f2307  r638  1.0
    f2307  r1347  1.0
    f2308  OBJ  1.6071602069885822
    f2308  r627  1.0
    f2308  r628  -1.0
    f2308  r1348  1.0
    f2309  OBJ  3.932915843468632
    f2309  r627  -1.0
    f2309  r628  1.0
    f2309  r1349  1.0
    f2310  OBJ  6.784274421345183
    f2310  r627  1.0
    f2310  r639  -1.0
    f2310  r1350  1.0
    f2311  OBJ  8.87767040252694
    f2311  r627  -1.0
    f2311  r639  1.0
    f2311  r1351  1.0
    f2312  OBJ  9.57364570157721
    f2312  r628  1.0
    f2312  r629  -1.0
    f2312  r1352  1.0
    f2313  OBJ  7.629171914559498
    f2313  r628  -1.0
    f2313  r629  1.0
    f2313  r1353  1.0
    f2314  OBJ  4.673521736950686
    f2314  r628  1.0
    f2314  r640  -1.0
    f2314  r1354  1.0
    f2315  OBJ  2.3395263729787823
    f2315  r628  -1.0
    f2315  r640  1.0
    f2315  r1355  1.0
    f2316  OBJ  7.148071082372267
    f2316  r629  1.0
    f2316  r630  -1.0
    f2316  r1356  1.0
    f2317  OBJ  6.157914246676193
    f2317  r629  -1.0
    f2317  r630  1.0
    f2317  r1357  1.0
    f2318  OBJ  8.750560649496279
    f2318  r629  1.0
    f2318  r641  -1.0
    f2318  r1358  1.0
    f2319  OBJ  3.3051466646524137
    f2319  r629  -1.0
    f2319  r641  1.0
    f2319  r1359  1.0
    f2320  OBJ  6.912073358897169
    f2320  r630  1.0
    f2320  r631  -1.0
    f2320  r1360  1.0
    f2321  OBJ  1.8413904953890992
    f2321  r630  -1.0
    f2321  r631  1.0
    f2321  r1361  1.0
    f2322  OBJ  3.7859444762361294
    f2322  r630  1.0
    f2322  r642  -1.0
    f2322  r1362  1.0
    f2323  OBJ  4.880219335322179
    f2323  r630  -1.0
    f2323  r642  1.0
    f2323  r1363  1.0
    f2324  OBJ  8.248199274184902
    f2324  r631  1.0
    f2324  r632  -1.0
    f2324  r1364  1.0
    f2325  OBJ  4.129360889985302
    f2325  r631  -1.0
    f2325  r632  1.0
    f2325  r1365  1.0
    f2326  OBJ  6.570008312930026
    f2326  r631  1.0
    f2326  r643  -1.0
    f2326  r1366  1.0
    f2327  OBJ  9.874236205574777
    f2327  r631  -1.0
    f2327  r643  1.0
    f2327  r1367  1.0
    f2328  OBJ  9.51646875545354
    f2328  r632  1.0
    f2328  r633  -1.0
    f2328  r1368  1.0
    f2329  OBJ  5.298509275495396
    f2329  r632  -1.0
    f2329  r633  1.0
    f2329  r1369  1.0
    f2330  OBJ  2.8837232785759013
    f2330  r632  1.0
    f2330  r644  -1.0
    f2330  r1370  1.0
    f2331  OBJ  6.539390050808525
    f2331  r632  -1.0
    f2331  r644  1.0
    f2331  r1371  1.0
    f2332  OBJ  8.141807889146136
    f2332  r633  1.0
    f2332  r634  -1.0
    f2332  r1372  1.0
    f2333  OBJ  6.344872540246349
    f2333  r633  -1.0
    f2333  r634  1.0
    f2333  r1373  1.0
    f2334  OBJ  7.7292342535858936
    f2334  r633  1.0
    f2334  r645  -1.0
    f2334  r1374  1.0
    f2335  OBJ  2.919929548367037
    f2335  r633  -1.0
    f2335  r645  1.0
    f2335  r1375  1.0
    f2336  OBJ  3.5722688038057053
    f2336  r634  1.0
    f2336  r635  -1.0
    f2336  r1376  1.0
    f2337  OBJ  2.4058364065093754
    f2337  r634  -1.0
    f2337  r635  1.0
    f2337  r1377  1.0
    f2338  OBJ  1.5181313304897963
    f2338  r634  1.0
    f2338  r646  -1.0
    f2338  r1378  1.0
    f2339  OBJ  5.14441361017963
    f2339  r634  -1.0
    f2339  r646  1.0
    f2339  r1379  1.0
    f2340  OBJ  7.958578806368944
    f2340  r635  1.0
    f2340  r647  -1.0
    f2340  r1380  1.0
    f2341  OBJ  4.369669474409982
    f2341  r635  -1.0
    f2341  r647  1.0
    f2341  r1381  1.0
    f2342  OBJ  9.578268517437737
    f2342  r636  1.0
    f2342  r637  -1.0
    f2342  r1382  1.0
    f2343  OBJ  4.162536277129916
    f2343  r636  -1.0
    f2343  r637  1.0
    f2343  r1383  1.0
    f2344  OBJ  4.426687129543275
    f2344  r636  1.0
    f2344  r648  -1.0
    f2344  r1384  1.0
    f2345  OBJ  8.671251806248794
    f2345  r636  -1.0
    f2345  r648  1.0
    f2345  r1385  1.0
    f2346  OBJ  6.942519417241746
    f2346  r637  1.0
    f2346  r638  -1.0
    f2346  r1386  1.0
    f2347  OBJ  5.8091713864273
    f2347  r637  -1.0
    f2347  r638  1.0
    f2347  r1387  1.0
    f2348  OBJ  3.1250306131869907
    f2348  r637  1.0
    f2348  r649  -1.0
    f2348  r1388  1.0
    f2349  OBJ  1.7881153042109728
    f2349  r637  -1.0
    f2349  r649  1.0
    f2349  r1389  1.0
    f2350  OBJ  2.4738175169074745
    f2350  r638  1.0
    f2350  r639  -1.0
    f2350  r1390  1.0
    f2351  OBJ  2.4884050604864716
    f2351  r638  -1.0
    f2351  r639  1.0
    f2351  r1391  1.0
    f2352  OBJ  4.770114184150721
    f2352  r638  1.0
    f2352  r650  -1.0
    f2352  r1392  1.0
    f2353  OBJ  3.9764102922479694
    f2353  r638  -1.0
    f2353  r650  1.0
    f2353  r1393  1.0
    f2354  OBJ  5.924309803353416
    f2354  r639  1.0
    f2354  r640  -1.0
    f2354  r1394  1.0
    f2355  OBJ  3.3385493242589894
    f2355  r639  -1.0
    f2355  r640  1.0
    f2355  r1395  1.0
    f2356  OBJ  7.144749280430248
    f2356  r639  1.0
    f2356  r651  -1.0
    f2356  r1396  1.0
    f2357  OBJ  9.515200012995304
    f2357  r639  -1.0
    f2357  r651  1.0
    f2357  r1397  1.0
    f2358  OBJ  8.36033005720306
    f2358  r640  1.0
    f2358  r641  -1.0
    f2358  r1398  1.0
    f2359  OBJ  6.18865062078726
    f2359  r640  -1.0
    f2359  r641  1.0
    f2359  r1399  1.0
    f2360  OBJ  3.3278283690821286
    f2360  r640  1.0
    f2360  r652  -1.0
    f2360  r1400  1.0
    f2361  OBJ  8.118879965779355
    f2361  r640  -1.0
    f2361  r652  1.0
    f2361  r1401  1.0
    f2362  OBJ  8.525642503999077
    f2362  r641  1.0
    f2362  r642  -1.0
    f2362  r1402  1.0
    f2363  OBJ  1.8471927545361946
    f2363  r641  -1.0
    f2363  r642  1.0
    f2363  r1403  1.0
    f2364  OBJ  8.617861454104808
    f2364  r641  1.0
    f2364  r653  -1.0
    f2364  r1404  1.0
    f2365  OBJ  9.28184385663278
    f2365  r641  -1.0
    f2365  r653  1.0
    f2365  r1405  1.0
    f2366  OBJ  2.8218006430295373
    f2366  r642  1.0
    f2366  r643  -1.0
    f2366  r1406  1.0
    f2367  OBJ  2.651246163103225
    f2367  r642  -1.0
    f2367  r643  1.0
    f2367  r1407  1.0
    f2368  OBJ  7.5372506585615735
    f2368  r642  1.0
    f2368  r654  -1.0
    f2368  r1408  1.0
    f2369  OBJ  5.323717629241309
    f2369  r642  -1.0
    f2369  r654  1.0
    f2369  r1409  1.0
    f2370  OBJ  1.6656547324045405
    f2370  r643  1.0
    f2370  r644  -1.0
    f2370  r1410  1.0
    f2371  OBJ  6.520511657077648
    f2371  r643  -1.0
    f2371  r644  1.0
    f2371  r1411  1.0
    f2372  OBJ  8.462742992442585
    f2372  r643  1.0
    f2372  r655  -1.0
    f2372  r1412  1.0
    f2373  OBJ  7.562753261045978
    f2373  r643  -1.0
    f2373  r655  1.0
    f2373  r1413  1.0
    f2374  OBJ  1.4579849945343457
    f2374  r644  1.0
    f2374  r645  -1.0
    f2374  r1414  1.0
    f2375  OBJ  1.3840722864476893
    f2375  r644  -1.0
    f2375  r645  1.0
    f2375  r1415  1.0
    f2376  OBJ  5.6617811913676315
    f2376  r644  1.0
    f2376  r656  -1.0
    f2376  r1416  1.0
    f2377  OBJ  6.919498005080287
    f2377  r644  -1.0
    f2377  r656  1.0
    f2377  r1417  1.0
    f2378  OBJ  9.285794023306087
    f2378  r645  1.0
    f2378  r646  -1.0
    f2378  r1418  1.0
    f2379  OBJ  7.3993322363938745
    f2379  r645  -1.0
    f2379  r646  1.0
    f2379  r1419  1.0
    f2380  OBJ  7.101977977434503
    f2380  r645  1.0
    f2380  r657  -1.0
    f2380  r1420  1.0
    f2381  OBJ  8.876980031369033
    f2381  r645  -1.0
    f2381  r657  1.0
    f2381  r1421  1.0
    f2382  OBJ  4.66136303553649
    f2382  r646  1.0
    f2382  r647  -1.0
    f2382  r1422  1.0
    f2383  OBJ  2.547443857546328
    f2383  r646  -1.0
    f2383  r647  1.0
    f2383  r1423  1.0
    f2384  OBJ  2.0348893291575196
    f2384  r646  1.0
    f2384  r658  -1.0
    f2384  r1424  1.0
    f2385  OBJ  4.213952179581336
    f2385  r646  -1.0
    f2385  r658  1.0
    f2385  r1425  1.0
    f2386  OBJ  8.779879443746765
    f2386  r647  1.0
    f2386  r659  -1.0
    f2386  r1426  1.0
    f2387  OBJ  5.940792123148839
    f2387  r647  -1.0
    f2387  r659  1.0
    f2387  r1427  1.0
    f2388  OBJ  1.3920125076769931
    f2388  r648  1.0
    f2388  r649  -1.0
    f2388  r1428  1.0
    f2389  OBJ  9.163801058965287
    f2389  r648  -1.0
    f2389  r649  1.0
    f2389  r1429  1.0
    f2390  OBJ  8.413501768673024
    f2390  r648  1.0
    f2390  r660  -1.0
    f2390  r1430  1.0
    f2391  OBJ  1.5022974905585167
    f2391  r648  -1.0
    f2391  r660  1.0
    f2391  r1431  1.0
    f2392  OBJ  8.073763821337996
    f2392  r649  1.0
    f2392  r650  -1.0
    f2392  r1432  1.0
    f2393  OBJ  2.641997978893971
    f2393  r649  -1.0
    f2393  r650  1.0
    f2393  r1433  1.0
    f2394  OBJ  1.4524969311091085
    f2394  r649  1.0
    f2394  r661  -1.0
    f2394  r1434  1.0
    f2395  OBJ  4.560439970223803
    f2395  r649  -1.0
    f2395  r661  1.0
    f2395  r1435  1.0
    f2396  OBJ  7.349986377101174
    f2396  r650  1.0
    f2396  r651  -1.0
    f2396  r1436  1.0
    f2397  OBJ  3.4211263859867955
    f2397  r650  -1.0
    f2397  r651  1.0
    f2397  r1437  1.0
    f2398  OBJ  4.886653339206574
    f2398  r650  1.0
    f2398  r662  -1.0
    f2398  r1438  1.0
    f2399  OBJ  8.553204349239795
    f2399  r650  -1.0
    f2399  r662  1.0
    f2399  r1439  1.0
    f2400  OBJ  2.0931257120590527
    f2400  r651  1.0
    f2400  r652  -1.0
    f2400  r1440  1.0
    f2401  OBJ  6.764007836463744
    f2401  r651  -1.0
    f2401  r652  1.0
    f2401  r1441  1.0
    f2402  OBJ  3.8351177230513684
    f2402  r651  1.0
    f2402  r663  -1.0
    f2402  r1442  1.0
    f2403  OBJ  1.553625881370926
    f2403  r651  -1.0
    f2403  r663  1.0
    f2403  r1443  1.0
    f2404  OBJ  7.872044218655729
    f2404  r652  1.0
    f2404  r653  -1.0
    f2404  r1444  1.0
    f2405  OBJ  7.06928082643932
    f2405  r652  -1.0
    f2405  r653  1.0
    f2405  r1445  1.0
    f2406  OBJ  5.150207075823104
    f2406  r652  1.0
    f2406  r664  -1.0
    f2406  r1446  1.0
    f2407  OBJ  5.202706668736231
    f2407  r652  -1.0
    f2407  r664  1.0
    f2407  r1447  1.0
    f2408  OBJ  4.495388412323753
    f2408  r653  1.0
    f2408  r654  -1.0
    f2408  r1448  1.0
    f2409  OBJ  7.119590207632811
    f2409  r653  -1.0
    f2409  r654  1.0
    f2409  r1449  1.0
    f2410  OBJ  1.0846305661855613
    f2410  r653  1.0
    f2410  r665  -1.0
    f2410  r1450  1.0
    f2411  OBJ  1.9779784306069956
    f2411  r653  -1.0
    f2411  r665  1.0
    f2411  r1451  1.0
    f2412  OBJ  1.7656223383448246
    f2412  r654  1.0
    f2412  r655  -1.0
    f2412  r1452  1.0
    f2413  OBJ  1.9757356636276593
    f2413  r654  -1.0
    f2413  r655  1.0
    f2413  r1453  1.0
    f2414  OBJ  5.984399077982553
    f2414  r654  1.0
    f2414  r666  -1.0
    f2414  r1454  1.0
    f2415  OBJ  4.751953812845244
    f2415  r654  -1.0
    f2415  r666  1.0
    f2415  r1455  1.0
    f2416  OBJ  6.911526938116024
    f2416  r655  1.0
    f2416  r656  -1.0
    f2416  r1456  1.0
    f2417  OBJ  5.701495629352302
    f2417  r655  -1.0
    f2417  r656  1.0
    f2417  r1457  1.0
    f2418  OBJ  8.044580428570983
    f2418  r655  1.0
    f2418  r667  -1.0
    f2418  r1458  1.0
    f2419  OBJ  7.324669472023794
    f2419  r655  -1.0
    f2419  r667  1.0
    f2419  r1459  1.0
    f2420  OBJ  1.314066547938094
    f2420  r656  1.0
    f2420  r657  -1.0
    f2420  r1460  1.0
    f2421  OBJ  1.7861996272793332
    f2421  r656  -1.0
    f2421  r657  1.0
    f2421  r1461  1.0
    f2422  OBJ  6.983858312706064
    f2422  r656  1.0
    f2422  r668  -1.0
    f2422  r1462  1.0
    f2423  OBJ  8.675731147502312
    f2423  r656  -1.0
    f2423  r668  1.0
    f2423  r1463  1.0
    f2424  OBJ  8.427046161750996
    f2424  r657  1.0
    f2424  r658  -1.0
    f2424  r1464  1.0
    f2425  OBJ  1.8228964051985819
    f2425  r657  -1.0
    f2425  r658  1.0
    f2425  r1465  1.0
    f2426  OBJ  6.409233468018879
    f2426  r657  1.0
    f2426  r669  -1.0
    f2426  r1466  1.0
    f2427  OBJ  2.3497677657611447
    f2427  r657  -1.0
    f2427  r669  1.0
    f2427  r1467  1.0
    f2428  OBJ  3.7086207054581948
    f2428  r658  1.0
    f2428  r659  -1.0
    f2428  r1468  1.0
    f2429  OBJ  8.65715624722977
    f2429  r658  -1.0
    f2429  r659  1.0
    f2429  r1469  1.0
    f2430  OBJ  6.595096110933911
    f2430  r658  1.0
    f2430  r670  -1.0
    f2430  r1470  1.0
    f2431  OBJ  8.537672872213488
    f2431  r658  -1.0
    f2431  r670  1.0
    f2431  r1471  1.0
    f2432  OBJ  6.4434897279176155
    f2432  r659  1.0
    f2432  r671  -1.0
    f2432  r1472  1.0
    f2433  OBJ  9.13032417858997
    f2433  r659  -1.0
    f2433  r671  1.0
    f2433  r1473  1.0
    f2434  OBJ  3.4661275108262677
    f2434  r660  1.0
    f2434  r661  -1.0
    f2434  r1474  1.0
    f2435  OBJ  5.314808375552716
    f2435  r660  -1.0
    f2435  r661  1.0
    f2435  r1475  1.0
    f2436  OBJ  9.415650543340698
    f2436  r660  1.0
    f2436  r672  -1.0
    f2436  r1476  1.0
    f2437  OBJ  7.876608463745178
    f2437  r660  -1.0
    f2437  r672  1.0
    f2437  r1477  1.0
    f2438  OBJ  1.4555185085717608
    f2438  r661  1.0
    f2438  r662  -1.0
    f2438  r1478  1.0
    f2439  OBJ  2.8941717934539652
    f2439  r661  -1.0
    f2439  r662  1.0
    f2439  r1479  1.0
    f2440  OBJ  4.342485411336144
    f2440  r661  1.0
    f2440  r673  -1.0
    f2440  r1480  1.0
    f2441  OBJ  6.743615544985133
    f2441  r661  -1.0
    f2441  r673  1.0
    f2441  r1481  1.0
    f2442  OBJ  3.61203237863454
    f2442  r662  1.0
    f2442  r663  -1.0
    f2442  r1482  1.0
    f2443  OBJ  8.55096368863703
    f2443  r662  -1.0
    f2443  r663  1.0
    f2443  r1483  1.0
    f2444  OBJ  8.27410362430896
    f2444  r662  1.0
    f2444  r674  -1.0
    f2444  r1484  1.0
    f2445  OBJ  4.760315867692679
    f2445  r662  -1.0
    f2445  r674  1.0
    f2445  r1485  1.0
    f2446  OBJ  3.271951507739692
    f2446  r663  1.0
    f2446  r664  -1.0
    f2446  r1486  1.0
    f2447  OBJ  3.1289069487998327
    f2447  r663  -1.0
    f2447  r664  1.0
    f2447  r1487  1.0
    f2448  OBJ  3.0383411253968777
    f2448  r663  1.0
    f2448  r675  -1.0
    f2448  r1488  1.0
    f2449  OBJ  5.480200952044394
    f2449  r663  -1.0
    f2449  r675  1.0
    f2449  r1489  1.0
    f2450  OBJ  5.89233280359704
    f2450  r664  1.0
    f2450  r665  -1.0
    f2450  r1490  1.0
    f2451  OBJ  9.034834307474533
    f2451  r664  -1.0
    f2451  r665  1.0
    f2451  r1491  1.0
    f2452  OBJ  5.48019352885476
    f2452  r664  1.0
    f2452  r676  -1.0
    f2452  r1492  1.0
    f2453  OBJ  6.063511377019814
    f2453  r664  -1.0
    f2453  r676  1.0
    f2453  r1493  1.0
    f2454  OBJ  3.056570100539143
    f2454  r665  1.0
    f2454  r666  -1.0
    f2454  r1494  1.0
    f2455  OBJ  9.839114102074996
    f2455  r665  -1.0
    f2455  r666  1.0
    f2455  r1495  1.0
    f2456  OBJ  5.288831991624837
    f2456  r665  1.0
    f2456  r677  -1.0
    f2456  r1496  1.0
    f2457  OBJ  2.3618639776040853
    f2457  r665  -1.0
    f2457  r677  1.0
    f2457  r1497  1.0
    f2458  OBJ  3.6106988058510683
    f2458  r666  1.0
    f2458  r667  -1.0
    f2458  r1498  1.0
    f2459  OBJ  7.580321328506547
    f2459  r666  -1.0
    f2459  r667  1.0
    f2459  r1499  1.0
    f2460  OBJ  3.4236954706385108
    f2460  r666  1.0
    f2460  r678  -1.0
    f2460  r1500  1.0
    f2461  OBJ  9.935351400755525
    f2461  r666  -1.0
    f2461  r678  1.0
    f2461  r1501  1.0
    f2462  OBJ  6.0414245812900464
    f2462  r667  1.0
    f2462  r668  -1.0
    f2462  r1502  1.0
    f2463  OBJ  8.128246327252945
    f2463  r667  -1.0
    f2463  r668  1.0
    f2463  r1503  1.0
    f2464  OBJ  6.405207842179179
    f2464  r667  1.0
    f2464  r679  -1.0
    f2464  r1504  1.0
    f2465  OBJ  7.175588659685827
    f2465  r667  -1.0
    f2465  r679  1.0
    f2465  r1505  1.0
    f2466  OBJ  4.55280268396465
    f2466  r668  1.0
    f2466  r669  -1.0
    f2466  r1506  1.0
    f2467  OBJ  8.284176006510918
    f2467  r668  -1.0
    f2467  r669  1.0
    f2467  r1507  1.0
    f2468  OBJ  8.258425480846048
    f2468  r668  1.0
    f2468  r680  -1.0
    f2468  r1508  1.0
    f2469  OBJ  8.243636724075234
    f2469  r668  -1.0
    f2469  r680  1.0
    f2469  r1509  1.0
    f2470  OBJ  6.657537466663689
    f2470  r669  1.0
    f2470  r670  -1.0
    f2470  r1510  1.0
    f2471  OBJ  8.164781925273541
    f2471  r669  -1.0
    f2471  r670  1.0
    f2471  r1511  1.0
    f2472  OBJ  8.20681290475072
    f2472  r669  1.0
    f2472  r681  -1.0
    f2472  r1512  1.0
    f2473  OBJ  3.094638847430028
    f2473  r669  -1.0
    f2473  r681  1.0
    f2473  r1513  1.0
    f2474  OBJ  1.4217384987424868
    f2474  r670  1.0
    f2474  r671  -1.0
    f2474  r1514  1.0
    f2475  OBJ  9.287341261502519
    f2475  r670  -1.0
    f2475  r671  1.0
    f2475  r1515  1.0
    f2476  OBJ  4.510003809796323
    f2476  r670  1.0
    f2476  r682  -1.0
    f2476  r1516  1.0
    f2477  OBJ  1.689584135205687
    f2477  r670  -1.0
    f2477  r682  1.0
    f2477  r1517  1.0
    f2478  OBJ  8.829369194969871
    f2478  r671  1.0
    f2478  r683  -1.0
    f2478  r1518  1.0
    f2479  OBJ  8.579225926976626
    f2479  r671  -1.0
    f2479  r683  1.0
    f2479  r1519  1.0
    f2480  OBJ  6.515070056482823
    f2480  r672  1.0
    f2480  r673  -1.0
    f2480  r1520  1.0
    f2481  OBJ  1.9333861611603584
    f2481  r672  -1.0
    f2481  r673  1.0
    f2481  r1521  1.0
    f2482  OBJ  8.821126256390787
    f2482  r672  1.0
    f2482  r684  -1.0
    f2482  r1522  1.0
    f2483  OBJ  5.380010869548395
    f2483  r672  -1.0
    f2483  r684  1.0
    f2483  r1523  1.0
    f2484  OBJ  1.79435476258808
    f2484  r673  1.0
    f2484  r674  -1.0
    f2484  r1524  1.0
    f2485  OBJ  2.5881345830087987
    f2485  r673  -1.0
    f2485  r674  1.0
    f2485  r1525  1.0
    f2486  OBJ  2.2709020232246275
    f2486  r673  1.0
    f2486  r685  -1.0
    f2486  r1526  1.0
    f2487  OBJ  8.817342286568334
    f2487  r673  -1.0
    f2487  r685  1.0
    f2487  r1527  1.0
    f2488  OBJ  8.986263428543289
    f2488  r674  1.0
    f2488  r675  -1.0
    f2488  r1528  1.0
    f2489  OBJ  9.38185667015476
    f2489  r674  -1.0
    f2489  r675  1.0
    f2489  r1529  1.0
    f2490  OBJ  3.9106694183611115
    f2490  r674  1.0
    f2490  r686  -1.0
    f2490  r1530  1.0
    f2491  OBJ  6.2581326213504145
    f2491  r674  -1.0
    f2491  r686  1.0
    f2491  r1531  1.0
    f2492  OBJ  6.5413224246684765
    f2492  r675  1.0
    f2492  r676  -1.0
    f2492  r1532  1.0
    f2493  OBJ  4.24723656890971
    f2493  r675  -1.0
    f2493  r676  1.0
    f2493  r1533  1.0
    f2494  OBJ  1.1530270433944918
    f2494  r675  1.0
    f2494  r687  -1.0
    f2494  r1534  1.0
    f2495  OBJ  1.5456931069157984
    f2495  r675  -1.0
    f2495  r687  1.0
    f2495  r1535  1.0
    f2496  OBJ  1.7241574018463028
    f2496  r676  1.0
    f2496  r677  -1.0
    f2496  r1536  1.0
    f2497  OBJ  5.060393063505103
    f2497  r676  -1.0
    f2497  r677  1.0
    f2497  r1537  1.0
    f2498  OBJ  4.717674001218046
    f2498  r676  1.0
    f2498  r688  -1.0
    f2498  r1538  1.0
    f2499  OBJ  1.247230558457763
    f2499  r676  -1.0
    f2499  r688  1.0
    f2499  r1539  1.0
    f2500  OBJ  1.54764450308056
    f2500  r677  1.0
    f2500  r678  -1.0
    f2500  r1540  1.0
    f2501  OBJ  4.436901121272687
    f2501  r677  -1.0
    f2501  r678  1.0
    f2501  r1541  1.0
    f2502  OBJ  6.816823571619188
    f2502  r677  1.0
    f2502  r689  -1.0
    f2502  r1542  1.0
    f2503  OBJ  5.525496290785183
    f2503  r677  -1.0
    f2503  r689  1.0
    f2503  r1543  1.0
    f2504  OBJ  7.7892030889215045
    f2504  r678  1.0
    f2504  r679  -1.0
    f2504  r1544  1.0
    f2505  OBJ  6.021613449681658
    f2505  r678  -1.0
    f2505  r679  1.0
    f2505  r1545  1.0
    f2506  OBJ  1.7925975732094421
    f2506  r678  1.0
    f2506  r690  -1.0
    f2506  r1546  1.0
    f2507  OBJ  1.9605881002043333
    f2507  r678  -1.0
    f2507  r690  1.0
    f2507  r1547  1.0
    f2508  OBJ  4.214847872386429
    f2508  r679  1.0
    f2508  r680  -1.0
    f2508  r1548  1.0
    f2509  OBJ  6.4358061135036415
    f2509  r679  -1.0
    f2509  r680  1.0
    f2509  r1549  1.0
    f2510  OBJ  8.791756014834748
    f2510  r679  1.0
    f2510  r691  -1.0
    f2510  r1550  1.0
    f2511  OBJ  8.906412266607497
    f2511  r679  -1.0
    f2511  r691  1.0
    f2511  r1551  1.0
    f2512  OBJ  9.642936026015834
    f2512  r680  1.0
    f2512  r681  -1.0
    f2512  r1552  1.0
    f2513  OBJ  8.74458457431033
    f2513  r680  -1.0
    f2513  r681  1.0
    f2513  r1553  1.0
    f2514  OBJ  4.632826881809093
    f2514  r680  1.0
    f2514  r692  -1.0
    f2514  r1554  1.0
    f2515  OBJ  6.036208381774288
    f2515  r680  -1.0
    f2515  r692  1.0
    f2515  r1555  1.0
    f2516  OBJ  1.5445529663505415
    f2516  r681  1.0
    f2516  r682  -1.0
    f2516  r1556  1.0
    f2517  OBJ  9.46800502409497
    f2517  r681  -1.0
    f2517  r682  1.0
    f2517  r1557  1.0
    f2518  OBJ  6.293069097224333
    f2518  r681  1.0
    f2518  r693  -1.0
    f2518  r1558  1.0
    f2519  OBJ  1.392109310130999
    f2519  r681  -1.0
    f2519  r693  1.0
    f2519  r1559  1.0
    f2520  OBJ  8.98243592093765
    f2520  r682  1.0
    f2520  r683  -1.0
    f2520  r1560  1.0
    f2521  OBJ  7.457874392090199
    f2521  r682  -1.0
    f2521  r683  1.0
    f2521  r1561  1.0
    f2522  OBJ  9.86636593405365
    f2522  r682  1.0
    f2522  r694  -1.0
    f2522  r1562  1.0
    f2523  OBJ  1.884113845238686
    f2523  r682  -1.0
    f2523  r694  1.0
    f2523  r1563  1.0
    f2524  OBJ  4.817695723273715
    f2524  r683  1.0
    f2524  r695  -1.0
    f2524  r1564  1.0
    f2525  OBJ  1.9663286839312208
    f2525  r683  -1.0
    f2525  r695  1.0
    f2525  r1565  1.0
    f2526  OBJ  9.466546608877756
    f2526  r684  1.0
    f2526  r685  -1.0
    f2526  r1566  1.0
    f2527  OBJ  2.35517321804957
    f2527  r684  -1.0
    f2527  r685  1.0
    f2527  r1567  1.0
    f2528  OBJ  7.463676282084244
    f2528  r684  1.0
    f2528  r696  -1.0
    f2528  r1568  1.0
    f2529  OBJ  7.092173550062428
    f2529  r684  -1.0
    f2529  r696  1.0
    f2529  r1569  1.0
    f2530  OBJ  6.419758665712502
    f2530  r685  1.0
    f2530  r686  -1.0
    f2530  r1570  1.0
    f2531  OBJ  5.28633868688531
    f2531  r685  -1.0
    f2531  r686  1.0
    f2531  r1571  1.0
    f2532  OBJ  4.866007560405688
    f2532  r685  1.0
    f2532  r697  -1.0
    f2532  r1572  1.0
    f2533  OBJ  8.167183958198226
    f2533  r685  -1.0
    f2533  r697  1.0
    f2533  r1573  1.0
    f2534  OBJ  6.429584491675617
    f2534  r686  1.0
    f2534  r687  -1.0
    f2534  r1574  1.0
    f2535  OBJ  4.055450924783071
    f2535  r686  -1.0
    f2535  r687  1.0
    f2535  r1575  1.0
    f2536  OBJ  7.581300347906965
    f2536  r686  1.0
    f2536  r698  -1.0
    f2536  r1576  1.0
    f2537  OBJ  7.0298196315608354
    f2537  r686  -1.0
    f2537  r698  1.0
    f2537  r1577  1.0
    f2538  OBJ  4.957681743166404
    f2538  r687  1.0
    f2538  r688  -1.0
    f2538  r1578  1.0
    f2539  OBJ  7.318285653973427
    f2539  r687  -1.0
    f2539  r688  1.0
    f2539  r1579  1.0
    f2540  OBJ  2.4897868945411625
    f2540  r687  1.0
    f2540  r699  -1.0
    f2540  r1580  1.0
    f2541  OBJ  4.850063341307448
    f2541  r687  -1.0
    f2541  r699  1.0
    f2541  r1581  1.0
    f2542  OBJ  8.033896025571028
    f2542  r688  1.0
    f2542  r689  -1.0
    f2542  r1582  1.0
    f2543  OBJ  8.097860416424329
    f2543  r688  -1.0
    f2543  r689  1.0
    f2543  r1583  1.0
    f2544  OBJ  7.774866557965757
    f2544  r688  1.0
    f2544  r700  -1.0
    f2544  r1584  1.0
    f2545  OBJ  9.98372389208314
    f2545  r688  -1.0
    f2545  r700  1.0
    f2545  r1585  1.0
    f2546  OBJ  4.51239723509016
    f2546  r689  1.0
    f2546  r690  -1.0
    f2546  r1586  1.0
    f2547  OBJ  9.22551467867278
    f2547  r689  -1.0
    f2547  r690  1.0
    f2547  r1587  1.0
    f2548  OBJ  7.985321819227965
    f2548  r689  1.0
    f2548  r701  -1.0
    f2548  r1588  1.0
    f2549  OBJ  7.853878487528075
    f2549  r689  -1.0
    f2549  r701  1.0
    f2549  r1589  1.0
    f2550  OBJ  3.8988307865943725
    f2550  r690  1.0
    f2550  r691  -1.0
    f2550  r1590  1.0
    f2551  OBJ  1.8213408431341964
    f2551  r690  -1.0
    f2551  r691  1.0
    f2551  r1591  1.0
    f2552  OBJ  7.923969680330949
    f2552  r690  1.0
    f2552  r702  -1.0
    f2552  r1592  1.0
    f2553  OBJ  1.563767453091939
    f2553  r690  -1.0
    f2553  r702  1.0
    f2553  r1593  1.0
    f2554  OBJ  6.935198814097371
    f2554  r691  1.0
    f2554  r692  -1.0
    f2554  r1594  1.0
    f2555  OBJ  1.140233599419127
    f2555  r691  -1.0
    f2555  r692  1.0
    f2555  r1595  1.0
    f2556  OBJ  2.667798011767858
    f2556  r691  1.0
    f2556  r703  -1.0
    f2556  r1596  1.0
    f2557  OBJ  4.993681071225831
    f2557  r691  -1.0
    f2557  r703  1.0
    f2557  r1597  1.0
    f2558  OBJ  8.51136799825362
    f2558  r692  1.0
    f2558  r693  -1.0
    f2558  r1598  1.0
    f2559  OBJ  3.6987857321639197
    f2559  r692  -1.0
    f2559  r693  1.0
    f2559  r1599  1.0
    f2560  OBJ  9.300556541774627
    f2560  r692  1.0
    f2560  r704  -1.0
    f2560  r1600  1.0
    f2561  OBJ  9.475496473088528
    f2561  r692  -1.0
    f2561  r704  1.0
    f2561  r1601  1.0
    f2562  OBJ  7.7584063045366145
    f2562  r693  1.0
    f2562  r694  -1.0
    f2562  r1602  1.0
    f2563  OBJ  4.126292753714269
    f2563  r693  -1.0
    f2563  r694  1.0
    f2563  r1603  1.0
    f2564  OBJ  5.0828380217659666
    f2564  r693  1.0
    f2564  r705  -1.0
    f2564  r1604  1.0
    f2565  OBJ  9.7307357511208
    f2565  r693  -1.0
    f2565  r705  1.0
    f2565  r1605  1.0
    f2566  OBJ  6.106322066837172
    f2566  r694  1.0
    f2566  r695  -1.0
    f2566  r1606  1.0
    f2567  OBJ  6.3511769264331015
    f2567  r694  -1.0
    f2567  r695  1.0
    f2567  r1607  1.0
    f2568  OBJ  6.085853555964545
    f2568  r694  1.0
    f2568  r706  -1.0
    f2568  r1608  1.0
    f2569  OBJ  2.4188610871705665
    f2569  r694  -1.0
    f2569  r706  1.0
    f2569  r1609  1.0
    f2570  OBJ  9.924103008796113
    f2570  r695  1.0
    f2570  r707  -1.0
    f2570  r1610  1.0
    f2571  OBJ  6.3299777034315134
    f2571  r695  -1.0
    f2571  r707  1.0
    f2571  r1611  1.0
    f2572  OBJ  7.109020812874268
    f2572  r696  1.0
    f2572  r697  -1.0
    f2572  r1612  1.0
    f2573  OBJ  8.310746585559563
    f2573  r696  -1.0
    f2573  r697  1.0
    f2573  r1613  1.0
    f2574  OBJ  5.443692129422634
    f2574  r696  1.0
    f2574  r708  -1.0
    f2574  r1614  1.0
    f2575  OBJ  3.231987722633258
    f2575  r696  -1.0
    f2575  r708  1.0
    f2575  r1615  1.0
    f2576  OBJ  9.430566867020026
    f2576  r697  1.0
    f2576  r698  -1.0
    f2576  r1616  1.0
    f2577  OBJ  2.595050864337804
    f2577  r697  -1.0
    f2577  r698  1.0
    f2577  r1617  1.0
    f2578  OBJ  4.318987023072978
    f2578  r697  1.0
    f2578  r709  -1.0
    f2578  r1618  1.0
    f2579  OBJ  7.329669428774082
    f2579  r697  -1.0
    f2579  r709  1.0
    f2579  r1619  1.0
    f2580  OBJ  4.9836887656897915
    f2580  r698  1.0
    f2580  r699  -1.0
    f2580  r1620  1.0
    f2581  OBJ  6.352318630146749
    f2581  r698  -1.0
    f2581  r699  1.0
    f2581  r1621  1.0
    f2582  OBJ  2.99987842617096
    f2582  r698  1.0
    f2582  r710  -1.0
    f2582  r1622  1.0
    f2583  OBJ  8.620083490919386
    f2583  r698  -1.0
    f2583  r710  1.0
    f2583  r1623  1.0
    f2584  OBJ  8.771843830234175
    f2584  r699  1.0
    f2584  r700  -1.0
    f2584  r1624  1.0
    f2585  OBJ  4.955466875694067
    f2585  r699  -1.0
    f2585  r700  1.0
    f2585  r1625  1.0
    f2586  OBJ  9.247771892131468
    f2586  r699  1.0
    f2586  r711  -1.0
    f2586  r1626  1.0
    f2587  OBJ  8.81945506426993
    f2587  r699  -1.0
    f2587  r711  1.0
    f2587  r1627  1.0
    f2588  OBJ  6.830438423101554
    f2588  r700  1.0
    f2588  r701  -1.0
    f2588  r1628  1.0
    f2589  OBJ  3.051525755682319
    f2589  r700  -1.0
    f2589  r701  1.0
    f2589  r1629  1.0
    f2590  OBJ  1.2806710336649478
    f2590  r700  1.0
    f2590  r712  -1.0
    f2590  r1630  1.0
    f2591  OBJ  9.385515893642298
    f2591  r700  -1.0
    f2591  r712  1.0
    f2591  r1631  1.0
    f2592  OBJ  9.347005011305704
    f2592  r701  1.0
    f2592  r702  -1.0
    f2592  r1632  1.0
    f2593  OBJ  6.523754702624132
    f2593  r701  -1.0
    f2593  r702  1.0
    f2593  r1633  1.0
    f2594  OBJ  5.84234211010877
    f2594  r701  1.0
    f2594  r713  -1.0
    f2594  r1634  1.0
    f2595  OBJ  7.604297408003552
    f2595  r701  -1.0
    f2595  r713  1.0
    f2595  r1635  1.0
    f2596  OBJ  4.560010615077432
    f2596  r702  1.0
    f2596  r703  -1.0
    f2596  r1636  1.0
    f2597  OBJ  3.8763856694749403
    f2597  r702  -1.0
    f2597  r703  1.0
    f2597  r1637  1.0
    f2598  OBJ  4.127448896846589
    f2598  r702  1.0
    f2598  r714  -1.0
    f2598  r1638  1.0
    f2599  OBJ  4.125540637571846
    f2599  r702  -1.0
    f2599  r714  1.0
    f2599  r1639  1.0
    f2600  OBJ  5.870489008294482
    f2600  r703  1.0
    f2600  r704  -1.0
    f2600  r1640  1.0
    f2601  OBJ  1.1227156697234932
    f2601  r703  -1.0
    f2601  r704  1.0
    f2601  r1641  1.0
    f2602  OBJ  3.021900054708767
    f2602  r703  1.0
    f2602  r715  -1.0
    f2602  r1642  1.0
    f2603  OBJ  6.057863150573489
    f2603  r703  -1.0
    f2603  r715  1.0
    f2603  r1643  1.0
    f2604  OBJ  8.96832750186815
    f2604  r704  1.0
    f2604  r705  -1.0
    f2604  r1644  1.0
    f2605  OBJ  5.719635655221788
    f2605  r704  -1.0
    f2605  r705  1.0
    f2605  r1645  1.0
    f2606  OBJ  3.5255293439735524
    f2606  r704  1.0
    f2606  r716  -1.0
    f2606  r1646  1.0
    f2607  OBJ  9.48611550989987
    f2607  r704  -1.0
    f2607  r716  1.0
    f2607  r1647  1.0
    f2608  OBJ  8.695746371993316
    f2608  r705  1.0
    f2608  r706  -1.0
    f2608  r1648  1.0
    f2609  OBJ  3.418278390810974
    f2609  r705  -1.0
    f2609  r706  1.0
    f2609  r1649  1.0
    f2610  OBJ  9.934860761595974
    f2610  r705  1.0
    f2610  r717  -1.0
    f2610  r1650  1.0
    f2611  OBJ  7.258274874710123
    f2611  r705  -1.0
    f2611  r717  1.0
    f2611  r1651  1.0
    f2612  OBJ  3.3328534298199513
    f2612  r706  1.0
    f2612  r707  -1.0
    f2612  r1652  1.0
    f2613  OBJ  6.492333955930169
    f2613  r706  -1.0
    f2613  r707  1.0
    f2613  r1653  1.0
    f2614  OBJ  3.9443539764031295
    f2614  r706  1.0
    f2614  r718  -1.0
    f2614  r1654  1.0
    f2615  OBJ  9.315480371727524
    f2615  r706  -1.0
    f2615  r718  1.0
    f2615  r1655  1.0
    f2616  OBJ  6.528412566194859
    f2616  r707  1.0
    f2616  r719  -1.0
    f2616  r1656  1.0
    f2617  OBJ  1.4574915159359643
    f2617  r707  -1.0
    f2617  r719  1.0
    f2617  r1657  1.0
    f2618  OBJ  5.63981982753051
    f2618  r708  1.0
    f2618  r709  -1.0
    f2618  r1658  1.0
    f2619  OBJ  5.910777857561307
    f2619  r708  -1.0
    f2619  r709  1.0
    f2619  r1659  1.0
    f2620  OBJ  8.376216960334341
    f2620  r709  1.0
    f2620  r710  -1.0
    f2620  r1660  1.0
    f2621  OBJ  9.490699764840153
    f2621  r709  -1.0
    f2621  r710  1.0
    f2621  r1661  1.0
    f2622  OBJ  7.1149043862629755
    f2622  r710  1.0
    f2622  r711  -1.0
    f2622  r1662  1.0
    f2623  OBJ  6.221105241873805
    f2623  r710  -1.0
    f2623  r711  1.0
    f2623  r1663  1.0
    f2624  OBJ  5.784367932215563
    f2624  r711  1.0
    f2624  r712  -1.0
    f2624  r1664  1.0
    f2625  OBJ  2.5502291518798677
    f2625  r711  -1.0
    f2625  r712  1.0
    f2625  r1665  1.0
    f2626  OBJ  7.63824342000365
    f2626  r712  1.0
    f2626  r713  -1.0
    f2626  r1666  1.0
    f2627  OBJ  5.508061229245426
    f2627  r712  -1.0
    f2627  r713  1.0
    f2627  r1667  1.0
    f2628  OBJ  4.575305739515346
    f2628  r713  1.0
    f2628  r714  -1.0
    f2628  r1668  1.0
    f2629  OBJ  7.753010370046059
    f2629  r713  -1.0
    f2629  r714  1.0
    f2629  r1669  1.0
    f2630  OBJ  4.2151623050292955
    f2630  r714  1.0
    f2630  r715  -1.0
    f2630  r1670  1.0
    f2631  OBJ  7.337043397927561
    f2631  r714  -1.0
    f2631  r715  1.0
    f2631  r1671  1.0
    f2632  OBJ  3.937409412500358
    f2632  r715  1.0
    f2632  r716  -1.0
    f2632  r1672  1.0
    f2633  OBJ  2.7093259789121125
    f2633  r715  -1.0
    f2633  r716  1.0
    f2633  r1673  1.0
    f2634  OBJ  6.030144895898163
    f2634  r716  1.0
    f2634  r717  -1.0
    f2634  r1674  1.0
    f2635  OBJ  9.248603140452367
    f2635  r716  -1.0
    f2635  r717  1.0
    f2635  r1675  1.0
    f2636  OBJ  2.7012102773291957
    f2636  r717  1.0
    f2636  r718  -1.0
    f2636  r1676  1.0
    f2637  OBJ  2.3516175236739865
    f2637  r717  -1.0
    f2637  r718  1.0
    f2637  r1677  1.0
    f2638  OBJ  3.8723982737810747
    f2638  r718  1.0
    f2638  r719  -1.0
    f2638  r1678  1.0
    f2639  OBJ  8.735968157581555
    f2639  r718  -1.0
    f2639  r719  1.0
    f2639  r1679  1.0
    f2640  OBJ  5.843479163247489
    f2640  r720  1.0
    f2640  r721  -1.0
    f2640  r1152  1.0
    f2641  OBJ  4.089437828320046
    f2641  r720  -1.0
    f2641  r721  1.0
    f2641  r1153  1.0
    f2642  OBJ  4.3216051581584045
    f2642  r720  1.0
    f2642  r732  -1.0
    f2642  r1154  1.0
    f2643  OBJ  4.3704708902909415
    f2643  r720  -1.0
    f2643  r732  1.0
    f2643  r1155  1.0
    f2644  OBJ  9.887004911678199
    f2644  r721  1.0
    f2644  r722  -1.0
    f2644  r1156  1.0
    f2645  OBJ  6.694806453464315
    f2645  r721  -1.0
    f2645  r722  1.0
    f2645  r1157  1.0
    f2646  OBJ  7.068915374540442
    f2646  r721  1.0
    f2646  r733  -1.0
    f2646  r1158  1.0
    f2647  OBJ  3.9696710984691252
    f2647  r721  -1.0
    f2647  r733  1.0
    f2647  r1159  1.0
    f2648  OBJ  7.119258950476201
    f2648  r722  1.0
    f2648  r723  -1.0
    f2648  r1160  1.0
    f2649  OBJ  2.1067513739847104
    f2649  r722  -1.0
    f2649  r723  1.0
    f2649  r1161  1.0
    f2650  OBJ  1.465563087853977
    f2650  r722  1.0
    f2650  r734  -1.0
    f2650  r1162  1.0
    f2651  OBJ  8.651722121279082
    f2651  r722  -1.0
    f2651  r734  1.0
    f2651  r1163  1.0
    f2652  OBJ  1.080062249818912
    f2652  r723  1.0
    f2652  r724  -1.0
    f2652  r1164  1.0
    f2653  OBJ  9.80890805966767
    f2653  r723  -1.0
    f2653  r724  1.0
    f2653  r1165  1.0
    f2654  OBJ  8.443027232371483
    f2654  r723  1.0
    f2654  r735  -1.0
    f2654  r1166  1.0
    f2655  OBJ  8.066898633937342
    f2655  r723  -1.0
    f2655  r735  1.0
    f2655  r1167  1.0
    f2656  OBJ  1.4327513830229184
    f2656  r724  1.0
    f2656  r725  -1.0
    f2656  r1168  1.0
    f2657  OBJ  2.8669533958627724
    f2657  r724  -1.0
    f2657  r725  1.0
    f2657  r1169  1.0
    f2658  OBJ  8.648790679856907
    f2658  r724  1.0
    f2658  r736  -1.0
    f2658  r1170  1.0
    f2659  OBJ  4.892453304895277
    f2659  r724  -1.0
    f2659  r736  1.0
    f2659  r1171  1.0
    f2660  OBJ  6.647211403327665
    f2660  r725  1.0
    f2660  r726  -1.0
    f2660  r1172  1.0
    f2661  OBJ  2.1005415892986745
    f2661  r725  -1.0
    f2661  r726  1.0
    f2661  r1173  1.0
    f2662  OBJ  2.677026868100466
    f2662  r725  1.0
    f2662  r737  -1.0
    f2662  r1174  1.0
    f2663  OBJ  5.4754112146732625
    f2663  r725  -1.0
    f2663  r737  1.0
    f2663  r1175  1.0
    f2664  OBJ  7.835199191401016
    f2664  r726  1.0
    f2664  r727  -1.0
    f2664  r1176  1.0
    f2665  OBJ  5.858714839099925
    f2665  r726  -1.0
    f2665  r727  1.0
    f2665  r1177  1.0
    f2666  OBJ  1.9619207071213822
    f2666  r726  1.0
    f2666  r738  -1.0
    f2666  r1178  1.0
    f2667  OBJ  8.795674706633884
    f2667  r726  -1.0
    f2667  r738  1.0
    f2667  r1179  1.0
    f2668  OBJ  2.2569301861673416
    f2668  r727  1.0
    f2668  r728  -1.0
    f2668  r1180  1.0
    f2669  OBJ  4.956919817610607
    f2669  r727  -1.0
    f2669  r728  1.0
    f2669  r1181  1.0
    f2670  OBJ  6.281645261000175
    f2670  r727  1.0
    f2670  r739  -1.0
    f2670  r1182  1.0
    f2671  OBJ  3.8723455215676785
    f2671  r727  -1.0
    f2671  r739  1.0
    f2671  r1183  1.0
    f2672  OBJ  4.762487492955011
    f2672  r728  1.0
    f2672  r729  -1.0
    f2672  r1184  1.0
    f2673  OBJ  8.982680417439596
    f2673  r728  -1.0
    f2673  r729  1.0
    f2673  r1185  1.0
    f2674  OBJ  5.087221314275144
    f2674  r728  1.0
    f2674  r740  -1.0
    f2674  r1186  1.0
    f2675  OBJ  5.853224012546842
    f2675  r728  -1.0
    f2675  r740  1.0
    f2675  r1187  1.0
    f2676  OBJ  9.734402369267295
    f2676  r729  1.0
    f2676  r730  -1.0
    f2676  r1188  1.0
    f2677  OBJ  3.4838482279023597
    f2677  r729  -1.0
    f2677  r730  1.0
    f2677  r1189  1.0
    f2678  OBJ  9.05311169099006
    f2678  r729  1.0
    f2678  r741  -1.0
    f2678  r1190  1.0
    f2679  OBJ  4.2566996928588825
    f2679  r729  -1.0
    f2679  r741  1.0
    f2679  r1191  1.0
    f2680  OBJ  3.808369156683992
    f2680  r730  1.0
    f2680  r731  -1.0
    f2680  r1192  1.0
    f2681  OBJ  8.931602750040451
    f2681  r730  -1.0
    f2681  r731  1.0
    f2681  r1193  1.0
    f2682  OBJ  1.5894707335339273
    f2682  r730  1.0
    f2682  r742  -1.0
    f2682  r1194  1.0
    f2683  OBJ  8.799896097198229
    f2683  r730  -1.0
    f2683  r742  1.0
    f2683  r1195  1.0
    f2684  OBJ  8.449908565840481
    f2684  r731  1.0
    f2684  r743  -1.0
    f2684  r1196  1.0
    f2685  OBJ  9.05243356990497
    f2685  r731  -1.0
    f2685  r743  1.0
    f2685  r1197  1.0
    f2686  OBJ  1.5378154068686039
    f2686  r732  1.0
    f2686  r733  -1.0
    f2686  r1198  1.0
    f2687  OBJ  3.149250350989603
    f2687  r732  -1.0
    f2687  r733  1.0
    f2687  r1199  1.0
    f2688  OBJ  7.9763825368893055
    f2688  r732  1.0
    f2688  r744  -1.0
    f2688  r1200  1.0
    f2689  OBJ  4.931650790463847
    f2689  r732  -1.0
    f2689  r744  1.0
    f2689  r1201  1.0
    f2690  OBJ  1.0478184276486595
    f2690  r733  1.0
    f2690  r734  -1.0
    f2690  r1202  1.0
    f2691  OBJ  7.233576589265234
    f2691  r733  -1.0
    f2691  r734  1.0
    f2691  r1203  1.0
    f2692  OBJ  8.197927065695021
    f2692  r733  1.0
    f2692  r745  -1.0
    f2692  r1204  1.0
    f2693  OBJ  9.76262446210192
    f2693  r733  -1.0
    f2693  r745  1.0
    f2693  r1205  1.0
    f2694  OBJ  2.3559771646767214
    f2694  r734  1.0
    f2694  r735  -1.0
    f2694  r1206  1.0
    f2695  OBJ  3.2675947743516294
    f2695  r734  -1.0
    f2695  r735  1.0
    f2695  r1207  1.0
    f2696  OBJ  8.57224532832835
    f2696  r734  1.0
    f2696  r746  -1.0
    f2696  r1208  1.0
    f2697  OBJ  1.8262821126624695
    f2697  r734  -1.0
    f2697  r746  1.0
    f2697  r1209  1.0
    f2698  OBJ  3.4684351148653563
    f2698  r735  1.0
    f2698  r736  -1.0
    f2698  r1210  1.0
    f2699  OBJ  5.0658643600840545
    f2699  r735  -1.0
    f2699  r736  1.0
    f2699  r1211  1.0
    f2700  OBJ  4.765085478036262
    f2700  r735  1.0
    f2700  r747  -1.0
    f2700  r1212  1.0
    f2701  OBJ  5.884605364467616
    f2701  r735  -1.0
    f2701  r747  1.0
    f2701  r1213  1.0
    f2702  OBJ  8.81815836304687
    f2702  r736  1.0
    f2702  r737  -1.0
    f2702  r1214  1.0
    f2703  OBJ  6.681370181670063
    f2703  r736  -1.0
    f2703  r737  1.0
    f2703  r1215  1.0
    f2704  OBJ  6.886000713302363
    f2704  r736  1.0
    f2704  r748  -1.0
    f2704  r1216  1.0
    f2705  OBJ  6.329994115698163
    f2705  r736  -1.0
    f2705  r748  1.0
    f2705  r1217  1.0
    f2706  OBJ  2.89745780656496
    f2706  r737  1.0
    f2706  r738  -1.0
    f2706  r1218  1.0
    f2707  OBJ  5.0469319805790125
    f2707  r737  -1.0
    f2707  r738  1.0
    f2707  r1219  1.0
    f2708  OBJ  9.887845518427142
    f2708  r737  1.0
    f2708  r749  -1.0
    f2708  r1220  1.0
    f2709  OBJ  9.18307383604957
    f2709  r737  -1.0
    f2709  r749  1.0
    f2709  r1221  1.0
    f2710  OBJ  7.906999714511775
    f2710  r738  1.0
    f2710  r739  -1.0
    f2710  r1222  1.0
    f2711  OBJ  5.803134985573417
    f2711  r738  -1.0
    f2711  r739  1.0
    f2711  r1223  1.0
    f2712  OBJ  8.819791935718182
    f2712  r738  1.0
    f2712  r750  -1.0
    f2712  r1224  1.0
    f2713  OBJ  6.677942196100848
    f2713  r738  -1.0
    f2713  r750  1.0
    f2713  r1225  1.0
    f2714  OBJ  4.578123395103715
    f2714  r739  1.0
    f2714  r740  -1.0
    f2714  r1226  1.0
    f2715  OBJ  5.73687696795246
    f2715  r739  -1.0
    f2715  r740  1.0
    f2715  r1227  1.0
    f2716  OBJ  2.7872516802821625
    f2716  r739  1.0
    f2716  r751  -1.0
    f2716  r1228  1.0
    f2717  OBJ  6.155381271827194
    f2717  r739  -1.0
    f2717  r751  1.0
    f2717  r1229  1.0
    f2718  OBJ  3.8226207491633226
    f2718  r740  1.0
    f2718  r741  -1.0
    f2718  r1230  1.0
    f2719  OBJ  8.032593923327084
    f2719  r740  -1.0
    f2719  r741  1.0
    f2719  r1231  1.0
    f2720  OBJ  8.447683803834597
    f2720  r740  1.0
    f2720  r752  -1.0
    f2720  r1232  1.0
    f2721  OBJ  9.944166781185652
    f2721  r740  -1.0
    f2721  r752  1.0
    f2721  r1233  1.0
    f2722  OBJ  8.514758067385708
    f2722  r741  1.0
    f2722  r742  -1.0
    f2722  r1234  1.0
    f2723  OBJ  1.5333702487229801
    f2723  r741  -1.0
    f2723  r742  1.0
    f2723  r1235  1.0
    f2724  OBJ  7.518931095523543
    f2724  r741  1.0
    f2724  r753  -1.0
    f2724  r1236  1.0
    f2725  OBJ  8.27361552637164
    f2725  r741  -1.0
    f2725  r753  1.0
    f2725  r1237  1.0
    f2726  OBJ  8.850179988841164
    f2726  r742  1.0
    f2726  r743  -1.0
    f2726  r1238  1.0
    f2727  OBJ  5.425049455804184
    f2727  r742  -1.0
    f2727  r743  1.0
    f2727  r1239  1.0
    f2728  OBJ  5.283204492205081
    f2728  r742  1.0
    f2728  r754  -1.0
    f2728  r1240  1.0
    f2729  OBJ  5.777322522458589
    f2729  r742  -1.0
    f2729  r754  1.0
    f2729  r1241  1.0
    f2730  OBJ  2.3943995005292793
    f2730  r743  1.0
    f2730  r755  -1.0
    f2730  r1242  1.0
    f2731  OBJ  9.612598334079014
    f2731  r743  -1.0
    f2731  r755  1.0
    f2731  r1243  1.0
    f2732  OBJ  9.883038452562197
    f2732  r744  1.0
    f2732  r745  -1.0
    f2732  r1244  1.0
    f2733  OBJ  3.3668479442769903
    f2733  r744  -1.0
    f2733  r745  1.0
    f2733  r1245  1.0
    f2734  OBJ  9.616025266298925
    f2734  r744  1.0
    f2734  r756  -1.0
    f2734  r1246  1.0
    f2735  OBJ  2.8739629222224314
    f2735  r744  -1.0
    f2735  r756  1.0
    f2735  r1247  1.0
    f2736  OBJ  1.762693526837991
    f2736  r745  1.0
    f2736  r746  -1.0
    f2736  r1248  1.0
    f2737  OBJ  7.590067761304782
    f2737  r745  -1.0
    f2737  r746  1.0
    f2737  r1249  1.0
    f2738  OBJ  8.347655313259235
    f2738  r745  1.0
    f2738  r757  -1.0
    f2738  r1250  1.0
    f2739  OBJ  2.7975568257531913
    f2739  r745  -1.0
    f2739  r757  1.0
    f2739  r1251  1.0
    f2740  OBJ  9.583816133482737
    f2740  r746  1.0
    f2740  r747  -1.0
    f2740  r1252  1.0
    f2741  OBJ  4.597594046544144
    f2741  r746  -1.0
    f2741  r747  1.0
    f2741  r1253  1.0
    f2742  OBJ  2.672812870364235
    f2742  r746  1.0
    f2742  r758  -1.0
    f2742  r1254  1.0
    f2743  OBJ  3.705170203073723
    f2743  r746  -1.0
    f2743  r758  1.0
    f2743  r1255  1.0
    f2744  OBJ  2.0152999326320273
    f2744  r747  1.0
    f2744  r748  -1.0
    f2744  r1256  1.0
    f2745  OBJ  7.946388238006956
    f2745  r747  -1.0
    f2745  r748  1.0
    f2745  r1257  1.0
    f2746  OBJ  3.567815501244076
    f2746  r747  1.0
    f2746  r759  -1.0
    f2746  r1258  1.0
    f2747  OBJ  7.2396648493583475
    f2747  r747  -1.0
    f2747  r759  1.0
    f2747  r1259  1.0
    f2748  OBJ  5.148136829860446
    f2748  r748  1.0
    f2748  r749  -1.0
    f2748  r1260  1.0
    f2749  OBJ  2.1247572946633198
    f2749  r748  -1.0
    f2749  r749  1.0
    f2749  r1261  1.0
    f2750  OBJ  6.285209035118809
    f2750  r748  1.0
    f2750  r760  -1.0
    f2750  r1262  1.0
    f2751  OBJ  9.70457902276835
    f2751  r748  -1.0
    f2751  r760  1.0
    f2751  r1263  1.0
    f2752  OBJ  2.6638345376764683
    f2752  r749  1.0
    f2752  r750  -1.0
    f2752  r1264  1.0
    f2753  OBJ  9.663170978821231
    f2753  r749  -1.0
    f2753  r750  1.0
    f2753  r1265  1.0
    f2754  OBJ  2.062633599647878
    f2754  r749  1.0
    f2754  r761  -1.0
    f2754  r1266  1.0
    f2755  OBJ  6.187847879545351
    f2755  r749  -1.0
    f2755  r761  1.0
    f2755  r1267  1.0
    f2756  OBJ  2.562195711301708
    f2756  r750  1.0
    f2756  r751  -1.0
    f2756  r1268  1.0
    f2757  OBJ  9.963749442046902
    f2757  r750  -1.0
    f2757  r751  1.0
    f2757  r1269  1.0
    f2758  OBJ  5.948103521283666
    f2758  r750  1.0
    f2758  r762  -1.0
    f2758  r1270  1.0
    f2759  OBJ  8.84549741097349
    f2759  r750  -1.0
    f2759  r762  1.0
    f2759  r1271  1.0
    f2760  OBJ  7.367531877451553
    f2760  r751  1.0
    f2760  r752  -1.0
    f2760  r1272  1.0
    f2761  OBJ  5.0370586039786325
    f2761  r751  -1.0
    f2761  r752  1.0
    f2761  r1273  1.0
    f2762  OBJ  3.3365114494583135
    f2762  r751  1.0
    f2762  r763  -1.0
    f2762  r1274  1.0
    f2763  OBJ  8.848940341217338
    f2763  r751  -1.0
    f2763  r763  1.0
    f2763  r1275  1.0
    f2764  OBJ  8.967469784989184
    f2764  r752  1.0
    f2764  r753  -1.0
    f2764  r1276  1.0
    f2765  OBJ  8.056301029276604
    f2765  r752  -1.0
    f2765  r753  1.0
    f2765  r1277  1.0
    f2766  OBJ  8.261799444070519
    f2766  r752  1.0
    f2766  r764  -1.0
    f2766  r1278  1.0
    f2767  OBJ  1.3756333709345163
    f2767  r752  -1.0
    f2767  r764  1.0
    f2767  r1279  1.0
    f2768  OBJ  2.9712054557253227
    f2768  r753  1.0
    f2768  r754  -1.0
    f2768  r1280  1.0
    f2769  OBJ  5.990844544374253
    f2769  r753  -1.0
    f2769  r754  1.0
    f2769  r1281  1.0
    f2770  OBJ  1.7070566561872171
    f2770  r753  1.0
    f2770  r765  -1.0
    f2770  r1282  1.0
    f2771  OBJ  6.312234646179124
    f2771  r753  -1.0
    f2771  r765  1.0
    f2771  r1283  1.0
    f2772  OBJ  9.525295460899232
    f2772  r754  1.0
    f2772  r755  -1.0
    f2772  r1284  1.0
    f2773  OBJ  4.184128114500217
    f2773  r754  -1.0
    f2773  r755  1.0
    f2773  r1285  1.0
    f2774  OBJ  7.213383032669854
    f2774  r754  1.0
    f2774  r766  -1.0
    f2774  r1286  1.0
    f2775  OBJ  2.817068174308163
    f2775  r754  -1.0
    f2775  r766  1.0
    f2775  r1287  1.0
    f2776  OBJ  8.168247031162272
    f2776  r755  1.0
    f2776  r767  -1.0
    f2776  r1288  1.0
    f2777  OBJ  9.067977953848253
    f2777  r755  -1.0
    f2777  r767  1.0
    f2777  r1289  1.0
    f2778  OBJ  8.33711188653524
    f2778  r756  1.0
    f2778  r757  -1.0
    f2778  r1290  1.0
    f2779  OBJ  4.966699573658781
    f2779  r756  -1.0
    f2779  r757  1.0
    f2779  r1291  1.0
    f2780  OBJ  4.134208441347036
    f2780  r756  1.0
    f2780  r768  -1.0
    f2780  r1292  1.0
    f2781  OBJ  1.7537281635671031
    f2781  r756  -1.0
    f2781  r768  1.0
    f2781  r1293  1.0
    f2782  OBJ  8.63183269121383
    f2782  r757  1.0
    f2782  r758  -1.0
    f2782  r1294  1.0
    f2783  OBJ  9.134382435850736
    f2783  r757  -1.0
    f2783  r758  1.0
    f2783  r1295  1.0
    f2784  OBJ  6.026333765246144
    f2784  r757  1.0
    f2784  r769  -1.0
    f2784  r1296  1.0
    f2785  OBJ  7.877137223459138
    f2785  r757  -1.0
    f2785  r769  1.0
    f2785  r1297  1.0
    f2786  OBJ  3.051016504982827
    f2786  r758  1.0
    f2786  r759  -1.0
    f2786  r1298  1.0
    f2787  OBJ  7.803565893682319
    f2787  r758  -1.0
    f2787  r759  1.0
    f2787  r1299  1.0
    f2788  OBJ  3.2478880841995856
    f2788  r758  1.0
    f2788  r770  -1.0
    f2788  r1300  1.0
    f2789  OBJ  7.561582696471492
    f2789  r758  -1.0
    f2789  r770  1.0
    f2789  r1301  1.0
    f2790  OBJ  1.1077465912219826
    f2790  r759  1.0
    f2790  r760  -1.0
    f2790  r1302  1.0
    f2791  OBJ  4.462274498932999
    f2791  r759  -1.0
    f2791  r760  1.0
    f2791  r1303  1.0
    f2792  OBJ  3.143718312821855
    f2792  r759  1.0
    f2792  r771  -1.0
    f2792  r1304  1.0
    f2793  OBJ  1.3637892144637211
    f2793  r759  -1.0
    f2793  r771  1.0
    f2793  r1305  1.0
    f2794  OBJ  3.33536780497219
    f2794  r760  1.0
    f2794  r761  -1.0
    f2794  r1306  1.0
    f2795  OBJ  9.266985127160817
    f2795  r760  -1.0
    f2795  r761  1.0
    f2795  r1307  1.0
    f2796  OBJ  3.722854116303524
    f2796  r760  1.0
    f2796  r772  -1.0
    f2796  r1308  1.0
    f2797  OBJ  2.0478493989999245
    f2797  r760  -1.0
    f2797  r772  1.0
    f2797  r1309  1.0
    f2798  OBJ  7.001245287843152
    f2798  r761  1.0
    f2798  r762  -1.0
    f2798  r1310  1.0
    f2799  OBJ  7.9504753566883855
    f2799  r761  -1.0
    f2799  r762  1.0
    f2799  r1311  1.0
    f2800  OBJ  4.103119615708474
    f2800  r761  1.0
    f2800  r773  -1.0
    f2800  r1312  1.0
    f2801  OBJ  9.309033217289178
    f2801  r761  -1.0
    f2801  r773  1.0
    f2801  r1313  1.0
    f2802  OBJ  7.2741644884964956
    f2802  r762  1.0
    f2802  r763  -1.0
    f2802  r1314  1.0
    f2803  OBJ  5.837914239590002
    f2803  r762  -1.0
    f2803  r763  1.0
    f2803  r1315  1.0
    f2804  OBJ  9.069344515184543
    f2804  r762  1.0
    f2804  r774  -1.0
    f2804  r1316  1.0
    f2805  OBJ  8.28092182168296
    f2805  r762  -1.0
    f2805  r774  1.0
    f2805  r1317  1.0
    f2806  OBJ  6.438311445129069
    f2806  r763  1.0
    f2806  r764  -1.0
    f2806  r1318  1.0
    f2807  OBJ  3.2615425620963867
    f2807  r763  -1.0
    f2807  r764  1.0
    f2807  r1319  1.0
    f2808  OBJ  5.702488824101116
    f2808  r763  1.0
    f2808  r775  -1.0
    f2808  r1320  1.0
    f2809  OBJ  6.5851428786607675
    f2809  r763  -1.0
    f2809  r775  1.0
    f2809  r1321  1.0
    f2810  OBJ  9.071908100696
    f2810  r764  1.0
    f2810  r765  -1.0
    f2810  r1322  1.0
    f2811  OBJ  9.449913545414963
    f2811  r764  -1.0
    f2811  r765  1.0
    f2811  r1323  1.0
    f2812  OBJ  1.5526027546476011
    f2812  r764  1.0
    f2812  r776  -1.0
    f2812  r1324  1.0
    f2813  OBJ  5.740635528499118
    f2813  r764  -1.0
    f2813  r776  1.0
    f2813  r1325  1.0
    f2814  OBJ  9.43475860238855
    f2814  r765  1.0
    f2814  r766  -1.0
    f2814  r1326  1.0
    f2815  OBJ  4.879177272008489
    f2815  r765  -1.0
    f2815  r766  1.0
    f2815  r1327  1.0
    f2816  OBJ  7.784157847221835
    f2816  r765  1.0
    f2816  r777  -1.0
    f2816  r1328  1.0
    f2817  OBJ  3.067777991068951
    f2817  r765  -1.0
    f2817  r777  1.0
    f2817  r1329  1.0
    f2818  OBJ  8.840366234762376
    f2818  r766  1.0
    f2818  r767  -1.0
    f2818  r1330  1.0
    f2819  OBJ  2.569338415546724
    f2819  r766  -1.0
    f2819  r767  1.0
    f2819  r1331  1.0
    f2820  OBJ  3.3569594822839144
    f2820  r766  1.0
    f2820  r778  -1.0
    f2820  r1332  1.0
    f2821  OBJ  3.2123559621221753
    f2821  r766  -1.0
    f2821  r778  1.0
    f2821  r1333  1.0
    f2822  OBJ  2.2788823876101647
    f2822  r767  1.0
    f2822  r779  -1.0
    f2822  r1334  1.0
    f2823  OBJ  7.024989198482375
    f2823  r767  -1.0
    f2823  r779  1.0
    f2823  r1335  1.0
    f2824  OBJ  8.584841705834307
    f2824  r768  1.0
    f2824  r769  -1.0
    f2824  r1336  1.0
    f2825  OBJ  2.4180513221150917
    f2825  r768  -1.0
    f2825  r769  1.0
    f2825  r1337  1.0
    f2826  OBJ  2.7928105422408227
    f2826  r768  1.0
    f2826  r780  -1.0
    f2826  r1338  1.0
    f2827  OBJ  4.576467726391256
    f2827  r768  -1.0
    f2827  r780  1.0
    f2827  r1339  1.0
    f2828  OBJ  3.707947218147749
    f2828  r769  1.0
    f2828  r770  -1.0
    f2828  r1340  1.0
    f2829  OBJ  6.741770927053644
    f2829  r769  -1.0
    f2829  r770  1.0
    f2829  r1341  1.0
    f2830  OBJ  2.053531136352788
    f2830  r769  1.0
    f2830  r781  -1.0
    f2830  r1342  1.0
    f2831  OBJ  6.243616247545115
    f2831  r769  -1.0
    f2831  r781  1.0
    f2831  r1343  1.0
    f2832  OBJ  5.533037581812857
    f2832  r770  1.0
    f2832  r771  -1.0
    f2832  r1344  1.0
    f2833  OBJ  2.057070778845458
    f2833  r770  -1.0
    f2833  r771  1.0
    f2833  r1345  1.0
    f2834  OBJ  5.03319964067469
    f2834  r770  1.0
    f2834  r782  -1.0
    f2834  r1346  1.0
    f2835  OBJ  4.372981205688504
    f2835  r770  -1.0
    f2835  r782  1.0
    f2835  r1347  1.0
    f2836  OBJ  1.6071602069885822
    f2836  r771  1.0
    f2836  r772  -1.0
    f2836  r1348  1.0
    f2837  OBJ  3.932915843468632
    f2837  r771  -1.0
    f2837  r772  1.0
    f2837  r1349  1.0
    f2838  OBJ  6.784274421345183
    f2838  r771  1.0
    f2838  r783  -1.0
    f2838  r1350  1.0
    f2839  OBJ  8.87767040252694
    f2839  r771  -1.0
    f2839  r783  1.0
    f2839  r1351  1.0
    f2840  OBJ  9.57364570157721
    f2840  r772  1.0
    f2840  r773  -1.0
    f2840  r1352  1.0
    f2841  OBJ  7.629171914559498
    f2841  r772  -1.0
    f2841  r773  1.0
    f2841  r1353  1.0
    f2842  OBJ  4.673521736950686
    f2842  r772  1.0
    f2842  r784  -1.0
    f2842  r1354  1.0
    f2843  OBJ  2.3395263729787823
    f2843  r772  -1.0
    f2843  r784  1.0
    f2843  r1355  1.0
    f2844  OBJ  7.148071082372267
    f2844  r773  1.0
    f2844  r774  -1.0
    f2844  r1356  1.0
    f2845  OBJ  6.157914246676193
    f2845  r773  -1.0
    f2845  r774  1.0
    f2845  r1357  1.0
    f2846  OBJ  8.750560649496279
    f2846  r773  1.0
    f2846  r785  -1.0
    f2846  r1358  1.0
    f2847  OBJ  3.3051466646524137
    f2847  r773  -1.0
    f2847  r785  1.0
    f2847  r1359  1.0
    f2848  OBJ  6.912073358897169
    f2848  r774  1.0
    f2848  r775  -1.0
    f2848  r1360  1.0
    f2849  OBJ  1.8413904953890992
    f2849  r774  -1.0
    f2849  r775  1.0
    f2849  r1361  1.0
    f2850  OBJ  3.7859444762361294
    f2850  r774  1.0
    f2850  r786  -1.0
    f2850  r1362  1.0
    f2851  OBJ  4.880219335322179
    f2851  r774  -1.0
    f2851  r786  1.0
    f2851  r1363  1.0
    f2852  OBJ  8.248199274184902
    f2852  r775  1.0
    f2852  r776  -1.0
    f2852  r1364  1.0
    f2853  OBJ  4.129360889985302
    f2853  r775  -1.0
    f2853  r776  1.0
    f2853  r1365  1.0
    f2854  OBJ  6.570008312930026
    f2854  r775  1.0
    f2854  r787  -1.0
    f2854  r1366  1.0
    f2855  OBJ  9.874236205574777
    f2855  r775  -1.0
    f2855  r787  1.0
    f2855  r1367  1.0
    f2856  OBJ  9.51646875545354
    f2856  r776  1.0
    f2856  r777  -1.0
    f2856  r1368  1.0
    f2857  OBJ  5.298509275495396
    f2857  r776  -1.0
    f2857  r777  1.0
    f2857  r1369  1.0
    f2858  OBJ  2.8837232785759013
    f2858  r776  1.0
    f2858  r788  -1.0
    f2858  r1370  1.0
    f2859  OBJ  6.539390050808525
    f2859  r776  -1.0
    f2859  r788  1.0
    f2859  r1371  1.0
    f2860  OBJ  8.141807889146136
    f2860  r777  1.0
    f2860  r778  -1.0
    f2860  r1372  1.0
    f2861  OBJ  6.344872540246349
    f2861  r777  -1.0
    f2861  r778  1.0
    f2861  r1373  1.0
    f2862  OBJ  7.7292342535858936
    f2862  r777  1.0
    f2862  r789  -1.0
    f2862  r1374  1.0
    f2863  OBJ  2.919929548367037
    f2863  r777  -1.0
    f2863  r789  1.0
    f2863  r1375  1.0
    f2864  OBJ  3.5722688038057053
    f2864  r778  1.0
    f2864  r779  -1.0
    f2864  r1376  1.0
    f2865  OBJ  2.4058364065093754
    f2865  r778  -1.0
    f2865  r779  1.0
    f2865  r1377  1.0
    f2866  OBJ  1.5181313304897963
    f2866  r778  1.0
    f2866  r790  -1.0
    f2866  r1378  1.0
    f2867  OBJ  5.14441361017963
    f2867  r778  -1.0
    f2867  r790  1.0
    f2867  r1379  1.0
    f2868  OBJ  7.958578806368944
    f2868  r779  1.0
    f2868  r791  -1.0
    f2868  r1380  1.0
    f2869  OBJ  4.369669474409982
    f2869  r779  -1.0
    f2869  r791  1.0
    f2869  r1381  1.0
    f2870  OBJ  9.578268517437737
    f2870  r780  1.0
    f2870  r781  -1.0
    f2870  r1382  1.0
    f2871  OBJ  4.162536277129916
    f2871  r780  -1.0
    f2871  r781  1.0
    f2871  r1383  1.0
    f2872  OBJ  4.426687129543275
    f2872  r780  1.0
    f2872  r792  -1.0
    f2872  r1384  1.0
    f2873  OBJ  8.671251806248794
    f2873  r780  -1.0
    f2873  r792  1.0
    f2873  r1385  1.0
    f2874  OBJ  6.942519417241746
    f2874  r781  1.0
    f2874  r782  -1.0
    f2874  r1386  1.0
    f2875  OBJ  5.8091713864273
    f2875  r781  -1.0
    f2875  r782  1.0
    f2875  r1387  1.0
    f2876  OBJ  3.1250306131869907
    f2876  r781  1.0
    f2876  r793  -1.0
    f2876  r1388  1.0
    f2877  OBJ  1.7881153042109728
    f2877  r781  -1.0
    f2877  r793  1.0
    f2877  r1389  1.0
    f2878  OBJ  2.4738175169074745
    f2878  r782  1.0
    f2878  r783  -1.0
    f2878  r1390  1.0
    f2879  OBJ  2.4884050604864716
    f2879  r782  -1.0
    f2879  r783  1.0
    f2879  r1391  1.0
    f2880  OBJ  4.770114184150721
    f2880  r782  1.0
    f2880  r794  -1.0
    f2880  r1392  1.0
    f2881  OBJ  3.9764102922479694
    f2881  r782  -1.0
    f2881  r794  1.0
    f2881  r1393  1.0
    f2882  OBJ  5.924309803353416
    f2882  r783  1.0
    f2882  r784  -1.0
    f2882  r1394  1.0
    f2883  OBJ  3.3385493242589894
    f2883  r783  -1.0
    f2883  r784  1.0
    f2883  r1395  1.0
    f2884  OBJ  7.144749280430248
    f2884  r783  1.0
    f2884  r795  -1.0
    f2884  r1396  1.0
    f2885  OBJ  9.515200012995304
    f2885  r783  -1.0
    f2885  r795  1.0
    f2885  r1397  1.0
    f2886  OBJ  8.36033005720306
    f2886  r784  1.0
    f2886  r785  -1.0
    f2886  r1398  1.0
    f2887  OBJ  6.18865062078726
    f2887  r784  -1.0
    f2887  r785  1.0
    f2887  r1399  1.0
    f2888  OBJ  3.3278283690821286
    f2888  r784  1.0
    f2888  r796  -1.0
    f2888  r1400  1.0
    f2889  OBJ  8.118879965779355
    f2889  r784  -1.0
    f2889  r796  1.0
    f2889  r1401  1.0
    f2890  OBJ  8.525642503999077
    f2890  r785  1.0
    f2890  r786  -1.0
    f2890  r1402  1.0
    f2891  OBJ  1.8471927545361946
    f2891  r785  -1.0
    f2891  r786  1.0
    f2891  r1403  1.0
    f2892  OBJ  8.617861454104808
    f2892  r785  1.0
    f2892  r797  -1.0
    f2892  r1404  1.0
    f2893  OBJ  9.28184385663278
    f2893  r785  -1.0
    f2893  r797  1.0
    f2893  r1405  1.0
    f2894  OBJ  2.8218006430295373
    f2894  r786  1.0
    f2894  r787  -1.0
    f2894  r1406  1.0
    f2895  OBJ  2.651246163103225
    f2895  r786  -1.0
    f2895  r787  1.0
    f2895  r1407  1.0
    f2896  OBJ  7.5372506585615735
    f2896  r786  1.0
    f2896  r798  -1.0
    f2896  r1408  1.0
    f2897  OBJ  5.323717629241309
    f2897  r786  -1.0
    f2897  r798  1.0
    f2897  r1409  1.0
    f2898  OBJ  1.6656547324045405
    f2898  r787  1.0
    f2898  r788  -1.0
    f2898  r1410  1.0
    f2899  OBJ  6.520511657077648
    f2899  r787  -1.0
    f2899  r788  1.0
    f2899  r1411  1.0
    f2900  OBJ  8.462742992442585
    f2900  r787  1.0
    f2900  r799  -1.0
    f2900  r1412  1.0
    f2901  OBJ  7.562753261045978
    f2901  r787  -1.0
    f2901  r799  1.0
    f2901  r1413  1.0
    f2902  OBJ  1.4579849945343457
    f2902  r788  1.0
    f2902  r789  -1.0
    f2902  r1414  1.0
    f2903  OBJ  1.3840722864476893
    f2903  r788  -1.0
    f2903  r789  1.0
    f2903  r1415  1.0
    f2904  OBJ  5.6617811913676315
    f2904  r788  1.0
    f2904  r800  -1.0
    f2904  r1416  1.0
    f2905  OBJ  6.919498005080287
    f2905  r788  -1.0
    f2905  r800  1.0
    f2905  r1417  1.0
    f2906  OBJ  9.285794023306087
    f2906  r789  1.0
    f2906  r790  -1.0
    f2906  r1418  1.0
    f2907  OBJ  7.3993322363938745
    f2907  r789  -1.0
    f2907  r790  1.0
    f2907  r1419  1.0
    f2908  OBJ  7.101977977434503
    f2908  r789  1.0
    f2908  r801  -1.0
    f2908  r1420  1.0
    f2909  OBJ  8.876980031369033
    f2909  r789  -1.0
    f2909  r801  1.0
    f2909  r1421  1.0
    f2910  OBJ  4.66136303553649
    f2910  r790  1.0
    f2910  r791  -1.0
    f2910  r1422  1.0
    f2911  OBJ  2.547443857546328
    f2911  r790  -1.0
    f2911  r791  1.0
    f2911  r1423  1.0
    f2912  OBJ  2.0348893291575196
    f2912  r790  1.0
    f2912  r802  -1.0
    f2912  r1424  1.0
    f2913  OBJ  4.213952179581336
    f2913  r790  -1.0
    f2913  r802  1.0
    f2913  r1425  1.0
    f2914  OBJ  8.779879443746765
    f2914  r791  1.0
    f2914  r803  -1.0
    f2914  r1426  1.0
    f2915  OBJ  5.940792123148839
    f2915  r791  -1.0
    f2915  r803  1.0
    f2915  r1427  1.0
    f2916  OBJ  1.3920125076769931
    f2916  r792  1.0
    f2916  r793  -1.0
    f2916  r1428  1.0
    f2917  OBJ  9.163801058965287
    f2917  r792  -1.0
    f2917  r793  1.0
    f2917  r1429  1.0
    f2918  OBJ  8.413501768673024
    f2918  r792  1.0
    f2918  r804  -1.0
    f2918  r1430  1.0
    f2919  OBJ  1.5022974905585167
    f2919  r792  -1.0
    f2919  r804  1.0
    f2919  r1431  1.0
    f2920  OBJ  8.073763821337996
    f2920  r793  1.0
    f2920  r794  -1.0
    f2920  r1432  1.0
    f2921  OBJ  2.641997978893971
    f2921  r793  -1.0
    f2921  r794  1.0
    f2921  r1433  1.0
    f2922  OBJ  1.4524969311091085
    f2922  r793  1.0
    f2922  r805  -1.0
    f2922  r1434  1.0
    f2923  OBJ  4.560439970223803
    f2923  r793  -1.0
    f2923  r805  1.0
    f2923  r1435  1.0
    f2924  OBJ  7.349986377101174
    f2924  r794  1.0
    f2924  r795  -1.0
    f2924  r1436  1.0
    f2925  OBJ  3.4211263859867955
    f2925  r794  -1.0
    f2925  r795  1.0
    f2925  r1437  1.0
    f2926  OBJ  4.886653339206574
    f2926  r794  1.0
    f2926  r806  -1.0
    f2926  r1438  1.0
    f2927  OBJ  8.553204349239795
    f2927  r794  -1.0
    f2927  r806  1.0
    f2927  r1439  1.0
    f2928  OBJ  2.0931257120590527
    f2928  r795  1.0
    f2928  r796  -1.0
    f2928  r1440  1.0
    f2929  OBJ  6.764007836463744
    f2929  r795  -1.0
    f2929  r796  1.0
    f2929  r1441  1.0
    f2930  OBJ  3.8351177230513684
    f2930  r795  1.0
    f2930  r807  -1.0
    f2930  r1442  1.0
    f2931  OBJ  1.553625881370926
    f2931  r795  -1.0
    f2931  r807  1.0
    f2931  r1443  1.0
    f2932  OBJ  7.872044218655729
    f2932  r796  1.0
    f2932  r797  -1.0
    f2932  r1444  1.0
    f2933  OBJ  7.06928082643932
    f2933  r796  -1.0
    f2933  r797  1.0
    f2933  r1445  1.0
    f2934  OBJ  5.150207075823104
    f2934  r796  1.0
    f2934  r808  -1.0
    f2934  r1446  1.0
    f2935  OBJ  5.202706668736231
    f2935  r796  -1.0
    f2935  r808  1.0
    f2935  r1447  1.0
    f2936  OBJ  4.495388412323753
    f2936  r797  1.0
    f2936  r798  -1.0
    f2936  r1448  1.0
    f2937  OBJ  7.119590207632811
    f2937  r797  -1.0
    f2937  r798  1.0
    f2937  r1449  1.0
    f2938  OBJ  1.0846305661855613
    f2938  r797  1.0
    f2938  r809  -1.0
    f2938  r1450  1.0
    f2939  OBJ  1.9779784306069956
    f2939  r797  -1.0
    f2939  r809  1.0
    f2939  r1451  1.0
    f2940  OBJ  1.7656223383448246
    f2940  r798  1.0
    f2940  r799  -1.0
    f2940  r1452  1.0
    f2941  OBJ  1.9757356636276593
    f2941  r798  -1.0
    f2941  r799  1.0
    f2941  r1453  1.0
    f2942  OBJ  5.984399077982553
    f2942  r798  1.0
    f2942  r810  -1.0
    f2942  r1454  1.0
    f2943  OBJ  4.751953812845244
    f2943  r798  -1.0
    f2943  r810  1.0
    f2943  r1455  1.0
    f2944  OBJ  6.911526938116024
    f2944  r799  1.0
    f2944  r800  -1.0
    f2944  r1456  1.0
    f2945  OBJ  5.701495629352302
    f2945  r799  -1.0
    f2945  r800  1.0
    f2945  r1457  1.0
    f2946  OBJ  8.044580428570983
    f2946  r799  1.0
    f2946  r811  -1.0
    f2946  r1458  1.0
    f2947  OBJ  7.324669472023794
    f2947  r799  -1.0
    f2947  r811  1.0
    f2947  r1459  1.0
    f2948  OBJ  1.314066547938094
    f2948  r800  1.0
    f2948  r801  -1.0
    f2948  r1460  1.0
    f2949  OBJ  1.7861996272793332
    f2949  r800  -1.0
    f2949  r801  1.0
    f2949  r1461  1.0
    f2950  OBJ  6.983858312706064
    f2950  r800  1.0
    f2950  r812  -1.0
    f2950  r1462  1.0
    f2951  OBJ  8.675731147502312
    f2951  r800  -1.0
    f2951  r812  1.0
    f2951  r1463  1.0
    f2952  OBJ  8.427046161750996
    f2952  r801  1.0
    f2952  r802  -1.0
    f2952  r1464  1.0
    f2953  OBJ  1.8228964051985819
    f2953  r801  -1.0
    f2953  r802  1.0
    f2953  r1465  1.0
    f2954  OBJ  6.409233468018879
    f2954  r801  1.0
    f2954  r813  -1.0
    f2954  r1466  1.0
    f2955  OBJ  2.3497677657611447
    f2955  r801  -1.0
    f2955  r813  1.0
    f2955  r1467  1.0
    f2956  OBJ  3.7086207054581948
    f2956  r802  1.0
    f2956  r803  -1.0
    f2956  r1468  1.0
    f2957  OBJ  8.65715624722977
    f2957  r802  -1.0
    f2957  r803  1.0
    f2957  r1469  1.0
    f2958  OBJ  6.595096110933911
    f2958  r802  1.0
    f2958  r814  -1.0
    f2958  r1470  1.0
    f2959  OBJ  8.537672872213488
    f2959  r802  -1.0
    f2959  r814  1.0
    f2959  r1471  1.0
    f2960  OBJ  6.4434897279176155
    f2960  r803  1.0
    f2960  r815  -1.0
    f2960  r1472  1.0
    f2961  OBJ  9.13032417858997
    f2961  r803  -1.0
    f2961  r815  1.0
    f2961  r1473  1.0
    f2962  OBJ  3.4661275108262677
    f2962  r804  1.0
    f2962  r805  -1.0
    f2962  r1474  1.0
    f2963  OBJ  5.314808375552716
    f2963  r804  -1.0
    f2963  r805  1.0
    f2963  r1475  1.0
    f2964  OBJ  9.415650543340698
    f2964  r804  1.0
    f2964  r816  -1.0
    f2964  r1476  1.0
    f2965  OBJ  7.876608463745178
    f2965  r804  -1.0
    f2965  r816  1.0
    f2965  r1477  1.0
    f2966  OBJ  1.4555185085717608
    f2966  r805  1.0
    f2966  r806  -1.0
    f2966  r1478  1.0
    f2967  OBJ  2.8941717934539652
    f2967  r805  -1.0
    f2967  r806  1.0
    f2967  r1479  1.0
    f2968  OBJ  4.342485411336144
    f2968  r805  1.0
    f2968  r817  -1.0
    f2968  r1480  1.0
    f2969  OBJ  6.743615544985133
    f2969  r805  -1.0
    f2969  r817  1.0
    f2969  r1481  1.0
    f2970  OBJ  3.61203237863454
    f2970  r806  1.0
    f2970  r807  -1.0
    f2970  r1482  1.0
    f2971  OBJ  8.55096368863703
    f2971  r806  -1.0
    f2971  r807  1.0
    f2971  r1483  1.0
    f2972  OBJ  8.27410362430896
    f2972  r806  1.0
    f2972  r818  -1.0
    f2972  r1484  1.0
    f2973  OBJ  4.760315867692679
    f2973  r806  -1.0
    f2973  r818  1.0
    f2973  r1485  1.0
    f2974  OBJ  3.271951507739692
    f2974  r807  1.0
    f2974  r808  -1.0
    f2974  r1486  1.0
    f2975  OBJ  3.1289069487998327
    f2975  r807  -1.0
    f2975  r808  1.0
    f2975  r1487  1.0
    f2976  OBJ  3.0383411253968777
    f2976  r807  1.0
    f2976  r819  -1.0
    f2976  r1488  1.0
    f2977  OBJ  5.480200952044394
    f2977  r807  -1.0
    f2977  r819  1.0
    f2977  r1489  1.0
    f2978  OBJ  5.89233280359704
    f2978  r808  1.0
    f2978  r809  -1.0
    f2978  r1490  1.0
    f2979  OBJ  9.034834307474533
    f2979  r808  -1.0
    f2979  r809  1.0
    f2979  r1491  1.0
    f2980  OBJ  5.48019352885476
    f2980  r808  1.0
    f2980  r820  -1.0
    f2980  r1492  1.0
    f2981  OBJ  6.063511377019814
    f2981  r808  -1.0
    f2981  r820  1.0
    f2981  r1493  1.0
    f2982  OBJ  3.056570100539143
    f2982  r809  1.0
    f2982  r810  -1.0
    f2982  r1494  1.0
    f2983  OBJ  9.839114102074996
    f2983  r809  -1.0
    f2983  r810  1.0
    f2983  r1495  1.0
    f2984  OBJ  5.288831991624837
    f2984  r809  1.0
    f2984  r821  -1.0
    f2984  r1496  1.0
    f2985  OBJ  2.3618639776040853
    f2985  r809  -1.0
    f2985  r821  1.0
    f2985  r1497  1.0
    f2986  OBJ  3.6106988058510683
    f2986  r810  1.0
    f2986  r811  -1.0
    f2986  r1498  1.0
    f2987  OBJ  7.580321328506547
    f2987  r810  -1.0
    f2987  r811  1.0
    f2987  r1499  1.0
    f2988  OBJ  3.4236954706385108
    f2988  r810  1.0
    f2988  r822  -1.0
    f2988  r1500  1.0
    f2989  OBJ  9.935351400755525
    f2989  r810  -1.0
    f2989  r822  1.0
    f2989  r1501  1.0
    f2990  OBJ  6.0414245812900464
    f2990  r811  1.0
    f2990  r812  -1.0
    f2990  r1502  1.0
    f2991  OBJ  8.128246327252945
    f2991  r811  -1.0
    f2991  r812  1.0
    f2991  r1503  1.0
    f2992  OBJ  6.405207842179179
    f2992  r811  1.0
    f2992  r823  -1.0
    f2992  r1504  1.0
    f2993  OBJ  7.175588659685827
    f2993  r811  -1.0
    f2993  r823  1.0
    f2993  r1505  1.0
    f2994  OBJ  4.55280268396465
    f2994  r812  1.0
    f2994  r813  -1.0
    f2994  r1506  1.0
    f2995  OBJ  8.284176006510918
    f2995  r812  -1.0
    f2995  r813  1.0
    f2995  r1507  1.0
    f2996  OBJ  8.258425480846048
    f2996  r812  1.0
    f2996  r824  -1.0
    f2996  r1508  1.0
    f2997  OBJ  8.243636724075234
    f2997  r812  -1.0
    f2997  r824  1.0
    f2997  r1509  1.0
    f2998  OBJ  6.657537466663689
    f2998  r813  1.0
    f2998  r814  -1.0
    f2998  r1510  1.0
    f2999  OBJ  8.164781925273541
    f2999  r813  -1.0
    f2999  r814  1.0
    f2999  r1511  1.0
    f3000  OBJ  8.20681290475072
    f3000  r813  1.0
    f3000  r825  -1.0
    f3000  r1512  1.0
    f3001  OBJ  3.094638847430028
    f3001  r813  -1.0
    f3001  r825  1.0
    f3001  r1513  1.0
    f3002  OBJ  1.4217384987424868
    f3002  r814  1.0
    f3002  r815  -1.0
    f3002  r1514  1.0
    f3003  OBJ  9.287341261502519
    f3003  r814  -1.0
    f3003  r815  1.0
    f3003  r1515  1.0
    f3004  OBJ  4.510003809796323
    f3004  r814  1.0
    f3004  r826  -1.0
    f3004  r1516  1.0
    f3005  OBJ  1.689584135205687
    f3005  r814  -1.0
    f3005  r826  1.0
    f3005  r1517  1.0
    f3006  OBJ  8.829369194969871
    f3006  r815  1.0
    f3006  r827  -1.0
    f3006  r1518  1.0
    f3007  OBJ  8.579225926976626
    f3007  r815  -1.0
    f3007  r827  1.0
    f3007  r1519  1.0
    f3008  OBJ  6.515070056482823
    f3008  r816  1.0
    f3008  r817  -1.0
    f3008  r1520  1.0
    f3009  OBJ  1.9333861611603584
    f3009  r816  -1.0
    f3009  r817  1.0
    f3009  r1521  1.0
    f3010  OBJ  8.821126256390787
    f3010  r816  1.0
    f3010  r828  -1.0
    f3010  r1522  1.0
    f3011  OBJ  5.380010869548395
    f3011  r816  -1.0
    f3011  r828  1.0
    f3011  r1523  1.0
    f3012  OBJ  1.79435476258808
    f3012  r817  1.0
    f3012  r818  -1.0
    f3012  r1524  1.0
    f3013  OBJ  2.5881345830087987
    f3013  r817  -1.0
    f3013  r818  1.0
    f3013  r1525  1.0
    f3014  OBJ  2.2709020232246275
    f3014  r817  1.0
    f3014  r829  -1.0
    f3014  r1526  1.0
    f3015  OBJ  8.817342286568334
    f3015  r817  -1.0
    f3015  r829  1.0
    f3015  r1527  1.0
    f3016  OBJ  8.986263428543289
    f3016  r818  1.0
    f3016  r819  -1.0
    f3016  r1528  1.0
    f3017  OBJ  9.38185667015476
    f3017  r818  -1.0
    f3017  r819  1.0
    f3017  r1529  1.0
    f3018  OBJ  3.9106694183611115
    f3018  r818  1.0
    f3018  r830  -1.0
    f3018  r1530  1.0
    f3019  OBJ  6.2581326213504145
    f3019  r818  -1.0
    f3019  r830  1.0
    f3019  r1531  1.0
    f3020  OBJ  6.5413224246684765
    f3020  r819  1.0
    f3020  r820  -1.0
    f3020  r1532  1.0
    f3021  OBJ  4.24723656890971
    f3021  r819  -1.0
    f3021  r820  1.0
    f3021  r1533  1.0
    f3022  OBJ  1.1530270433944918
    f3022  r819  1.0
    f3022  r831  -1.0
    f3022  r1534  1.0
    f3023  OBJ  1.5456931069157984
    f3023  r819  -1.0
    f3023  r831  1.0
    f3023  r1535  1.0
    f3024  OBJ  1.7241574018463028
    f3024  r820  1.0
    f3024  r821  -1.0
    f3024  r1536  1.0
    f3025  OBJ  5.060393063505103
    f3025  r820  -1.0
    f3025  r821  1.0
    f3025  r1537  1.0
    f3026  OBJ  4.717674001218046
    f3026  r820  1.0
    f3026  r832  -1.0
    f3026  r1538  1.0
    f3027  OBJ  1.247230558457763
    f3027  r820  -1.0
    f3027  r832  1.0
    f3027  r1539  1.0
    f3028  OBJ  1.54764450308056
    f3028  r821  1.0
    f3028  r822  -1.0
    f3028  r1540  1.0
    f3029  OBJ  4.436901121272687
    f3029  r821  -1.0
    f3029  r822  1.0
    f3029  r1541  1.0
    f3030  OBJ  6.816823571619188
    f3030  r821  1.0
    f3030  r833  -1.0
    f3030  r1542  1.0
    f3031  OBJ  5.525496290785183
    f3031  r821  -1.0
    f3031  r833  1.0
    f3031  r1543  1.0
    f3032  OBJ  7.7892030889215045
    f3032  r822  1.0
    f3032  r823  -1.0
    f3032  r1544  1.0
    f3033  OBJ  6.021613449681658
    f3033  r822  -1.0
    f3033  r823  1.0
    f3033  r1545  1.0
    f3034  OBJ  1.7925975732094421
    f3034  r822  1.0
    f3034  r834  -1.0
    f3034  r1546  1.0
    f3035  OBJ  1.9605881002043333
    f3035  r822  -1.0
    f3035  r834  1.0
    f3035  r1547  1.0
    f3036  OBJ  4.214847872386429
    f3036  r823  1.0
    f3036  r824  -1.0
    f3036  r1548  1.0
    f3037  OBJ  6.4358061135036415
    f3037  r823  -1.0
    f3037  r824  1.0
    f3037  r1549  1.0
    f3038  OBJ  8.791756014834748
    f3038  r823  1.0
    f3038  r835  -1.0
    f3038  r1550  1.0
    f3039  OBJ  8.906412266607497
    f3039  r823  -1.0
    f3039  r835  1.0
    f3039  r1551  1.0
    f3040  OBJ  9.642936026015834
    f3040  r824  1.0
    f3040  r825  -1.0
    f3040  r1552  1.0
    f3041  OBJ  8.74458457431033
    f3041  r824  -1.0
    f3041  r825  1.0
    f3041  r1553  1.0
    f3042  OBJ  4.632826881809093
    f3042  r824  1.0
    f3042  r836  -1.0
    f3042  r1554  1.0
    f3043  OBJ  6.036208381774288
    f3043  r824  -1.0
    f3043  r836  1.0
    f3043  r1555  1.0
    f3044  OBJ  1.5445529663505415
    f3044  r825  1.0
    f3044  r826  -1.0
    f3044  r1556  1.0
    f3045  OBJ  9.46800502409497
    f3045  r825  -1.0
    f3045  r826  1.0
    f3045  r1557  1.0
    f3046  OBJ  6.293069097224333
    f3046  r825  1.0
    f3046  r837  -1.0
    f3046  r1558  1.0
    f3047  OBJ  1.392109310130999
    f3047  r825  -1.0
    f3047  r837  1.0
    f3047  r1559  1.0
    f3048  OBJ  8.98243592093765
    f3048  r826  1.0
    f3048  r827  -1.0
    f3048  r1560  1.0
    f3049  OBJ  7.457874392090199
    f3049  r826  -1.0
    f3049  r827  1.0
    f3049  r1561  1.0
    f3050  OBJ  9.86636593405365
    f3050  r826  1.0
    f3050  r838  -1.0
    f3050  r1562  1.0
    f3051  OBJ  1.884113845238686
    f3051  r826  -1.0
    f3051  r838  1.0
    f3051  r1563  1.0
    f3052  OBJ  4.817695723273715
    f3052  r827  1.0
    f3052  r839  -1.0
    f3052  r1564  1.0
    f3053  OBJ  1.9663286839312208
    f3053  r827  -1.0
    f3053  r839  1.0
    f3053  r1565  1.0
    f3054  OBJ  9.466546608877756
    f3054  r828  1.0
    f3054  r829  -1.0
    f3054  r1566  1.0
    f3055  OBJ  2.35517321804957
    f3055  r828  -1.0
    f3055  r829  1.0
    f3055  r1567  1.0
    f3056  OBJ  7.463676282084244
    f3056  r828  1.0
    f3056  r840  -1.0
    f3056  r1568  1.0
    f3057  OBJ  7.092173550062428
    f3057  r828  -1.0
    f3057  r840  1.0
    f3057  r1569  1.0
    f3058  OBJ  6.419758665712502
    f3058  r829  1.0
    f3058  r830  -1.0
    f3058  r1570  1.0
    f3059  OBJ  5.28633868688531
    f3059  r829  -1.0
    f3059  r830  1.0
    f3059  r1571  1.0
    f3060  OBJ  4.866007560405688
    f3060  r829  1.0
    f3060  r841  -1.0
    f3060  r1572  1.0
    f3061  OBJ  8.167183958198226
    f3061  r829  -1.0
    f3061  r841  1.0
    f3061  r1573  1.0
    f3062  OBJ  6.429584491675617
    f3062  r830  1.0
    f3062  r831  -1.0
    f3062  r1574  1.0
    f3063  OBJ  4.055450924783071
    f3063  r830  -1.0
    f3063  r831  1.0
    f3063  r1575  1.0
    f3064  OBJ  7.581300347906965
    f3064  r830  1.0
    f3064  r842  -1.0
    f3064  r1576  1.0
    f3065  OBJ  7.0298196315608354
    f3065  r830  -1.0
    f3065  r842  1.0
    f3065  r1577  1.0
    f3066  OBJ  4.957681743166404
    f3066  r831  1.0
    f3066  r832  -1.0
    f3066  r1578  1.0
    f3067  OBJ  7.318285653973427
    f3067  r831  -1.0
    f3067  r832  1.0
    f3067  r1579  1.0
    f3068  OBJ  2.4897868945411625
    f3068  r831  1.0
    f3068  r843  -1.0
    f3068  r1580  1.0
    f3069  OBJ  4.850063341307448
    f3069  r831  -1.0
    f3069  r843  1.0
    f3069  r1581  1.0
    f3070  OBJ  8.033896025571028
    f3070  r832  1.0
    f3070  r833  -1.0
    f3070  r1582  1.0
    f3071  OBJ  8.097860416424329
    f3071  r832  -1.0
    f3071  r833  1.0
    f3071  r1583  1.0
    f3072  OBJ  7.774866557965757
    f3072  r832  1.0
    f3072  r844  -1.0
    f3072  r1584  1.0
    f3073  OBJ  9.98372389208314
    f3073  r832  -1.0
    f3073  r844  1.0
    f3073  r1585  1.0
    f3074  OBJ  4.51239723509016
    f3074  r833  1.0
    f3074  r834  -1.0
    f3074  r1586  1.0
    f3075  OBJ  9.22551467867278
    f3075  r833  -1.0
    f3075  r834  1.0
    f3075  r1587  1.0
    f3076  OBJ  7.985321819227965
    f3076  r833  1.0
    f3076  r845  -1.0
    f3076  r1588  1.0
    f3077  OBJ  7.853878487528075
    f3077  r833  -1.0
    f3077  r845  1.0
    f3077  r1589  1.0
    f3078  OBJ  3.8988307865943725
    f3078  r834  1.0
    f3078  r835  -1.0
    f3078  r1590  1.0
    f3079  OBJ  1.8213408431341964
    f3079  r834  -1.0
    f3079  r835  1.0
    f3079  r1591  1.0
    f3080  OBJ  7.923969680330949
    f3080  r834  1.0
    f3080  r846  -1.0
    f3080  r1592  1.0
    f3081  OBJ  1.563767453091939
    f3081  r834  -1.0
    f3081  r846  1.0
    f3081  r1593  1.0
    f3082  OBJ  6.935198814097371
    f3082  r835  1.0
    f3082  r836  -1.0
    f3082  r1594  1.0
    f3083  OBJ  1.140233599419127
    f3083  r835  -1.0
    f3083  r836  1.0
    f3083  r1595  1.0
    f3084  OBJ  2.667798011767858
    f3084  r835  1.0
    f3084  r847  -1.0
    f3084  r1596  1.0
    f3085  OBJ  4.993681071225831
    f3085  r835  -1.0
    f3085  r847  1.0
    f3085  r1597  1.0
    f3086  OBJ  8.51136799825362
    f3086  r836  1.0
    f3086  r837  -1.0
    f3086  r1598  1.0
    f3087  OBJ  3.6987857321639197
    f3087  r836  -1.0
    f3087  r837  1.0
    f3087  r1599  1.0
    f3088  OBJ  9.300556541774627
    f3088  r836  1.0
    f3088  r848  -1.0
    f3088  r1600  1.0
    f3089  OBJ  9.475496473088528
    f3089  r836  -1.0
    f3089  r848  1.0
    f3089  r1601  1.0
    f3090  OBJ  7.7584063045366145
    f3090  r837  1.0
    f3090  r838  -1.0
    f3090  r1602  1.0
    f3091  OBJ  4.126292753714269
    f3091  r837  -1.0
    f3091  r838  1.0
    f3091  r1603  1.0
    f3092  OBJ  5.0828380217659666
    f3092  r837  1.0
    f3092  r849  -1.0
    f3092  r1604  1.0
    f3093  OBJ  9.7307357511208
    f3093  r837  -1.0
    f3093  r849  1.0
    f3093  r1605  1.0
    f3094  OBJ  6.106322066837172
    f3094  r838  1.0
    f3094  r839  -1.0
    f3094  r1606  1.0
    f3095  OBJ  6.3511769264331015
    f3095  r838  -1.0
    f3095  r839  1.0
    f3095  r1607  1.0
    f3096  OBJ  6.085853555964545
    f3096  r838  1.0
    f3096  r850  -1.0
    f3096  r1608  1.0
    f3097  OBJ  2.4188610871705665
    f3097  r838  -1.0
    f3097  r850  1.0
    f3097  r1609  1.0
    f3098  OBJ  9.924103008796113
    f3098  r839  1.0
    f3098  r851  -1.0
    f3098  r1610  1.0
    f3099  OBJ  6.3299777034315134
    f3099  r839  -1.0
    f3099  r851  1.0
    f3099  r1611  1.0
    f3100  OBJ  7.109020812874268
    f3100  r840  1.0
    f3100  r841  -1.0
    f3100  r1612  1.0
    f3101  OBJ  8.310746585559563
    f3101  r840  -1.0
    f3101  r841  1.0
    f3101  r1613  1.0
    f3102  OBJ  5.443692129422634
    f3102  r840  1.0
    f3102  r852  -1.0
    f3102  r1614  1.0
    f3103  OBJ  3.231987722633258
    f3103  r840  -1.0
    f3103  r852  1.0
    f3103  r1615  1.0
    f3104  OBJ  9.430566867020026
    f3104  r841  1.0
    f3104  r842  -1.0
    f3104  r1616  1.0
    f3105  OBJ  2.595050864337804
    f3105  r841  -1.0
    f3105  r842  1.0
    f3105  r1617  1.0
    f3106  OBJ  4.318987023072978
    f3106  r841  1.0
    f3106  r853  -1.0
    f3106  r1618  1.0
    f3107  OBJ  7.329669428774082
    f3107  r841  -1.0
    f3107  r853  1.0
    f3107  r1619  1.0
    f3108  OBJ  4.9836887656897915
    f3108  r842  1.0
    f3108  r843  -1.0
    f3108  r1620  1.0
    f3109  OBJ  6.352318630146749
    f3109  r842  -1.0
    f3109  r843  1.0
    f3109  r1621  1.0
    f3110  OBJ  2.99987842617096
    f3110  r842  1.0
    f3110  r854  -1.0
    f3110  r1622  1.0
    f3111  OBJ  8.620083490919386
    f3111  r842  -1.0
    f3111  r854  1.0
    f3111  r1623  1.0
    f3112  OBJ  8.771843830234175
    f3112  r843  1.0
    f3112  r844  -1.0
    f3112  r1624  1.0
    f3113  OBJ  4.955466875694067
    f3113  r843  -1.0
    f3113  r844  1.0
    f3113  r1625  1.0
    f3114  OBJ  9.247771892131468
    f3114  r843  1.0
    f3114  r855  -1.0
    f3114  r1626  1.0
    f3115  OBJ  8.81945506426993
    f3115  r843  -1.0
    f3115  r855  1.0
    f3115  r1627  1.0
    f3116  OBJ  6.830438423101554
    f3116  r844  1.0
    f3116  r845  -1.0
    f3116  r1628  1.0
    f3117  OBJ  3.051525755682319
    f3117  r844  -1.0
    f3117  r845  1.0
    f3117  r1629  1.0
    f3118  OBJ  1.2806710336649478
    f3118  r844  1.0
    f3118  r856  -1.0
    f3118  r1630  1.0
    f3119  OBJ  9.385515893642298
    f3119  r844  -1.0
    f3119  r856  1.0
    f3119  r1631  1.0
    f3120  OBJ  9.347005011305704
    f3120  r845  1.0
    f3120  r846  -1.0
    f3120  r1632  1.0
    f3121  OBJ  6.523754702624132
    f3121  r845  -1.0
    f3121  r846  1.0
    f3121  r1633  1.0
    f3122  OBJ  5.84234211010877
    f3122  r845  1.0
    f3122  r857  -1.0
    f3122  r1634  1.0
    f3123  OBJ  7.604297408003552
    f3123  r845  -1.0
    f3123  r857  1.0
    f3123  r1635  1.0
    f3124  OBJ  4.560010615077432
    f3124  r846  1.0
    f3124  r847  -1.0
    f3124  r1636  1.0
    f3125  OBJ  3.8763856694749403
    f3125  r846  -1.0
    f3125  r847  1.0
    f3125  r1637  1.0
    f3126  OBJ  4.127448896846589
    f3126  r846  1.0
    f3126  r858  -1.0
    f3126  r1638  1.0
    f3127  OBJ  4.125540637571846
    f3127  r846  -1.0
    f3127  r858  1.0
    f3127  r1639  1.0
    f3128  OBJ  5.870489008294482
    f3128  r847  1.0
    f3128  r848  -1.0
    f3128  r1640  1.0
    f3129  OBJ  1.1227156697234932
    f3129  r847  -1.0
    f3129  r848  1.0
    f3129  r1641  1.0
    f3130  OBJ  3.021900054708767
    f3130  r847  1.0
    f3130  r859  -1.0
    f3130  r1642  1.0
    f3131  OBJ  6.057863150573489
    f3131  r847  -1.0
    f3131  r859  1.0
    f3131  r1643  1.0
    f3132  OBJ  8.96832750186815
    f3132  r848  1.0
    f3132  r849  -1.0
    f3132  r1644  1.0
    f3133  OBJ  5.719635655221788
    f3133  r848  -1.0
    f3133  r849  1.0
    f3133  r1645  1.0
    f3134  OBJ  3.5255293439735524
    f3134  r848  1.0
    f3134  r860  -1.0
    f3134  r1646  1.0
    f3135  OBJ  9.48611550989987
    f3135  r848  -1.0
    f3135  r860  1.0
    f3135  r1647  1.0
    f3136  OBJ  8.695746371993316
    f3136  r849  1.0
    f3136  r850  -1.0
    f3136  r1648  1.0
    f3137  OBJ  3.418278390810974
    f3137  r849  -1.0
    f3137  r850  1.0
    f3137  r1649  1.0
    f3138  OBJ  9.934860761595974
    f3138  r849  1.0
    f3138  r861  -1.0
    f3138  r1650  1.0
    f3139  OBJ  7.258274874710123
    f3139  r849  -1.0
    f3139  r861  1.0
    f3139  r1651  1.0
    f3140  OBJ  3.3328534298199513
    f3140  r850  1.0
    f3140  r851  -1.0
    f3140  r1652  1.0
    f3141  OBJ  6.492333955930169
    f3141  r850  -1.0
    f3141  r851  1.0
    f3141  r1653  1.0
    f3142  OBJ  3.9443539764031295
    f3142  r850  1.0
    f3142  r862  -1.0
    f3142  r1654  1.0
    f3143  OBJ  9.315480371727524
    f3143  r850  -1.0
    f3143  r862  1.0
    f3143  r1655  1.0
    f3144  OBJ  6.528412566194859
    f3144  r851  1.0
    f3144  r863  -1.0
    f3144  r1656  1.0
    f3145  OBJ  1.4574915159359643
    f3145  r851  -1.0
    f3145  r863  1.0
    f3145  r1657  1.0
    f3146  OBJ  5.63981982753051
    f3146  r852  1.0
    f3146  r853  -1.0
    f3146  r1658  1.0
    f3147  OBJ  5.910777857561307
    f3147  r852  -1.0
    f3147  r853  1.0
    f3147  r1659  1.0
    f3148  OBJ  8.376216960334341
    f3148  r853  1.0
    f3148  r854  -1.0
    f3148  r1660  1.0
    f3149  OBJ  9.490699764840153
    f3149  r853  -1.0
    f3149  r854  1.0
    f3149  r1661  1.0
    f3150  OBJ  7.1149043862629755
    f3150  r854  1.0
    f3150  r855  -1.0
    f3150  r1662  1.0
    f3151  OBJ  6.221105241873805
    f3151  r854  -1.0
    f3151  r855  1.0
    f3151  r1663  1.0
    f3152  OBJ  5.784367932215563
    f3152  r855  1.0
    f3152  r856  -1.0
    f3152  r1664  1.0
    f3153  OBJ  2.5502291518798677
    f3153  r855  -1.0
    f3153  r856  1.0
    f3153  r1665  1.0
    f3154  OBJ  7.63824342000365
    f3154  r856  1.0
    f3154  r857  -1.0
    f3154  r1666  1.0
    f3155  OBJ  5.508061229245426
    f3155  r856  -1.0
    f3155  r857  1.0
    f3155  r1667  1.0
    f3156  OBJ  4.575305739515346
    f3156  r857  1.0
    f3156  r858  -1.0
    f3156  r1668  1.0
    f3157  OBJ  7.753010370046059
    f3157  r857  -1.0
    f3157  r858  1.0
    f3157  r1669  1.0
    f3158  OBJ  4.2151623050292955
    f3158  r858  1.0
    f3158  r859  -1.0
    f3158  r1670  1.0
    f3159  OBJ  7.337043397927561
    f3159  r858  -1.0
    f3159  r859  1.0
    f3159  r1671  1.0
    f3160  OBJ  3.937409412500358
    f3160  r859  1.0
    f3160  r860  -1.0
    f3160  r1672  1.0
    f3161  OBJ  2.7093259789121125
    f3161  r859  -1.0
    f3161  r860  1.0
    f3161  r1673  1.0
    f3162  OBJ  6.030144895898163
    f3162  r860  1.0
    f3162  r861  -1.0
    f3162  r1674  1.0
    f3163  OBJ  9.248603140452367
    f3163  r860  -1.0
    f3163  r861  1.0
    f3163  r1675  1.0
    f3164  OBJ  2.7012102773291957
    f3164  r861  1.0
    f3164  r862  -1.0
    f3164  r1676  1.0
    f3165  OBJ  2.3516175236739865
    f3165  r861  -1.0
    f3165  r862  1.0
    f3165  r1677  1.0
    f3166  OBJ  3.8723982737810747
    f3166  r862  1.0
    f3166  r863  -1.0
    f3166  r1678  1.0
    f3167  OBJ  8.735968157581555
    f3167  r862  -1.0
    f3167  r863  1.0
    f3167  r1679  1.0
    f3168  OBJ  5.843479163247489
    f3168  r864  1.0
    f3168  r865  -1.0
    f3168  r1152  1.0
    f3169  OBJ  4.089437828320046
    f3169  r864  -1.0
    f3169  r865  1.0
    f3169  r1153  1.0
    f3170  OBJ  4.3216051581584045
    f3170  r864  1.0
    f3170  r876  -1.0
    f3170  r1154  1.0
    f3171  OBJ  4.3704708902909415
    f3171  r864  -1.0
    f3171  r876  1.0
    f3171  r1155  1.0
    f3172  OBJ  9.887004911678199
    f3172  r865  1.0
    f3172  r866  -1.0
    f3172  r1156  1.0
    f3173  OBJ  6.694806453464315
    f3173  r865  -1.0
    f3173  r866  1.0
    f3173  r1157  1.0
    f3174  OBJ  7.068915374540442
    f3174  r865  1.0
    f3174  r877  -1.0
    f3174  r1158  1.0
    f3175  OBJ  3.9696710984691252
    f3175  r865  -1.0
    f3175  r877  1.0
    f3175  r1159  1.0
    f3176  OBJ  7.119258950476201
    f3176  r866  1.0
    f3176  r867  -1.0
    f3176  r1160  1.0
    f3177  OBJ  2.1067513739847104
    f3177  r866  -1.0
    f3177  r867  1.0
    f3177  r1161  1.0
    f3178  OBJ  1.465563087853977
    f3178  r866  1.0
    f3178  r878  -1.0
    f3178  r1162  1.0
    f3179  OBJ  8.651722121279082
    f3179  r866  -1.0
    f3179  r878  1.0
    f3179  r1163  1.0
    f3180  OBJ  1.080062249818912
    f3180  r867  1.0
    f3180  r868  -1.0
    f3180  r1164  1.0
    f3181  OBJ  9.80890805966767
    f3181  r867  -1.0
    f3181  r868  1.0
    f3181  r1165  1.0
    f3182  OBJ  8.443027232371483
    f3182  r867  1.0
    f3182  r879  -1.0
    f3182  r1166  1.0
    f3183  OBJ  8.066898633937342
    f3183  r867  -1.0
    f3183  r879  1.0
    f3183  r1167  1.0
    f3184  OBJ  1.4327513830229184
    f3184  r868  1.0
    f3184  r869  -1.0
    f3184  r1168  1.0
    f3185  OBJ  2.8669533958627724
    f3185  r868  -1.0
    f3185  r869  1.0
    f3185  r1169  1.0
    f3186  OBJ  8.648790679856907
    f3186  r868  1.0
    f3186  r880  -1.0
    f3186  r1170  1.0
    f3187  OBJ  4.892453304895277
    f3187  r868  -1.0
    f3187  r880  1.0
    f3187  r1171  1.0
    f3188  OBJ  6.647211403327665
    f3188  r869  1.0
    f3188  r870  -1.0
    f3188  r1172  1.0
    f3189  OBJ  2.1005415892986745
    f3189  r869  -1.0
    f3189  r870  1.0
    f3189  r1173  1.0
    f3190  OBJ  2.677026868100466
    f3190  r869  1.0
    f3190  r881  -1.0
    f3190  r1174  1.0
    f3191  OBJ  5.4754112146732625
    f3191  r869  -1.0
    f3191  r881  1.0
    f3191  r1175  1.0
    f3192  OBJ  7.835199191401016
    f3192  r870  1.0
    f3192  r871  -1.0
    f3192  r1176  1.0
    f3193  OBJ  5.858714839099925
    f3193  r870  -1.0
    f3193  r871  1.0
    f3193  r1177  1.0
    f3194  OBJ  1.9619207071213822
    f3194  r870  1.0
    f3194  r882  -1.0
    f3194  r1178  1.0
    f3195  OBJ  8.795674706633884
    f3195  r870  -1.0
    f3195  r882  1.0
    f3195  r1179  1.0
    f3196  OBJ  2.2569301861673416
    f3196  r871  1.0
    f3196  r872  -1.0
    f3196  r1180  1.0
    f3197  OBJ  4.956919817610607
    f3197  r871  -1.0
    f3197  r872  1.0
    f3197  r1181  1.0
    f3198  OBJ  6.281645261000175
    f3198  r871  1.0
    f3198  r883  -1.0
    f3198  r1182  1.0
    f3199  OBJ  3.8723455215676785
    f3199  r871  -1.0
    f3199  r883  1.0
    f3199  r1183  1.0
    f3200  OBJ  4.762487492955011
    f3200  r872  1.0
    f3200  r873  -1.0
    f3200  r1184  1.0
    f3201  OBJ  8.982680417439596
    f3201  r872  -1.0
    f3201  r873  1.0
    f3201  r1185  1.0
    f3202  OBJ  5.087221314275144
    f3202  r872  1.0
    f3202  r884  -1.0
    f3202  r1186  1.0
    f3203  OBJ  5.853224012546842
    f3203  r872  -1.0
    f3203  r884  1.0
    f3203  r1187  1.0
    f3204  OBJ  9.734402369267295
    f3204  r873  1.0
    f3204  r874  -1.0
    f3204  r1188  1.0
    f3205  OBJ  3.4838482279023597
    f3205  r873  -1.0
    f3205  r874  1.0
    f3205  r1189  1.0
    f3206  OBJ  9.05311169099006
    f3206  r873  1.0
    f3206  r885  -1.0
    f3206  r1190  1.0
    f3207  OBJ  4.2566996928588825
    f3207  r873  -1.0
    f3207  r885  1.0
    f3207  r1191  1.0
    f3208  OBJ  3.808369156683992
    f3208  r874  1.0
    f3208  r875  -1.0
    f3208  r1192  1.0
    f3209  OBJ  8.931602750040451
    f3209  r874  -1.0
    f3209  r875  1.0
    f3209  r1193  1.0
    f3210  OBJ  1.5894707335339273
    f3210  r874  1.0
    f3210  r886  -1.0
    f3210  r1194  1.0
    f3211  OBJ  8.799896097198229
    f3211  r874  -1.0
    f3211  r886  1.0
    f3211  r1195  1.0
    f3212  OBJ  8.449908565840481
    f3212  r875  1.0
    f3212  r887  -1.0
    f3212  r1196  1.0
    f3213  OBJ  9.05243356990497
    f3213  r875  -1.0
    f3213  r887  1.0
    f3213  r1197  1.0
    f3214  OBJ  1.5378154068686039
    f3214  r876  1.0
    f3214  r877  -1.0
    f3214  r1198  1.0
    f3215  OBJ  3.149250350989603
    f3215  r876  -1.0
    f3215  r877  1.0
    f3215  r1199  1.0
    f3216  OBJ  7.9763825368893055
    f3216  r876  1.0
    f3216  r888  -1.0
    f3216  r1200  1.0
    f3217  OBJ  4.931650790463847
    f3217  r876  -1.0
    f3217  r888  1.0
    f3217  r1201  1.0
    f3218  OBJ  1.0478184276486595
    f3218  r877  1.0
    f3218  r878  -1.0
    f3218  r1202  1.0
    f3219  OBJ  7.233576589265234
    f3219  r877  -1.0
    f3219  r878  1.0
    f3219  r1203  1.0
    f3220  OBJ  8.197927065695021
    f3220  r877  1.0
    f3220  r889  -1.0
    f3220  r1204  1.0
    f3221  OBJ  9.76262446210192
    f3221  r877  -1.0
    f3221  r889  1.0
    f3221  r1205  1.0
    f3222  OBJ  2.3559771646767214
    f3222  r878  1.0
    f3222  r879  -1.0
    f3222  r1206  1.0
    f3223  OBJ  3.2675947743516294
    f3223  r878  -1.0
    f3223  r879  1.0
    f3223  r1207  1.0
    f3224  OBJ  8.57224532832835
    f3224  r878  1.0
    f3224  r890  -1.0
    f3224  r1208  1.0
    f3225  OBJ  1.8262821126624695
    f3225  r878  -1.0
    f3225  r890  1.0
    f3225  r1209  1.0
    f3226  OBJ  3.4684351148653563
    f3226  r879  1.0
    f3226  r880  -1.0
    f3226  r1210  1.0
    f3227  OBJ  5.0658643600840545
    f3227  r879  -1.0
    f3227  r880  1.0
    f3227  r1211  1.0
    f3228  OBJ  4.765085478036262
    f3228  r879  1.0
    f3228  r891  -1.0
    f3228  r1212  1.0
    f3229  OBJ  5.884605364467616
    f3229  r879  -1.0
    f3229  r891  1.0
    f3229  r1213  1.0
    f3230  OBJ  8.81815836304687
    f3230  r880  1.0
    f3230  r881  -1.0
    f3230  r1214  1.0
    f3231  OBJ  6.681370181670063
    f3231  r880  -1.0
    f3231  r881  1.0
    f3231  r1215  1.0
    f3232  OBJ  6.886000713302363
    f3232  r880  1.0
    f3232  r892  -1.0
    f3232  r1216  1.0
    f3233  OBJ  6.329994115698163
    f3233  r880  -1.0
    f3233  r892  1.0
    f3233  r1217  1.0
    f3234  OBJ  2.89745780656496
    f3234  r881  1.0
    f3234  r882  -1.0
    f3234  r1218  1.0
    f3235  OBJ  5.0469319805790125
    f3235  r881  -1.0
    f3235  r882  1.0
    f3235  r1219  1.0
    f3236  OBJ  9.887845518427142
    f3236  r881  1.0
    f3236  r893  -1.0
    f3236  r1220  1.0
    f3237  OBJ  9.18307383604957
    f3237  r881  -1.0
    f3237  r893  1.0
    f3237  r1221  1.0
    f3238  OBJ  7.906999714511775
    f3238  r882  1.0
    f3238  r883  -1.0
    f3238  r1222  1.0
    f3239  OBJ  5.803134985573417
    f3239  r882  -1.0
    f3239  r883  1.0
    f3239  r1223  1.0
    f3240  OBJ  8.819791935718182
    f3240  r882  1.0
    f3240  r894  -1.0
    f3240  r1224  1.0
    f3241  OBJ  6.677942196100848
    f3241  r882  -1.0
    f3241  r894  1.0
    f3241  r1225  1.0
    f3242  OBJ  4.578123395103715
    f3242  r883  1.0
    f3242  r884  -1.0
    f3242  r1226  1.0
    f3243  OBJ  5.73687696795246
    f3243  r883  -1.0
    f3243  r884  1.0
    f3243  r1227  1.0
    f3244  OBJ  2.7872516802821625
    f3244  r883  1.0
    f3244  r895  -1.0
    f3244  r1228  1.0
    f3245  OBJ  6.155381271827194
    f3245  r883  -1.0
    f3245  r895  1.0
    f3245  r1229  1.0
    f3246  OBJ  3.8226207491633226
    f3246  r884  1.0
    f3246  r885  -1.0
    f3246  r1230  1.0
    f3247  OBJ  8.032593923327084
    f3247  r884  -1.0
    f3247  r885  1.0
    f3247  r1231  1.0
    f3248  OBJ  8.447683803834597
    f3248  r884  1.0
    f3248  r896  -1.0
    f3248  r1232  1.0
    f3249  OBJ  9.944166781185652
    f3249  r884  -1.0
    f3249  r896  1.0
    f3249  r1233  1.0
    f3250  OBJ  8.514758067385708
    f3250  r885  1.0
    f3250  r886  -1.0
    f3250  r1234  1.0
    f3251  OBJ  1.5333702487229801
    f3251  r885  -1.0
    f3251  r886  1.0
    f3251  r1235  1.0
    f3252  OBJ  7.518931095523543
    f3252  r885  1.0
    f3252  r897  -1.0
    f3252  r1236  1.0
    f3253  OBJ  8.27361552637164
    f3253  r885  -1.0
    f3253  r897  1.0
    f3253  r1237  1.0
    f3254  OBJ  8.850179988841164
    f3254  r886  1.0
    f3254  r887  -1.0
    f3254  r1238  1.0
    f3255  OBJ  5.425049455804184
    f3255  r886  -1.0
    f3255  r887  1.0
    f3255  r1239  1.0
    f3256  OBJ  5.283204492205081
    f3256  r886  1.0
    f3256  r898  -1.0
    f3256  r1240  1.0
    f3257  OBJ  5.777322522458589
    f3257  r886  -1.0
    f3257  r898  1.0
    f3257  r1241  1.0
    f3258  OBJ  2.3943995005292793
    f3258  r887  1.0
    f3258  r899  -1.0
    f3258  r1242  1.0
    f3259  OBJ  9.612598334079014
    f3259  r887  -1.0
    f3259  r899  1.0
    f3259  r1243  1.0
    f3260  OBJ  9.883038452562197
    f3260  r888  1.0
    f3260  r889  -1.0
    f3260  r1244  1.0
    f3261  OBJ  3.3668479442769903
    f3261  r888  -1.0
    f3261  r889  1.0
    f3261  r1245  1.0
    f3262  OBJ  9.616025266298925
    f3262  r888  1.0
    f3262  r900  -1.0
    f3262  r1246  1.0
    f3263  OBJ  2.8739629222224314
    f3263  r888  -1.0
    f3263  r900  1.0
    f3263  r1247  1.0
    f3264  OBJ  1.762693526837991
    f3264  r889  1.0
    f3264  r890  -1.0
    f3264  r1248  1.0
    f3265  OBJ  7.590067761304782
    f3265  r889  -1.0
    f3265  r890  1.0
    f3265  r1249  1.0
    f3266  OBJ  8.347655313259235
    f3266  r889  1.0
    f3266  r901  -1.0
    f3266  r1250  1.0
    f3267  OBJ  2.7975568257531913
    f3267  r889  -1.0
    f3267  r901  1.0
    f3267  r1251  1.0
    f3268  OBJ  9.583816133482737
    f3268  r890  1.0
    f3268  r891  -1.0
    f3268  r1252  1.0
    f3269  OBJ  4.597594046544144
    f3269  r890  -1.0
    f3269  r891  1.0
    f3269  r1253  1.0
    f3270  OBJ  2.672812870364235
    f3270  r890  1.0
    f3270  r902  -1.0
    f3270  r1254  1.0
    f3271  OBJ  3.705170203073723
    f3271  r890  -1.0
    f3271  r902  1.0
    f3271  r1255  1.0
    f3272  OBJ  2.0152999326320273
    f3272  r891  1.0
    f3272  r892  -1.0
    f3272  r1256  1.0
    f3273  OBJ  7.946388238006956
    f3273  r891  -1.0
    f3273  r892  1.0
    f3273  r1257  1.0
    f3274  OBJ  3.567815501244076
    f3274  r891  1.0
    f3274  r903  -1.0
    f3274  r1258  1.0
    f3275  OBJ  7.2396648493583475
    f3275  r891  -1.0
    f3275  r903  1.0
    f3275  r1259  1.0
    f3276  OBJ  5.148136829860446
    f3276  r892  1.0
    f3276  r893  -1.0
    f3276  r1260  1.0
    f3277  OBJ  2.1247572946633198
    f3277  r892  -1.0
    f3277  r893  1.0
    f3277  r1261  1.0
    f3278  OBJ  6.285209035118809
    f3278  r892  1.0
    f3278  r904  -1.0
    f3278  r1262  1.0
    f3279  OBJ  9.70457902276835
    f3279  r892  -1.0
    f3279  r904  1.0
    f3279  r1263  1.0
    f3280  OBJ  2.6638345376764683
    f3280  r893  1.0
    f3280  r894  -1.0
    f3280  r1264  1.0
    f3281  OBJ  9.663170978821231
    f3281  r893  -1.0
    f3281  r894  1.0
    f3281  r1265  1.0
    f3282  OBJ  2.062633599647878
    f3282  r893  1.0
    f3282  r905  -1.0
    f3282  r1266  1.0
    f3283  OBJ  6.187847879545351
    f3283  r893  -1.0
    f3283  r905  1.0
    f3283  r1267  1.0
    f3284  OBJ  2.562195711301708
    f3284  r894  1.0
    f3284  r895  -1.0
    f3284  r1268  1.0
    f3285  OBJ  9.963749442046902
    f3285  r894  -1.0
    f3285  r895  1.0
    f3285  r1269  1.0
    f3286  OBJ  5.948103521283666
    f3286  r894  1.0
    f3286  r906  -1.0
    f3286  r1270  1.0
    f3287  OBJ  8.84549741097349
    f3287  r894  -1.0
    f3287  r906  1.0
    f3287  r1271  1.0
    f3288  OBJ  7.367531877451553
    f3288  r895  1.0
    f3288  r896  -1.0
    f3288  r1272  1.0
    f3289  OBJ  5.0370586039786325
    f3289  r895  -1.0
    f3289  r896  1.0
    f3289  r1273  1.0
    f3290  OBJ  3.3365114494583135
    f3290  r895  1.0
    f3290  r907  -1.0
    f3290  r1274  1.0
    f3291  OBJ  8.848940341217338
    f3291  r895  -1.0
    f3291  r907  1.0
    f3291  r1275  1.0
    f3292  OBJ  8.967469784989184
    f3292  r896  1.0
    f3292  r897  -1.0
    f3292  r1276  1.0
    f3293  OBJ  8.056301029276604
    f3293  r896  -1.0
    f3293  r897  1.0
    f3293  r1277  1.0
    f3294  OBJ  8.261799444070519
    f3294  r896  1.0
    f3294  r908  -1.0
    f3294  r1278  1.0
    f3295  OBJ  1.3756333709345163
    f3295  r896  -1.0
    f3295  r908  1.0
    f3295  r1279  1.0
    f3296  OBJ  2.9712054557253227
    f3296  r897  1.0
    f3296  r898  -1.0
    f3296  r1280  1.0
    f3297  OBJ  5.990844544374253
    f3297  r897  -1.0
    f3297  r898  1.0
    f3297  r1281  1.0
    f3298  OBJ  1.7070566561872171
    f3298  r897  1.0
    f3298  r909  -1.0
    f3298  r1282  1.0
    f3299  OBJ  6.312234646179124
    f3299  r897  -1.0
    f3299  r909  1.0
    f3299  r1283  1.0
    f3300  OBJ  9.525295460899232
    f3300  r898  1.0
    f3300  r899  -1.0
    f3300  r1284  1.0
    f3301  OBJ  4.184128114500217
    f3301  r898  -1.0
    f3301  r899  1.0
    f3301  r1285  1.0
    f3302  OBJ  7.213383032669854
    f3302  r898  1.0
    f3302  r910  -1.0
    f3302  r1286  1.0
    f3303  OBJ  2.817068174308163
    f3303  r898  -1.0
    f3303  r910  1.0
    f3303  r1287  1.0
    f3304  OBJ  8.168247031162272
    f3304  r899  1.0
    f3304  r911  -1.0
    f3304  r1288  1.0
    f3305  OBJ  9.067977953848253
    f3305  r899  -1.0
    f3305  r911  1.0
    f3305  r1289  1.0
    f3306  OBJ  8.33711188653524
    f3306  r900  1.0
    f3306  r901  -1.0
    f3306  r1290  1.0
    f3307  OBJ  4.966699573658781
    f3307  r900  -1.0
    f3307  r901  1.0
    f3307  r1291  1.0
    f3308  OBJ  4.134208441347036
    f3308  r900  1.0
    f3308  r912  -1.0
    f3308  r1292  1.0
    f3309  OBJ  1.7537281635671031
    f3309  r900  -1.0
    f3309  r912  1.0
    f3309  r1293  1.0
    f3310  OBJ  8.63183269121383
    f3310  r901  1.0
    f3310  r902  -1.0
    f3310  r1294  1.0
    f3311  OBJ  9.134382435850736
    f3311  r901  -1.0
    f3311  r902  1.0
    f3311  r1295  1.0
    f3312  OBJ  6.026333765246144
    f3312  r901  1.0
    f3312  r913  -1.0
    f3312  r1296  1.0
    f3313  OBJ  7.877137223459138
    f3313  r901  -1.0
    f3313  r913  1.0
    f3313  r1297  1.0
    f3314  OBJ  3.051016504982827
    f3314  r902  1.0
    f3314  r903  -1.0
    f3314  r1298  1.0
    f3315  OBJ  7.803565893682319
    f3315  r902  -1.0
    f3315  r903  1.0
    f3315  r1299  1.0
    f3316  OBJ  3.2478880841995856
    f3316  r902  1.0
    f3316  r914  -1.0
    f3316  r1300  1.0
    f3317  OBJ  7.561582696471492
    f3317  r902  -1.0
    f3317  r914  1.0
    f3317  r1301  1.0
    f3318  OBJ  1.1077465912219826
    f3318  r903  1.0
    f3318  r904  -1.0
    f3318  r1302  1.0
    f3319  OBJ  4.462274498932999
    f3319  r903  -1.0
    f3319  r904  1.0
    f3319  r1303  1.0
    f3320  OBJ  3.143718312821855
    f3320  r903  1.0
    f3320  r915  -1.0
    f3320  r1304  1.0
    f3321  OBJ  1.3637892144637211
    f3321  r903  -1.0
    f3321  r915  1.0
    f3321  r1305  1.0
    f3322  OBJ  3.33536780497219
    f3322  r904  1.0
    f3322  r905  -1.0
    f3322  r1306  1.0
    f3323  OBJ  9.266985127160817
    f3323  r904  -1.0
    f3323  r905  1.0
    f3323  r1307  1.0
    f3324  OBJ  3.722854116303524
    f3324  r904  1.0
    f3324  r916  -1.0
    f3324  r1308  1.0
    f3325  OBJ  2.0478493989999245
    f3325  r904  -1.0
    f3325  r916  1.0
    f3325  r1309  1.0
    f3326  OBJ  7.001245287843152
    f3326  r905  1.0
    f3326  r906  -1.0
    f3326  r1310  1.0
    f3327  OBJ  7.9504753566883855
    f3327  r905  -1.0
    f3327  r906  1.0
    f3327  r1311  1.0
    f3328  OBJ  4.103119615708474
    f3328  r905  1.0
    f3328  r917  -1.0
    f3328  r1312  1.0
    f3329  OBJ  9.309033217289178
    f3329  r905  -1.0
    f3329  r917  1.0
    f3329  r1313  1.0
    f3330  OBJ  7.2741644884964956
    f3330  r906  1.0
    f3330  r907  -1.0
    f3330  r1314  1.0
    f3331  OBJ  5.837914239590002
    f3331  r906  -1.0
    f3331  r907  1.0
    f3331  r1315  1.0
    f3332  OBJ  9.069344515184543
    f3332  r906  1.0
    f3332  r918  -1.0
    f3332  r1316  1.0
    f3333  OBJ  8.28092182168296
    f3333  r906  -1.0
    f3333  r918  1.0
    f3333  r1317  1.0
    f3334  OBJ  6.438311445129069
    f3334  r907  1.0
    f3334  r908  -1.0
    f3334  r1318  1.0
    f3335  OBJ  3.2615425620963867
    f3335  r907  -1.0
    f3335  r908  1.0
    f3335  r1319  1.0
    f3336  OBJ  5.702488824101116
    f3336  r907  1.0
    f3336  r919  -1.0
    f3336  r1320  1.0
    f3337  OBJ  6.5851428786607675
    f3337  r907  -1.0
    f3337  r919  1.0
    f3337  r1321  1.0
    f3338  OBJ  9.071908100696
    f3338  r908  1.0
    f3338  r909  -1.0
    f3338  r1322  1.0
    f3339  OBJ  9.449913545414963
    f3339  r908  -1.0
    f3339  r909  1.0
    f3339  r1323  1.0
    f3340  OBJ  1.5526027546476011
    f3340  r908  1.0
    f3340  r920  -1.0
    f3340  r1324  1.0
    f3341  OBJ  5.740635528499118
    f3341  r908  -1.0
    f3341  r920  1.0
    f3341  r1325  1.0
    f3342  OBJ  9.43475860238855
    f3342  r909  1.0
    f3342  r910  -1.0
    f3342  r1326  1.0
    f3343  OBJ  4.879177272008489
    f3343  r909  -1.0
    f3343  r910  1.0
    f3343  r1327  1.0
    f3344  OBJ  7.784157847221835
    f3344  r909  1.0
    f3344  r921  -1.0
    f3344  r1328  1.0
    f3345  OBJ  3.067777991068951
    f3345  r909  -1.0
    f3345  r921  1.0
    f3345  r1329  1.0
    f3346  OBJ  8.840366234762376
    f3346  r910  1.0
    f3346  r911  -1.0
    f3346  r1330  1.0
    f3347  OBJ  2.569338415546724
    f3347  r910  -1.0
    f3347  r911  1.0
    f3347  r1331  1.0
    f3348  OBJ  3.3569594822839144
    f3348  r910  1.0
    f3348  r922  -1.0
    f3348  r1332  1.0
    f3349  OBJ  3.2123559621221753
    f3349  r910  -1.0
    f3349  r922  1.0
    f3349  r1333  1.0
    f3350  OBJ  2.2788823876101647
    f3350  r911  1.0
    f3350  r923  -1.0
    f3350  r1334  1.0
    f3351  OBJ  7.024989198482375
    f3351  r911  -1.0
    f3351  r923  1.0
    f3351  r1335  1.0
    f3352  OBJ  8.584841705834307
    f3352  r912  1.0
    f3352  r913  -1.0
    f3352  r1336  1.0
    f3353  OBJ  2.4180513221150917
    f3353  r912  -1.0
    f3353  r913  1.0
    f3353  r1337  1.0
    f3354  OBJ  2.7928105422408227
    f3354  r912  1.0
    f3354  r924  -1.0
    f3354  r1338  1.0
    f3355  OBJ  4.576467726391256
    f3355  r912  -1.0
    f3355  r924  1.0
    f3355  r1339  1.0
    f3356  OBJ  3.707947218147749
    f3356  r913  1.0
    f3356  r914  -1.0
    f3356  r1340  1.0
    f3357  OBJ  6.741770927053644
    f3357  r913  -1.0
    f3357  r914  1.0
    f3357  r1341  1.0
    f3358  OBJ  2.053531136352788
    f3358  r913  1.0
    f3358  r925  -1.0
    f3358  r1342  1.0
    f3359  OBJ  6.243616247545115
    f3359  r913  -1.0
    f3359  r925  1.0
    f3359  r1343  1.0
    f3360  OBJ  5.533037581812857
    f3360  r914  1.0
    f3360  r915  -1.0
    f3360  r1344  1.0
    f3361  OBJ  2.057070778845458
    f3361  r914  -1.0
    f3361  r915  1.0
    f3361  r1345  1.0
    f3362  OBJ  5.03319964067469
    f3362  r914  1.0
    f3362  r926  -1.0
    f3362  r1346  1.0
    f3363  OBJ  4.372981205688504
    f3363  r914  -1.0
    f3363  r926  1.0
    f3363  r1347  1.0
    f3364  OBJ  1.6071602069885822
    f3364  r915  1.0
    f3364  r916  -1.0
    f3364  r1348  1.0
    f3365  OBJ  3.932915843468632
    f3365  r915  -1.0
    f3365  r916  1.0
    f3365  r1349  1.0
    f3366  OBJ  6.784274421345183
    f3366  r915  1.0
    f3366  r927  -1.0
    f3366  r1350  1.0
    f3367  OBJ  8.87767040252694
    f3367  r915  -1.0
    f3367  r927  1.0
    f3367  r1351  1.0
    f3368  OBJ  9.57364570157721
    f3368  r916  1.0
    f3368  r917  -1.0
    f3368  r1352  1.0
    f3369  OBJ  7.629171914559498
    f3369  r916  -1.0
    f3369  r917  1.0
    f3369  r1353  1.0
    f3370  OBJ  4.673521736950686
    f3370  r916  1.0
    f3370  r928  -1.0
    f3370  r1354  1.0
    f3371  OBJ  2.3395263729787823
    f3371  r916  -1.0
    f3371  r928  1.0
    f3371  r1355  1.0
    f3372  OBJ  7.148071082372267
    f3372  r917  1.0
    f3372  r918  -1.0
    f3372  r1356  1.0
    f3373  OBJ  6.157914246676193
    f3373  r917  -1.0
    f3373  r918  1.0
    f3373  r1357  1.0
    f3374  OBJ  8.750560649496279
    f3374  r917  1.0
    f3374  r929  -1.0
    f3374  r1358  1.0
    f3375  OBJ  3.3051466646524137
    f3375  r917  -1.0
    f3375  r929  1.0
    f3375  r1359  1.0
    f3376  OBJ  6.912073358897169
    f3376  r918  1.0
    f3376  r919  -1.0
    f3376  r1360  1.0
    f3377  OBJ  1.8413904953890992
    f3377  r918  -1.0
    f3377  r919  1.0
    f3377  r1361  1.0
    f3378  OBJ  3.7859444762361294
    f3378  r918  1.0
    f3378  r930  -1.0
    f3378  r1362  1.0
    f3379  OBJ  4.880219335322179
    f3379  r918  -1.0
    f3379  r930  1.0
    f3379  r1363  1.0
    f3380  OBJ  8.248199274184902
    f3380  r919  1.0
    f3380  r920  -1.0
    f3380  r1364  1.0
    f3381  OBJ  4.129360889985302
    f3381  r919  -1.0
    f3381  r920  1.0
    f3381  r1365  1.0
    f3382  OBJ  6.570008312930026
    f3382  r919  1.0
    f3382  r931  -1.0
    f3382  r1366  1.0
    f3383  OBJ  9.874236205574777
    f3383  r919  -1.0
    f3383  r931  1.0
    f3383  r1367  1.0
    f3384  OBJ  9.51646875545354
    f3384  r920  1.0
    f3384  r921  -1.0
    f3384  r1368  1.0
    f3385  OBJ  5.298509275495396
    f3385  r920  -1.0
    f3385  r921  1.0
    f3385  r1369  1.0
    f3386  OBJ  2.8837232785759013
    f3386  r920  1.0
    f3386  r932  -1.0
    f3386  r1370  1.0
    f3387  OBJ  6.539390050808525
    f3387  r920  -1.0
    f3387  r932  1.0
    f3387  r1371  1.0
    f3388  OBJ  8.141807889146136
    f3388  r921  1.0
    f3388  r922  -1.0
    f3388  r1372  1.0
    f3389  OBJ  6.344872540246349
    f3389  r921  -1.0
    f3389  r922  1.0
    f3389  r1373  1.0
    f3390  OBJ  7.7292342535858936
    f3390  r921  1.0
    f3390  r933  -1.0
    f3390  r1374  1.0
    f3391  OBJ  2.919929548367037
    f3391  r921  -1.0
    f3391  r933  1.0
    f3391  r1375  1.0
    f3392  OBJ  3.5722688038057053
    f3392  r922  1.0
    f3392  r923  -1.0
    f3392  r1376  1.0
    f3393  OBJ  2.4058364065093754
    f3393  r922  -1.0
    f3393  r923  1.0
    f3393  r1377  1.0
    f3394  OBJ  1.5181313304897963
    f3394  r922  1.0
    f3394  r934  -1.0
    f3394  r1378  1.0
    f3395  OBJ  5.14441361017963
    f3395  r922  -1.0
    f3395  r934  1.0
    f3395  r1379  1.0
    f3396  OBJ  7.958578806368944
    f3396  r923  1.0
    f3396  r935  -1.0
    f3396  r1380  1.0
    f3397  OBJ  4.369669474409982
    f3397  r923  -1.0
    f3397  r935  1.0
    f3397  r1381  1.0
    f3398  OBJ  9.578268517437737
    f3398  r924  1.0
    f3398  r925  -1.0
    f3398  r1382  1.0
    f3399  OBJ  4.162536277129916
    f3399  r924  -1.0
    f3399  r925  1.0
    f3399  r1383  1.0
    f3400  OBJ  4.426687129543275
    f3400  r924  1.0
    f3400  r936  -1.0
    f3400  r1384  1.0
    f3401  OBJ  8.671251806248794
    f3401  r924  -1.0
    f3401  r936  1.0
    f3401  r1385  1.0
    f3402  OBJ  6.942519417241746
    f3402  r925  1.0
    f3402  r926  -1.0
    f3402  r1386  1.0
    f3403  OBJ  5.8091713864273
    f3403  r925  -1.0
    f3403  r926  1.0
    f3403  r1387  1.0
    f3404  OBJ  3.1250306131869907
    f3404  r925  1.0
    f3404  r937  -1.0
    f3404  r1388  1.0
    f3405  OBJ  1.7881153042109728
    f3405  r925  -1.0
    f3405  r937  1.0
    f3405  r1389  1.0
    f3406  OBJ  2.4738175169074745
    f3406  r926  1.0
    f3406  r927  -1.0
    f3406  r1390  1.0
    f3407  OBJ  2.4884050604864716
    f3407  r926  -1.0
    f3407  r927  1.0
    f3407  r1391  1.0
    f3408  OBJ  4.770114184150721
    f3408  r926  1.0
    f3408  r938  -1.0
    f3408  r1392  1.0
    f3409  OBJ  3.9764102922479694
    f3409  r926  -1.0
    f3409  r938  1.0
    f3409  r1393  1.0
    f3410  OBJ  5.924309803353416
    f3410  r927  1.0
    f3410  r928  -1.0
    f3410  r1394  1.0
    f3411  OBJ  3.3385493242589894
    f3411  r927  -1.0
    f3411  r928  1.0
    f3411  r1395  1.0
    f3412  OBJ  7.144749280430248
    f3412  r927  1.0
    f3412  r939  -1.0
    f3412  r1396  1.0
    f3413  OBJ  9.515200012995304
    f3413  r927  -1.0
    f3413  r939  1.0
    f3413  r1397  1.0
    f3414  OBJ  8.36033005720306
    f3414  r928  1.0
    f3414  r929  -1.0
    f3414  r1398  1.0
    f3415  OBJ  6.18865062078726
    f3415  r928  -1.0
    f3415  r929  1.0
    f3415  r1399  1.0
    f3416  OBJ  3.3278283690821286
    f3416  r928  1.0
    f3416  r940  -1.0
    f3416  r1400  1.0
    f3417  OBJ  8.118879965779355
    f3417  r928  -1.0
    f3417  r940  1.0
    f3417  r1401  1.0
    f3418  OBJ  8.525642503999077
    f3418  r929  1.0
    f3418  r930  -1.0
    f3418  r1402  1.0
    f3419  OBJ  1.8471927545361946
    f3419  r929  -1.0
    f3419  r930  1.0
    f3419  r1403  1.0
    f3420  OBJ  8.617861454104808
    f3420  r929  1.0
    f3420  r941  -1.0
    f3420  r1404  1.0
    f3421  OBJ  9.28184385663278
    f3421  r929  -1.0
    f3421  r941  1.0
    f3421  r1405  1.0
    f3422  OBJ  2.8218006430295373
    f3422  r930  1.0
    f3422  r931  -1.0
    f3422  r1406  1.0
    f3423  OBJ  2.651246163103225
    f3423  r930  -1.0
    f3423  r931  1.0
    f3423  r1407  1.0
    f3424  OBJ  7.5372506585615735
    f3424  r930  1.0
    f3424  r942  -1.0
    f3424  r1408  1.0
    f3425  OBJ  5.323717629241309
    f3425  r930  -1.0
    f3425  r942  1.0
    f3425  r1409  1.0
    f3426  OBJ  1.6656547324045405
    f3426  r931  1.0
    f3426  r932  -1.0
    f3426  r1410  1.0
    f3427  OBJ  6.520511657077648
    f3427  r931  -1.0
    f3427  r932  1.0
    f3427  r1411  1.0
    f3428  OBJ  8.462742992442585
    f3428  r931  1.0
    f3428  r943  -1.0
    f3428  r1412  1.0
    f3429  OBJ  7.562753261045978
    f3429  r931  -1.0
    f3429  r943  1.0
    f3429  r1413  1.0
    f3430  OBJ  1.4579849945343457
    f3430  r932  1.0
    f3430  r933  -1.0
    f3430  r1414  1.0
    f3431  OBJ  1.3840722864476893
    f3431  r932  -1.0
    f3431  r933  1.0
    f3431  r1415  1.0
    f3432  OBJ  5.6617811913676315
    f3432  r932  1.0
    f3432  r944  -1.0
    f3432  r1416  1.0
    f3433  OBJ  6.919498005080287
    f3433  r932  -1.0
    f3433  r944  1.0
    f3433  r1417  1.0
    f3434  OBJ  9.285794023306087
    f3434  r933  1.0
    f3434  r934  -1.0
    f3434  r1418  1.0
    f3435  OBJ  7.3993322363938745
    f3435  r933  -1.0
    f3435  r934  1.0
    f3435  r1419  1.0
    f3436  OBJ  7.101977977434503
    f3436  r933  1.0
    f3436  r945  -1.0
    f3436  r1420  1.0
    f3437  OBJ  8.876980031369033
    f3437  r933  -1.0
    f3437  r945  1.0
    f3437  r1421  1.0
    f3438  OBJ  4.66136303553649
    f3438  r934  1.0
    f3438  r935  -1.0
    f3438  r1422  1.0
    f3439  OBJ  2.547443857546328
    f3439  r934  -1.0
    f3439  r935  1.0
    f3439  r1423  1.0
    f3440  OBJ  2.0348893291575196
    f3440  r934  1.0
    f3440  r946  -1.0
    f3440  r1424  1.0
    f3441  OBJ  4.213952179581336
    f3441  r934  -1.0
    f3441  r946  1.0
    f3441  r1425  1.0
    f3442  OBJ  8.779879443746765
    f3442  r935  1.0
    f3442  r947  -1.0
    f3442  r1426  1.0
    f3443  OBJ  5.940792123148839
    f3443  r935  -1.0
    f3443  r947  1.0
    f3443  r1427  1.0
    f3444  OBJ  1.3920125076769931
    f3444  r936  1.0
    f3444  r937  -1.0
    f3444  r1428  1.0
    f3445  OBJ  9.163801058965287
    f3445  r936  -1.0
    f3445  r937  1.0
    f3445  r1429  1.0
    f3446  OBJ  8.413501768673024
    f3446  r936  1.0
    f3446  r948  -1.0
    f3446  r1430  1.0
    f3447  OBJ  1.5022974905585167
    f3447  r936  -1.0
    f3447  r948  1.0
    f3447  r1431  1.0
    f3448  OBJ  8.073763821337996
    f3448  r937  1.0
    f3448  r938  -1.0
    f3448  r1432  1.0
    f3449  OBJ  2.641997978893971
    f3449  r937  -1.0
    f3449  r938  1.0
    f3449  r1433  1.0
    f3450  OBJ  1.4524969311091085
    f3450  r937  1.0
    f3450  r949  -1.0
    f3450  r1434  1.0
    f3451  OBJ  4.560439970223803
    f3451  r937  -1.0
    f3451  r949  1.0
    f3451  r1435  1.0
    f3452  OBJ  7.349986377101174
    f3452  r938  1.0
    f3452  r939  -1.0
    f3452  r1436  1.0
    f3453  OBJ  3.4211263859867955
    f3453  r938  -1.0
    f3453  r939  1.0
    f3453  r1437  1.0
    f3454  OBJ  4.886653339206574
    f3454  r938  1.0
    f3454  r950  -1.0
    f3454  r1438  1.0
    f3455  OBJ  8.553204349239795
    f3455  r938  -1.0
    f3455  r950  1.0
    f3455  r1439  1.0
    f3456  OBJ  2.0931257120590527
    f3456  r939  1.0
    f3456  r940  -1.0
    f3456  r1440  1.0
    f3457  OBJ  6.764007836463744
    f3457  r939  -1.0
    f3457  r940  1.0
    f3457  r1441  1.0
    f3458  OBJ  3.8351177230513684
    f3458  r939  1.0
    f3458  r951  -1.0
    f3458  r1442  1.0
    f3459  OBJ  1.553625881370926
    f3459  r939  -1.0
    f3459  r951  1.0
    f3459  r1443  1.0
    f3460  OBJ  7.872044218655729
    f3460  r940  1.0
    f3460  r941  -1.0
    f3460  r1444  1.0
    f3461  OBJ  7.06928082643932
    f3461  r940  -1.0
    f3461  r941  1.0
    f3461  r1445  1.0
    f3462  OBJ  5.150207075823104
    f3462  r940  1.0
    f3462  r952  -1.0
    f3462  r1446  1.0
    f3463  OBJ  5.202706668736231
    f3463  r940  -1.0
    f3463  r952  1.0
    f3463  r1447  1.0
    f3464  OBJ  4.495388412323753
    f3464  r941  1.0
    f3464  r942  -1.0
    f3464  r1448  1.0
    f3465  OBJ  7.119590207632811
    f3465  r941  -1.0
    f3465  r942  1.0
    f3465  r1449  1.0
    f3466  OBJ  1.0846305661855613
    f3466  r941  1.0
    f3466  r953  -1.0
    f3466  r1450  1.0
    f3467  OBJ  1.9779784306069956
    f3467  r941  -1.0
    f3467  r953  1.0
    f3467  r1451  1.0
    f3468  OBJ  1.7656223383448246
    f3468  r942  1.0
    f3468  r943  -1.0
    f3468  r1452  1.0
    f3469  OBJ  1.9757356636276593
    f3469  r942  -1.0
    f3469  r943  1.0
    f3469  r1453  1.0
    f3470  OBJ  5.984399077982553
    f3470  r942  1.0
    f3470  r954  -1.0
    f3470  r1454  1.0
    f3471  OBJ  4.751953812845244
    f3471  r942  -1.0
    f3471  r954  1.0
    f3471  r1455  1.0
    f3472  OBJ  6.911526938116024
    f3472  r943  1.0
    f3472  r944  -1.0
    f3472  r1456  1.0
    f3473  OBJ  5.701495629352302
    f3473  r943  -1.0
    f3473  r944  1.0
    f3473  r1457  1.0
    f3474  OBJ  8.044580428570983
    f3474  r943  1.0
    f3474  r955  -1.0
    f3474  r1458  1.0
    f3475  OBJ  7.324669472023794
    f3475  r943  -1.0
    f3475  r955  1.0
    f3475  r1459  1.0
    f3476  OBJ  1.314066547938094
    f3476  r944  1.0
    f3476  r945  -1.0
    f3476  r1460  1.0
    f3477  OBJ  1.7861996272793332
    f3477  r944  -1.0
    f3477  r945  1.0
    f3477  r1461  1.0
    f3478  OBJ  6.983858312706064
    f3478  r944  1.0
    f3478  r956  -1.0
    f3478  r1462  1.0
    f3479  OBJ  8.675731147502312
    f3479  r944  -1.0
    f3479  r956  1.0
    f3479  r1463  1.0
    f3480  OBJ  8.427046161750996
    f3480  r945  1.0
    f3480  r946  -1.0
    f3480  r1464  1.0
    f3481  OBJ  1.8228964051985819
    f3481  r945  -1.0
    f3481  r946  1.0
    f3481  r1465  1.0
    f3482  OBJ  6.409233468018879
    f3482  r945  1.0
    f3482  r957  -1.0
    f3482  r1466  1.0
    f3483  OBJ  2.3497677657611447
    f3483  r945  -1.0
    f3483  r957  1.0
    f3483  r1467  1.0
    f3484  OBJ  3.7086207054581948
    f3484  r946  1.0
    f3484  r947  -1.0
    f3484  r1468  1.0
    f3485  OBJ  8.65715624722977
    f3485  r946  -1.0
    f3485  r947  1.0
    f3485  r1469  1.0
    f3486  OBJ  6.595096110933911
    f3486  r946  1.0
    f3486  r958  -1.0
    f3486  r1470  1.0
    f3487  OBJ  8.537672872213488
    f3487  r946  -1.0
    f3487  r958  1.0
    f3487  r1471  1.0
    f3488  OBJ  6.4434897279176155
    f3488  r947  1.0
    f3488  r959  -1.0
    f3488  r1472  1.0
    f3489  OBJ  9.13032417858997
    f3489  r947  -1.0
    f3489  r959  1.0
    f3489  r1473  1.0
    f3490  OBJ  3.4661275108262677
    f3490  r948  1.0
    f3490  r949  -1.0
    f3490  r1474  1.0
    f3491  OBJ  5.314808375552716
    f3491  r948  -1.0
    f3491  r949  1.0
    f3491  r1475  1.0
    f3492  OBJ  9.415650543340698
    f3492  r948  1.0
    f3492  r960  -1.0
    f3492  r1476  1.0
    f3493  OBJ  7.876608463745178
    f3493  r948  -1.0
    f3493  r960  1.0
    f3493  r1477  1.0
    f3494  OBJ  1.4555185085717608
    f3494  r949  1.0
    f3494  r950  -1.0
    f3494  r1478  1.0
    f3495  OBJ  2.8941717934539652
    f3495  r949  -1.0
    f3495  r950  1.0
    f3495  r1479  1.0
    f3496  OBJ  4.342485411336144
    f3496  r949  1.0
    f3496  r961  -1.0
    f3496  r1480  1.0
    f3497  OBJ  6.743615544985133
    f3497  r949  -1.0
    f3497  r961  1.0
    f3497  r1481  1.0
    f3498  OBJ  3.61203237863454
    f3498  r950  1.0
    f3498  r951  -1.0
    f3498  r1482  1.0
    f3499  OBJ  8.55096368863703
    f3499  r950  -1.0
    f3499  r951  1.0
    f3499  r1483  1.0
    f3500  OBJ  8.27410362430896
    f3500  r950  1.0
    f3500  r962  -1.0
    f3500  r1484  1.0
    f3501  OBJ  4.760315867692679
    f3501  r950  -1.0
    f3501  r962  1.0
    f3501  r1485  1.0
    f3502  OBJ  3.271951507739692
    f3502  r951  1.0
    f3502  r952  -1.0
    f3502  r1486  1.0
    f3503  OBJ  3.1289069487998327
    f3503  r951  -1.0
    f3503  r952  1.0
    f3503  r1487  1.0
    f3504  OBJ  3.0383411253968777
    f3504  r951  1.0
    f3504  r963  -1.0
    f3504  r1488  1.0
    f3505  OBJ  5.480200952044394
    f3505  r951  -1.0
    f3505  r963  1.0
    f3505  r1489  1.0
    f3506  OBJ  5.89233280359704
    f3506  r952  1.0
    f3506  r953  -1.0
    f3506  r1490  1.0
    f3507  OBJ  9.034834307474533
    f3507  r952  -1.0
    f3507  r953  1.0
    f3507  r1491  1.0
    f3508  OBJ  5.48019352885476
    f3508  r952  1.0
    f3508  r964  -1.0
    f3508  r1492  1.0
    f3509  OBJ  6.063511377019814
    f3509  r952  -1.0
    f3509  r964  1.0
    f3509  r1493  1.0
    f3510  OBJ  3.056570100539143
    f3510  r953  1.0
    f3510  r954  -1.0
    f3510  r1494  1.0
    f3511  OBJ  9.839114102074996
    f3511  r953  -1.0
    f3511  r954  1.0
    f3511  r1495  1.0
    f3512  OBJ  5.288831991624837
    f3512  r953  1.0
    f3512  r965  -1.0
    f3512  r1496  1.0
    f3513  OBJ  2.3618639776040853
    f3513  r953  -1.0
    f3513  r965  1.0
    f3513  r1497  1.0
    f3514  OBJ  3.6106988058510683
    f3514  r954  1.0
    f3514  r955  -1.0
    f3514  r1498  1.0
    f3515  OBJ  7.580321328506547
    f3515  r954  -1.0
    f3515  r955  1.0
    f3515  r1499  1.0
    f3516  OBJ  3.4236954706385108
    f3516  r954  1.0
    f3516  r966  -1.0
    f3516  r1500  1.0
    f3517  OBJ  9.935351400755525
    f3517  r954  -1.0
    f3517  r966  1.0
    f3517  r1501  1.0
    f3518  OBJ  6.0414245812900464
    f3518  r955  1.0
    f3518  r956  -1.0
    f3518  r1502  1.0
    f3519  OBJ  8.128246327252945
    f3519  r955  -1.0
    f3519  r956  1.0
    f3519  r1503  1.0
    f3520  OBJ  6.405207842179179
    f3520  r955  1.0
    f3520  r967  -1.0
    f3520  r1504  1.0
    f3521  OBJ  7.175588659685827
    f3521  r955  -1.0
    f3521  r967  1.0
    f3521  r1505  1.0
    f3522  OBJ  4.55280268396465
    f3522  r956  1.0
    f3522  r957  -1.0
    f3522  r1506  1.0
    f3523  OBJ  8.284176006510918
    f3523  r956  -1.0
    f3523  r957  1.0
    f3523  r1507  1.0
    f3524  OBJ  8.258425480846048
    f3524  r956  1.0
    f3524  r968  -1.0
    f3524  r1508  1.0
    f3525  OBJ  8.243636724075234
    f3525  r956  -1.0
    f3525  r968  1.0
    f3525  r1509  1.0
    f3526  OBJ  6.657537466663689
    f3526  r957  1.0
    f3526  r958  -1.0
    f3526  r1510  1.0
    f3527  OBJ  8.164781925273541
    f3527  r957  -1.0
    f3527  r958  1.0
    f3527  r1511  1.0
    f3528  OBJ  8.20681290475072
    f3528  r957  1.0
    f3528  r969  -1.0
    f3528  r1512  1.0
    f3529  OBJ  3.094638847430028
    f3529  r957  -1.0
    f3529  r969  1.0
    f3529  r1513  1.0
    f3530  OBJ  1.4217384987424868
    f3530  r958  1.0
    f3530  r959  -1.0
    f3530  r1514  1.0
    f3531  OBJ  9.287341261502519
    f3531  r958  -1.0
    f3531  r959  1.0
    f3531  r1515  1.0
    f3532  OBJ  4.510003809796323
    f3532  r958  1.0
    f3532  r970  -1.0
    f3532  r1516  1.0
    f3533  OBJ  1.689584135205687
    f3533  r958  -1.0
    f3533  r970  1.0
    f3533  r1517  1.0
    f3534  OBJ  8.829369194969871
    f3534  r959  1.0
    f3534  r971  -1.0
    f3534  r1518  1.0
    f3535  OBJ  8.579225926976626
    f3535  r959  -1.0
    f3535  r971  1.0
    f3535  r1519  1.0
    f3536  OBJ  6.515070056482823
    f3536  r960  1.0
    f3536  r961  -1.0
    f3536  r1520  1.0
    f3537  OBJ  1.9333861611603584
    f3537  r960  -1.0
    f3537  r961  1.0
    f3537  r1521  1.0
    f3538  OBJ  8.821126256390787
    f3538  r960  1.0
    f3538  r972  -1.0
    f3538  r1522  1.0
    f3539  OBJ  5.380010869548395
    f3539  r960  -1.0
    f3539  r972  1.0
    f3539  r1523  1.0
    f3540  OBJ  1.79435476258808
    f3540  r961  1.0
    f3540  r962  -1.0
    f3540  r1524  1.0
    f3541  OBJ  2.5881345830087987
    f3541  r961  -1.0
    f3541  r962  1.0
    f3541  r1525  1.0
    f3542  OBJ  2.2709020232246275
    f3542  r961  1.0
    f3542  r973  -1.0
    f3542  r1526  1.0
    f3543  OBJ  8.817342286568334
    f3543  r961  -1.0
    f3543  r973  1.0
    f3543  r1527  1.0
    f3544  OBJ  8.986263428543289
    f3544  r962  1.0
    f3544  r963  -1.0
    f3544  r1528  1.0
    f3545  OBJ  9.38185667015476
    f3545  r962  -1.0
    f3545  r963  1.0
    f3545  r1529  1.0
    f3546  OBJ  3.9106694183611115
    f3546  r962  1.0
    f3546  r974  -1.0
    f3546  r1530  1.0
    f3547  OBJ  6.2581326213504145
    f3547  r962  -1.0
    f3547  r974  1.0
    f3547  r1531  1.0
    f3548  OBJ  6.5413224246684765
    f3548  r963  1.0
    f3548  r964  -1.0
    f3548  r1532  1.0
    f3549  OBJ  4.24723656890971
    f3549  r963  -1.0
    f3549  r964  1.0
    f3549  r1533  1.0
    f3550  OBJ  1.1530270433944918
    f3550  r963  1.0
    f3550  r975  -1.0
    f3550  r1534  1.0
    f3551  OBJ  1.5456931069157984
    f3551  r963  -1.0
    f3551  r975  1.0
    f3551  r1535  1.0
    f3552  OBJ  1.7241574018463028
    f3552  r964  1.0
    f3552  r965  -1.0
    f3552  r1536  1.0
    f3553  OBJ  5.060393063505103
    f3553  r964  -1.0
    f3553  r965  1.0
    f3553  r1537  1.0
    f3554  OBJ  4.717674001218046
    f3554  r964  1.0
    f3554  r976  -1.0
    f3554  r1538  1.0
    f3555  OBJ  1.247230558457763
    f3555  r964  -1.0
    f3555  r976  1.0
    f3555  r1539  1.0
    f3556  OBJ  1.54764450308056
    f3556  r965  1.0
    f3556  r966  -1.0
    f3556  r1540  1.0
    f3557  OBJ  4.436901121272687
    f3557  r965  -1.0
    f3557  r966  1.0
    f3557  r1541  1.0
    f3558  OBJ  6.816823571619188
    f3558  r965  1.0
    f3558  r977  -1.0
    f3558  r1542  1.0
    f3559  OBJ  5.525496290785183
    f3559  r965  -1.0
    f3559  r977  1.0
    f3559  r1543  1.0
    f3560  OBJ  7.7892030889215045
    f3560  r966  1.0
    f3560  r967  -1.0
    f3560  r1544  1.0
    f3561  OBJ  6.021613449681658
    f3561  r966  -1.0
    f3561  r967  1.0
    f3561  r1545  1.0
    f3562  OBJ  1.7925975732094421
    f3562  r966  1.0
    f3562  r978  -1.0
    f3562  r1546  1.0
    f3563  OBJ  1.9605881002043333
    f3563  r966  -1.0
    f3563  r978  1.0
    f3563  r1547  1.0
    f3564  OBJ  4.214847872386429
    f3564  r967  1.0
    f3564  r968  -1.0
    f3564  r1548  1.0
    f3565  OBJ  6.4358061135036415
    f3565  r967  -1.0
    f3565  r968  1.0
    f3565  r1549  1.0
    f3566  OBJ  8.791756014834748
    f3566  r967  1.0
    f3566  r979  -1.0
    f3566  r1550  1.0
    f3567  OBJ  8.906412266607497
    f3567  r967  -1.0
    f3567  r979  1.0
    f3567  r1551  1.0
    f3568  OBJ  9.642936026015834
    f3568  r968  1.0
    f3568  r969  -1.0
    f3568  r1552  1.0
    f3569  OBJ  8.74458457431033
    f3569  r968  -1.0
    f3569  r969  1.0
    f3569  r1553  1.0
    f3570  OBJ  4.632826881809093
    f3570  r968  1.0
    f3570  r980  -1.0
    f3570  r1554  1.0
    f3571  OBJ  6.036208381774288
    f3571  r968  -1.0
    f3571  r980  1.0
    f3571  r1555  1.0
    f3572  OBJ  1.5445529663505415
    f3572  r969  1.0
    f3572  r970  -1.0
    f3572  r1556  1.0
    f3573  OBJ  9.46800502409497
    f3573  r969  -1.0
    f3573  r970  1.0
    f3573  r1557  1.0
    f3574  OBJ  6.293069097224333
    f3574  r969  1.0
    f3574  r981  -1.0
    f3574  r1558  1.0
    f3575  OBJ  1.392109310130999
    f3575  r969  -1.0
    f3575  r981  1.0
    f3575  r1559  1.0
    f3576  OBJ  8.98243592093765
    f3576  r970  1.0
    f3576  r971  -1.0
    f3576  r1560  1.0
    f3577  OBJ  7.457874392090199
    f3577  r970  -1.0
    f3577  r971  1.0
    f3577  r1561  1.0
    f3578  OBJ  9.86636593405365
    f3578  r970  1.0
    f3578  r982  -1.0
    f3578  r1562  1.0
    f3579  OBJ  1.884113845238686
    f3579  r970  -1.0
    f3579  r982  1.0
    f3579  r1563  1.0
    f3580  OBJ  4.817695723273715
    f3580  r971  1.0
    f3580  r983  -1.0
    f3580  r1564  1.0
    f3581  OBJ  1.9663286839312208
    f3581  r971  -1.0
    f3581  r983  1.0
    f3581  r1565  1.0
    f3582  OBJ  9.466546608877756
    f3582  r972  1.0
    f3582  r973  -1.0
    f3582  r1566  1.0
    f3583  OBJ  2.35517321804957
    f3583  r972  -1.0
    f3583  r973  1.0
    f3583  r1567  1.0
    f3584  OBJ  7.463676282084244
    f3584  r972  1.0
    f3584  r984  -1.0
    f3584  r1568  1.0
    f3585  OBJ  7.092173550062428
    f3585  r972  -1.0
    f3585  r984  1.0
    f3585  r1569  1.0
    f3586  OBJ  6.419758665712502
    f3586  r973  1.0
    f3586  r974  -1.0
    f3586  r1570  1.0
    f3587  OBJ  5.28633868688531
    f3587  r973  -1.0
    f3587  r974  1.0
    f3587  r1571  1.0
    f3588  OBJ  4.866007560405688
    f3588  r973  1.0
    f3588  r985  -1.0
    f3588  r1572  1.0
    f3589  OBJ  8.167183958198226
    f3589  r973  -1.0
    f3589  r985  1.0
    f3589  r1573  1.0
    f3590  OBJ  6.429584491675617
    f3590  r974  1.0
    f3590  r975  -1.0
    f3590  r1574  1.0
    f3591  OBJ  4.055450924783071
    f3591  r974  -1.0
    f3591  r975  1.0
    f3591  r1575  1.0
    f3592  OBJ  7.581300347906965
    f3592  r974  1.0
    f3592  r986  -1.0
    f3592  r1576  1.0
    f3593  OBJ  7.0298196315608354
    f3593  r974  -1.0
    f3593  r986  1.0
    f3593  r1577  1.0
    f3594  OBJ  4.957681743166404
    f3594  r975  1.0
    f3594  r976  -1.0
    f3594  r1578  1.0
    f3595  OBJ  7.318285653973427
    f3595  r975  -1.0
    f3595  r976  1.0
    f3595  r1579  1.0
    f3596  OBJ  2.4897868945411625
    f3596  r975  1.0
    f3596  r987  -1.0
    f3596  r1580  1.0
    f3597  OBJ  4.850063341307448
    f3597  r975  -1.0
    f3597  r987  1.0
    f3597  r1581  1.0
    f3598  OBJ  8.033896025571028
    f3598  r976  1.0
    f3598  r977  -1.0
    f3598  r1582  1.0
    f3599  OBJ  8.097860416424329
    f3599  r976  -1.0
    f3599  r977  1.0
    f3599  r1583  1.0
    f3600  OBJ  7.774866557965757
    f3600  r976  1.0
    f3600  r988  -1.0
    f3600  r1584  1.0
    f3601  OBJ  9.98372389208314
    f3601  r976  -1.0
    f3601  r988  1.0
    f3601  r1585  1.0
    f3602  OBJ  4.51239723509016
    f3602  r977  1.0
    f3602  r978  -1.0
    f3602  r1586  1.0
    f3603  OBJ  9.22551467867278
    f3603  r977  -1.0
    f3603  r978  1.0
    f3603  r1587  1.0
    f3604  OBJ  7.985321819227965
    f3604  r977  1.0
    f3604  r989  -1.0
    f3604  r1588  1.0
    f3605  OBJ  7.853878487528075
    f3605  r977  -1.0
    f3605  r989  1.0
    f3605  r1589  1.0
    f3606  OBJ  3.8988307865943725
    f3606  r978  1.0
    f3606  r979  -1.0
    f3606  r1590  1.0
    f3607  OBJ  1.8213408431341964
    f3607  r978  -1.0
    f3607  r979  1.0
    f3607  r1591  1.0
    f3608  OBJ  7.923969680330949
    f3608  r978  1.0
    f3608  r990  -1.0
    f3608  r1592  1.0
    f3609  OBJ  1.563767453091939
    f3609  r978  -1.0
    f3609  r990  1.0
    f3609  r1593  1.0
    f3610  OBJ  6.935198814097371
    f3610  r979  1.0
    f3610  r980  -1.0
    f3610  r1594  1.0
    f3611  OBJ  1.140233599419127
    f3611  r979  -1.0
    f3611  r980  1.0
    f3611  r1595  1.0
    f3612  OBJ  2.667798011767858
    f3612  r979  1.0
    f3612  r991  -1.0
    f3612  r1596  1.0
    f3613  OBJ  4.993681071225831
    f3613  r979  -1.0
    f3613  r991  1.0
    f3613  r1597  1.0
    f3614  OBJ  8.51136799825362
    f3614  r980  1.0
    f3614  r981  -1.0
    f3614  r1598  1.0
    f3615  OBJ  3.6987857321639197
    f3615  r980  -1.0
    f3615  r981  1.0
    f3615  r1599  1.0
    f3616  OBJ  9.300556541774627
    f3616  r980  1.0
    f3616  r992  -1.0
    f3616  r1600  1.0
    f3617  OBJ  9.475496473088528
    f3617  r980  -1.0
    f3617  r992  1.0
    f3617  r1601  1.0
    f3618  OBJ  7.7584063045366145
    f3618  r981  1.0
    f3618  r982  -1.0
    f3618  r1602  1.0
    f3619  OBJ  4.126292753714269
    f3619  r981  -1.0
    f3619  r982  1.0
    f3619  r1603  1.0
    f3620  OBJ  5.0828380217659666
    f3620  r981  1.0
    f3620  r993  -1.0
    f3620  r1604  1.0
    f3621  OBJ  9.7307357511208
    f3621  r981  -1.0
    f3621  r993  1.0
    f3621  r1605  1.0
    f3622  OBJ  6.106322066837172
    f3622  r982  1.0
    f3622  r983  -1.0
    f3622  r1606  1.0
    f3623  OBJ  6.3511769264331015
    f3623  r982  -1.0
    f3623  r983  1.0
    f3623  r1607  1.0
    f3624  OBJ  6.085853555964545
    f3624  r982  1.0
    f3624  r994  -1.0
    f3624  r1608  1.0
    f3625  OBJ  2.4188610871705665
    f3625  r982  -1.0
    f3625  r994  1.0
    f3625  r1609  1.0
    f3626  OBJ  9.924103008796113
    f3626  r983  1.0
    f3626  r995  -1.0
    f3626  r1610  1.0
    f3627  OBJ  6.3299777034315134
    f3627  r983  -1.0
    f3627  r995  1.0
    f3627  r1611  1.0
    f3628  OBJ  7.109020812874268
    f3628  r984  1.0
    f3628  r985  -1.0
    f3628  r1612  1.0
    f3629  OBJ  8.310746585559563
    f3629  r984  -1.0
    f3629  r985  1.0
    f3629  r1613  1.0
    f3630  OBJ  5.443692129422634
    f3630  r984  1.0
    f3630  r996  -1.0
    f3630  r1614  1.0
    f3631  OBJ  3.231987722633258
    f3631  r984  -1.0
    f3631  r996  1.0
    f3631  r1615  1.0
    f3632  OBJ  9.430566867020026
    f3632  r985  1.0
    f3632  r986  -1.0
    f3632  r1616  1.0
    f3633  OBJ  2.595050864337804
    f3633  r985  -1.0
    f3633  r986  1.0
    f3633  r1617  1.0
    f3634  OBJ  4.318987023072978
    f3634  r985  1.0
    f3634  r997  -1.0
    f3634  r1618  1.0
    f3635  OBJ  7.329669428774082
    f3635  r985  -1.0
    f3635  r997  1.0
    f3635  r1619  1.0
    f3636  OBJ  4.9836887656897915
    f3636  r986  1.0
    f3636  r987  -1.0
    f3636  r1620  1.0
    f3637  OBJ  6.352318630146749
    f3637  r986  -1.0
    f3637  r987  1.0
    f3637  r1621  1.0
    f3638  OBJ  2.99987842617096
    f3638  r986  1.0
    f3638  r998  -1.0
    f3638  r1622  1.0
    f3639  OBJ  8.620083490919386
    f3639  r986  -1.0
    f3639  r998  1.0
    f3639  r1623  1.0
    f3640  OBJ  8.771843830234175
    f3640  r987  1.0
    f3640  r988  -1.0
    f3640  r1624  1.0
    f3641  OBJ  4.955466875694067
    f3641  r987  -1.0
    f3641  r988  1.0
    f3641  r1625  1.0
    f3642  OBJ  9.247771892131468
    f3642  r987  1.0
    f3642  r999  -1.0
    f3642  r1626  1.0
    f3643  OBJ  8.81945506426993
    f3643  r987  -1.0
    f3643  r999  1.0
    f3643  r1627  1.0
    f3644  OBJ  6.830438423101554
    f3644  r988  1.0
    f3644  r989  -1.0
    f3644  r1628  1.0
    f3645  OBJ  3.051525755682319
    f3645  r988  -1.0
    f3645  r989  1.0
    f3645  r1629  1.0
    f3646  OBJ  1.2806710336649478
    f3646  r988  1.0
    f3646  r1000  -1.0
    f3646  r1630  1.0
    f3647  OBJ  9.385515893642298
    f3647  r988  -1.0
    f3647  r1000  1.0
    f3647  r1631  1.0
    f3648  OBJ  9.347005011305704
    f3648  r989  1.0
    f3648  r990  -1.0
    f3648  r1632  1.0
    f3649  OBJ  6.523754702624132
    f3649  r989  -1.0
    f3649  r990  1.0
    f3649  r1633  1.0
    f3650  OBJ  5.84234211010877
    f3650  r989  1.0
    f3650  r1001  -1.0
    f3650  r1634  1.0
    f3651  OBJ  7.604297408003552
    f3651  r989  -1.0
    f3651  r1001  1.0
    f3651  r1635  1.0
    f3652  OBJ  4.560010615077432
    f3652  r990  1.0
    f3652  r991  -1.0
    f3652  r1636  1.0
    f3653  OBJ  3.8763856694749403
    f3653  r990  -1.0
    f3653  r991  1.0
    f3653  r1637  1.0
    f3654  OBJ  4.127448896846589
    f3654  r990  1.0
    f3654  r1002  -1.0
    f3654  r1638  1.0
    f3655  OBJ  4.125540637571846
    f3655  r990  -1.0
    f3655  r1002  1.0
    f3655  r1639  1.0
    f3656  OBJ  5.870489008294482
    f3656  r991  1.0
    f3656  r992  -1.0
    f3656  r1640  1.0
    f3657  OBJ  1.1227156697234932
    f3657  r991  -1.0
    f3657  r992  1.0
    f3657  r1641  1.0
    f3658  OBJ  3.021900054708767
    f3658  r991  1.0
    f3658  r1003  -1.0
    f3658  r1642  1.0
    f3659  OBJ  6.057863150573489
    f3659  r991  -1.0
    f3659  r1003  1.0
    f3659  r1643  1.0
    f3660  OBJ  8.96832750186815
    f3660  r992  1.0
    f3660  r993  -1.0
    f3660  r1644  1.0
    f3661  OBJ  5.719635655221788
    f3661  r992  -1.0
    f3661  r993  1.0
    f3661  r1645  1.0
    f3662  OBJ  3.5255293439735524
    f3662  r992  1.0
    f3662  r1004  -1.0
    f3662  r1646  1.0
    f3663  OBJ  9.48611550989987
    f3663  r992  -1.0
    f3663  r1004  1.0
    f3663  r1647  1.0
    f3664  OBJ  8.695746371993316
    f3664  r993  1.0
    f3664  r994  -1.0
    f3664  r1648  1.0
    f3665  OBJ  3.418278390810974
    f3665  r993  -1.0
    f3665  r994  1.0
    f3665  r1649  1.0
    f3666  OBJ  9.934860761595974
    f3666  r993  1.0
    f3666  r1005  -1.0
    f3666  r1650  1.0
    f3667  OBJ  7.258274874710123
    f3667  r993  -1.0
    f3667  r1005  1.0
    f3667  r1651  1.0
    f3668  OBJ  3.3328534298199513
    f3668  r994  1.0
    f3668  r995  -1.0
    f3668  r1652  1.0
    f3669  OBJ  6.492333955930169
    f3669  r994  -1.0
    f3669  r995  1.0
    f3669  r1653  1.0
    f3670  OBJ  3.9443539764031295
    f3670  r994  1.0
    f3670  r1006  -1.0
    f3670  r1654  1.0
    f3671  OBJ  9.315480371727524
    f3671  r994  -1.0
    f3671  r1006  1.0
    f3671  r1655  1.0
    f3672  OBJ  6.528412566194859
    f3672  r995  1.0
    f3672  r1007  -1.0
    f3672  r1656  1.0
    f3673  OBJ  1.4574915159359643
    f3673  r995  -1.0
    f3673  r1007  1.0
    f3673  r1657  1.0
    f3674  OBJ  5.63981982753051
    f3674  r996  1.0
    f3674  r997  -1.0
    f3674  r1658  1.0
    f3675  OBJ  5.910777857561307
    f3675  r996  -1.0
    f3675  r997  1.0
    f3675  r1659  1.0
    f3676  OBJ  8.376216960334341
    f3676  r997  1.0
    f3676  r998  -1.0
    f3676  r1660  1.0
    f3677  OBJ  9.490699764840153
    f3677  r997  -1.0
    f3677  r998  1.0
    f3677  r1661  1.0
    f3678  OBJ  7.1149043862629755
    f3678  r998  1.0
    f3678  r999  -1.0
    f3678  r1662  1.0
    f3679  OBJ  6.221105241873805
    f3679  r998  -1.0
    f3679  r999  1.0
    f3679  r1663  1.0
    f3680  OBJ  5.784367932215563
    f3680  r999  1.0
    f3680  r1000  -1.0
    f3680  r1664  1.0
    f3681  OBJ  2.5502291518798677
    f3681  r999  -1.0
    f3681  r1000  1.0
    f3681  r1665  1.0
    f3682  OBJ  7.63824342000365
    f3682  r1000  1.0
    f3682  r1001  -1.0
    f3682  r1666  1.0
    f3683  OBJ  5.508061229245426
    f3683  r1000  -1.0
    f3683  r1001  1.0
    f3683  r1667  1.0
    f3684  OBJ  4.575305739515346
    f3684  r1001  1.0
    f3684  r1002  -1.0
    f3684  r1668  1.0
    f3685  OBJ  7.753010370046059
    f3685  r1001  -1.0
    f3685  r1002  1.0
    f3685  r1669  1.0
    f3686  OBJ  4.2151623050292955
    f3686  r1002  1.0
    f3686  r1003  -1.0
    f3686  r1670  1.0
    f3687  OBJ  7.337043397927561
    f3687  r1002  -1.0
    f3687  r1003  1.0
    f3687  r1671  1.0
    f3688  OBJ  3.937409412500358
    f3688  r1003  1.0
    f3688  r1004  -1.0
    f3688  r1672  1.0
    f3689  OBJ  2.7093259789121125
    f3689  r1003  -1.0
    f3689  r1004  1.0
    f3689  r1673  1.0
    f3690  OBJ  6.030144895898163
    f3690  r1004  1.0
    f3690  r1005  -1.0
    f3690  r1674  1.0
    f3691  OBJ  9.248603140452367
    f3691  r1004  -1.0
    f3691  r1005  1.0
    f3691  r1675  1.0
    f3692  OBJ  2.7012102773291957
    f3692  r1005  1.0
    f3692  r1006  -1.0
    f3692  r1676  1.0
    f3693  OBJ  2.3516175236739865
    f3693  r1005  -1.0
    f3693  r1006  1.0
    f3693  r1677  1.0
    f3694  OBJ  3.8723982737810747
    f3694  r1006  1.0
    f3694  r1007  -1.0
    f3694  r1678  1.0
    f3695  OBJ  8.735968157581555
    f3695  r1006  -1.0
    f3695  r1007  1.0
    f3695  r1679  1.0
    f3696  OBJ  5.843479163247489
    f3696  r1008  1.0
    f3696  r1009  -1.0
    f3696  r1152  1.0
    f3697  OBJ  4.089437828320046
    f3697  r1008  -1.0
    f3697  r1009  1.0
    f3697  r1153  1.0
    f3698  OBJ  4.3216051581584045
    f3698  r1008  1.0
    f3698  r1020  -1.0
    f3698  r1154  1.0
    f3699  OBJ  4.3704708902909415
    f3699  r1008  -1.0
    f3699  r1020  1.0
    f3699  r1155  1.0
    f3700  OBJ  9.887004911678199
    f3700  r1009  1.0
    f3700  r1010  -1.0
    f3700  r1156  1.0
    f3701  OBJ  6.694806453464315
    f3701  r1009  -1.0
    f3701  r1010  1.0
    f3701  r1157  1.0
    f3702  OBJ  7.068915374540442
    f3702  r1009  1.0
    f3702  r1021  -1.0
    f3702  r1158  1.0
    f3703  OBJ  3.9696710984691252
    f3703  r1009  -1.0
    f3703  r1021  1.0
    f3703  r1159  1.0
    f3704  OBJ  7.119258950476201
    f3704  r1010  1.0
    f3704  r1011  -1.0
    f3704  r1160  1.0
    f3705  OBJ  2.1067513739847104
    f3705  r1010  -1.0
    f3705  r1011  1.0
    f3705  r1161  1.0
    f3706  OBJ  1.465563087853977
    f3706  r1010  1.0
    f3706  r1022  -1.0
    f3706  r1162  1.0
    f3707  OBJ  8.651722121279082
    f3707  r1010  -1.0
    f3707  r1022  1.0
    f3707  r1163  1.0
    f3708  OBJ  1.080062249818912
    f3708  r1011  1.0
    f3708  r1012  -1.0
    f3708  r1164  1.0
    f3709  OBJ  9.80890805966767
    f3709  r1011  -1.0
    f3709  r1012  1.0
    f3709  r1165  1.0
    f3710  OBJ  8.443027232371483
    f3710  r1011  1.0
    f3710  r1023  -1.0
    f3710  r1166  1.0
    f3711  OBJ  8.066898633937342
    f3711  r1011  -1.0
    f3711  r1023  1.0
    f3711  r1167  1.0
    f3712  OBJ  1.4327513830229184
    f3712  r1012  1.0
    f3712  r1013  -1.0
    f3712  r1168  1.0
    f3713  OBJ  2.8669533958627724
    f3713  r1012  -1.0
    f3713  r1013  1.0
    f3713  r1169  1.0
    f3714  OBJ  8.648790679856907
    f3714  r1012  1.0
    f3714  r1024  -1.0
    f3714  r1170  1.0
    f3715  OBJ  4.892453304895277
    f3715  r1012  -1.0
    f3715  r1024  1.0
    f3715  r1171  1.0
    f3716  OBJ  6.647211403327665
    f3716  r1013  1.0
    f3716  r1014  -1.0
    f3716  r1172  1.0
    f3717  OBJ  2.1005415892986745
    f3717  r1013  -1.0
    f3717  r1014  1.0
    f3717  r1173  1.0
    f3718  OBJ  2.677026868100466
    f3718  r1013  1.0
    f3718  r1025  -1.0
    f3718  r1174  1.0
    f3719  OBJ  5.4754112146732625
    f3719  r1013  -1.0
    f3719  r1025  1.0
    f3719  r1175  1.0
    f3720  OBJ  7.835199191401016
    f3720  r1014  1.0
    f3720  r1015  -1.0
    f3720  r1176  1.0
    f3721  OBJ  5.858714839099925
    f3721  r1014  -1.0
    f3721  r1015  1.0
    f3721  r1177  1.0
    f3722  OBJ  1.9619207071213822
    f3722  r1014  1.0
    f3722  r1026  -1.0
    f3722  r1178  1.0
    f3723  OBJ  8.795674706633884
    f3723  r1014  -1.0
    f3723  r1026  1.0
    f3723  r1179  1.0
    f3724  OBJ  2.2569301861673416
    f3724  r1015  1.0
    f3724  r1016  -1.0
    f3724  r1180  1.0
    f3725  OBJ  4.956919817610607
    f3725  r1015  -1.0
    f3725  r1016  1.0
    f3725  r1181  1.0
    f3726  OBJ  6.281645261000175
    f3726  r1015  1.0
    f3726  r1027  -1.0
    f3726  r1182  1.0
    f3727  OBJ  3.8723455215676785
    f3727  r1015  -1.0
    f3727  r1027  1.0
    f3727  r1183  1.0
    f3728  OBJ  4.762487492955011
    f3728  r1016  1.0
    f3728  r1017  -1.0
    f3728  r1184  1.0
    f3729  OBJ  8.982680417439596
    f3729  r1016  -1.0
    f3729  r1017  1.0
    f3729  r1185  1.0
    f3730  OBJ  5.087221314275144
    f3730  r1016  1.0
    f3730  r1028  -1.0
    f3730  r1186  1.0
    f3731  OBJ  5.853224012546842
    f3731  r1016  -1.0
    f3731  r1028  1.0
    f3731  r1187  1.0
    f3732  OBJ  9.734402369267295
    f3732  r1017  1.0
    f3732  r1018  -1.0
    f3732  r1188  1.0
    f3733  OBJ  3.4838482279023597
    f3733  r1017  -1.0
    f3733  r1018  1.0
    f3733  r1189  1.0
    f3734  OBJ  9.05311169099006
    f3734  r1017  1.0
    f3734  r1029  -1.0
    f3734  r1190  1.0
    f3735  OBJ  4.2566996928588825
    f3735  r1017  -1.0
    f3735  r1029  1.0
    f3735  r1191  1.0
    f3736  OBJ  3.808369156683992
    f3736  r1018  1.0
    f3736  r1019  -1.0
    f3736  r1192  1.0
    f3737  OBJ  8.931602750040451
    f3737  r1018  -1.0
    f3737  r1019  1.0
    f3737  r1193  1.0
    f3738  OBJ  1.5894707335339273
    f3738  r1018  1.0
    f3738  r1030  -1.0
    f3738  r1194  1.0
    f3739  OBJ  8.799896097198229
    f3739  r1018  -1.0
    f3739  r1030  1.0
    f3739  r1195  1.0
    f3740  OBJ  8.449908565840481
    f3740  r1019  1.0
    f3740  r1031  -1.0
    f3740  r1196  1.0
    f3741  OBJ  9.05243356990497
    f3741  r1019  -1.0
    f3741  r1031  1.0
    f3741  r1197  1.0
    f3742  OBJ  1.5378154068686039
    f3742  r1020  1.0
    f3742  r1021  -1.0
    f3742  r1198  1.0
    f3743  OBJ  3.149250350989603
    f3743  r1020  -1.0
    f3743  r1021  1.0
    f3743  r1199  1.0
    f3744  OBJ  7.9763825368893055
    f3744  r1020  1.0
    f3744  r1032  -1.0
    f3744  r1200  1.0
    f3745  OBJ  4.931650790463847
    f3745  r1020  -1.0
    f3745  r1032  1.0
    f3745  r1201  1.0
    f3746  OBJ  1.0478184276486595
    f3746  r1021  1.0
    f3746  r1022  -1.0
    f3746  r1202  1.0
    f3747  OBJ  7.233576589265234
    f3747  r1021  -1.0
    f3747  r1022  1.0
    f3747  r1203  1.0
    f3748  OBJ  8.197927065695021
    f3748  r1021  1.0
    f3748  r1033  -1.0
    f3748  r1204  1.0
    f3749  OBJ  9.76262446210192
    f3749  r1021  -1.0
    f3749  r1033  1.0
    f3749  r1205  1.0
    f3750  OBJ  2.3559771646767214
    f3750  r1022  1.0
    f3750  r1023  -1.0
    f3750  r1206  1.0
    f3751  OBJ  3.2675947743516294
    f3751  r1022  -1.0
    f3751  r1023  1.0
    f3751  r1207  1.0
    f3752  OBJ  8.57224532832835
    f3752  r1022  1.0
    f3752  r1034  -1.0
    f3752  r1208  1.0
    f3753  OBJ  1.8262821126624695
    f3753  r1022  -1.0
    f3753  r1034  1.0
    f3753  r1209  1.0
    f3754  OBJ  3.4684351148653563
    f3754  r1023  1.0
    f3754  r1024  -1.0
    f3754  r1210  1.0
    f3755  OBJ  5.0658643600840545
    f3755  r1023  -1.0
    f3755  r1024  1.0
    f3755  r1211  1.0
    f3756  OBJ  4.765085478036262
    f3756  r1023  1.0
    f3756  r1035  -1.0
    f3756  r1212  1.0
    f3757  OBJ  5.884605364467616
    f3757  r1023  -1.0
    f3757  r1035  1.0
    f3757  r1213  1.0
    f3758  OBJ  8.81815836304687
    f3758  r1024  1.0
    f3758  r1025  -1.0
    f3758  r1214  1.0
    f3759  OBJ  6.681370181670063
    f3759  r1024  -1.0
    f3759  r1025  1.0
    f3759  r1215  1.0
    f3760  OBJ  6.886000713302363
    f3760  r1024  1.0
    f3760  r1036  -1.0
    f3760  r1216  1.0
    f3761  OBJ  6.329994115698163
    f3761  r1024  -1.0
    f3761  r1036  1.0
    f3761  r1217  1.0
    f3762  OBJ  2.89745780656496
    f3762  r1025  1.0
    f3762  r1026  -1.0
    f3762  r1218  1.0
    f3763  OBJ  5.0469319805790125
    f3763  r1025  -1.0
    f3763  r1026  1.0
    f3763  r1219  1.0
    f3764  OBJ  9.887845518427142
    f3764  r1025  1.0
    f3764  r1037  -1.0
    f3764  r1220  1.0
    f3765  OBJ  9.18307383604957
    f3765  r1025  -1.0
    f3765  r1037  1.0
    f3765  r1221  1.0
    f3766  OBJ  7.906999714511775
    f3766  r1026  1.0
    f3766  r1027  -1.0
    f3766  r1222  1.0
    f3767  OBJ  5.803134985573417
    f3767  r1026  -1.0
    f3767  r1027  1.0
    f3767  r1223  1.0
    f3768  OBJ  8.819791935718182
    f3768  r1026  1.0
    f3768  r1038  -1.0
    f3768  r1224  1.0
    f3769  OBJ  6.677942196100848
    f3769  r1026  -1.0
    f3769  r1038  1.0
    f3769  r1225  1.0
    f3770  OBJ  4.578123395103715
    f3770  r1027  1.0
    f3770  r1028  -1.0
    f3770  r1226  1.0
    f3771  OBJ  5.73687696795246
    f3771  r1027  -1.0
    f3771  r1028  1.0
    f3771  r1227  1.0
    f3772  OBJ  2.7872516802821625
    f3772  r1027  1.0
    f3772  r1039  -1.0
    f3772  r1228  1.0
    f3773  OBJ  6.155381271827194
    f3773  r1027  -1.0
    f3773  r1039  1.0
    f3773  r1229  1.0
    f3774  OBJ  3.8226207491633226
    f3774  r1028  1.0
    f3774  r1029  -1.0
    f3774  r1230  1.0
    f3775  OBJ  8.032593923327084
    f3775  r1028  -1.0
    f3775  r1029  1.0
    f3775  r1231  1.0
    f3776  OBJ  8.447683803834597
    f3776  r1028  1.0
    f3776  r1040  -1.0
    f3776  r1232  1.0
    f3777  OBJ  9.944166781185652
    f3777  r1028  -1.0
    f3777  r1040  1.0
    f3777  r1233  1.0
    f3778  OBJ  8.514758067385708
    f3778  r1029  1.0
    f3778  r1030  -1.0
    f3778  r1234  1.0
    f3779  OBJ  1.5333702487229801
    f3779  r1029  -1.0
    f3779  r1030  1.0
    f3779  r1235  1.0
    f3780  OBJ  7.518931095523543
    f3780  r1029  1.0
    f3780  r1041  -1.0
    f3780  r1236  1.0
    f3781  OBJ  8.27361552637164
    f3781  r1029  -1.0
    f3781  r1041  1.0
    f3781  r1237  1.0
    f3782  OBJ  8.850179988841164
    f3782  r1030  1.0
    f3782  r1031  -1.0
    f3782  r1238  1.0
    f3783  OBJ  5.425049455804184
    f3783  r1030  -1.0
    f3783  r1031  1.0
    f3783  r1239  1.0
    f3784  OBJ  5.283204492205081
    f3784  r1030  1.0
    f3784  r1042  -1.0
    f3784  r1240  1.0
    f3785  OBJ  5.777322522458589
    f3785  r1030  -1.0
    f3785  r1042  1.0
    f3785  r1241  1.0
    f3786  OBJ  2.3943995005292793
    f3786  r1031  1.0
    f3786  r1043  -1.0
    f3786  r1242  1.0
    f3787  OBJ  9.612598334079014
    f3787  r1031  -1.0
    f3787  r1043  1.0
    f3787  r1243  1.0
    f3788  OBJ  9.883038452562197
    f3788  r1032  1.0
    f3788  r1033  -1.0
    f3788  r1244  1.0
    f3789  OBJ  3.3668479442769903
    f3789  r1032  -1.0
    f3789  r1033  1.0
    f3789  r1245  1.0
    f3790  OBJ  9.616025266298925
    f3790  r1032  1.0
    f3790  r1044  -1.0
    f3790  r1246  1.0
    f3791  OBJ  2.8739629222224314
    f3791  r1032  -1.0
    f3791  r1044  1.0
    f3791  r1247  1.0
    f3792  OBJ  1.762693526837991
    f3792  r1033  1.0
    f3792  r1034  -1.0
    f3792  r1248  1.0
    f3793  OBJ  7.590067761304782
    f3793  r1033  -1.0
    f3793  r1034  1.0
    f3793  r1249  1.0
    f3794  OBJ  8.347655313259235
    f3794  r1033  1.0
    f3794  r1045  -1.0
    f3794  r1250  1.0
    f3795  OBJ  2.7975568257531913
    f3795  r1033  -1.0
    f3795  r1045  1.0
    f3795  r1251  1.0
    f3796  OBJ  9.583816133482737
    f3796  r1034  1.0
    f3796  r1035  -1.0
    f3796  r1252  1.0
    f3797  OBJ  4.597594046544144
    f3797  r1034  -1.0
    f3797  r1035  1.0
    f3797  r1253  1.0
    f3798  OBJ  2.672812870364235
    f3798  r1034  1.0
    f3798  r1046  -1.0
    f3798  r1254  1.0
    f3799  OBJ  3.705170203073723
    f3799  r1034  -1.0
    f3799  r1046  1.0
    f3799  r1255  1.0
    f3800  OBJ  2.0152999326320273
    f3800  r1035  1.0
    f3800  r1036  -1.0
    f3800  r1256  1.0
    f3801  OBJ  7.946388238006956
    f3801  r1035  -1.0
    f3801  r1036  1.0
    f3801  r1257  1.0
    f3802  OBJ  3.567815501244076
    f3802  r1035  1.0
    f3802  r1047  -1.0
    f3802  r1258  1.0
    f3803  OBJ  7.2396648493583475
    f3803  r1035  -1.0
    f3803  r1047  1.0
    f3803  r1259  1.0
    f3804  OBJ  5.148136829860446
    f3804  r1036  1.0
    f3804  r1037  -1.0
    f3804  r1260  1.0
    f3805  OBJ  2.1247572946633198
    f3805  r1036  -1.0
    f3805  r1037  1.0
    f3805  r1261  1.0
    f3806  OBJ  6.285209035118809
    f3806  r1036  1.0
    f3806  r1048  -1.0
    f3806  r1262  1.0
    f3807  OBJ  9.70457902276835
    f3807  r1036  -1.0
    f3807  r1048  1.0
    f3807  r1263  1.0
    f3808  OBJ  2.6638345376764683
    f3808  r1037  1.0
    f3808  r1038  -1.0
    f3808  r1264  1.0
    f3809  OBJ  9.663170978821231
    f3809  r1037  -1.0
    f3809  r1038  1.0
    f3809  r1265  1.0
    f3810  OBJ  2.062633599647878
    f3810  r1037  1.0
    f3810  r1049  -1.0
    f3810  r1266  1.0
    f3811  OBJ  6.187847879545351
    f3811  r1037  -1.0
    f3811  r1049  1.0
    f3811  r1267  1.0
    f3812  OBJ  2.562195711301708
    f3812  r1038  1.0
    f3812  r1039  -1.0
    f3812  r1268  1.0
    f3813  OBJ  9.963749442046902
    f3813  r1038  -1.0
    f3813  r1039  1.0
    f3813  r1269  1.0
    f3814  OBJ  5.948103521283666
    f3814  r1038  1.0
    f3814  r1050  -1.0
    f3814  r1270  1.0
    f3815  OBJ  8.84549741097349
    f3815  r1038  -1.0
    f3815  r1050  1.0
    f3815  r1271  1.0
    f3816  OBJ  7.367531877451553
    f3816  r1039  1.0
    f3816  r1040  -1.0
    f3816  r1272  1.0
    f3817  OBJ  5.0370586039786325
    f3817  r1039  -1.0
    f3817  r1040  1.0
    f3817  r1273  1.0
    f3818  OBJ  3.3365114494583135
    f3818  r1039  1.0
    f3818  r1051  -1.0
    f3818  r1274  1.0
    f3819  OBJ  8.848940341217338
    f3819  r1039  -1.0
    f3819  r1051  1.0
    f3819  r1275  1.0
    f3820  OBJ  8.967469784989184
    f3820  r1040  1.0
    f3820  r1041  -1.0
    f3820  r1276  1.0
    f3821  OBJ  8.056301029276604
    f3821  r1040  -1.0
    f3821  r1041  1.0
    f3821  r1277  1.0
    f3822  OBJ  8.261799444070519
    f3822  r1040  1.0
    f3822  r1052  -1.0
    f3822  r1278  1.0
    f3823  OBJ  1.3756333709345163
    f3823  r1040  -1.0
    f3823  r1052  1.0
    f3823  r1279  1.0
    f3824  OBJ  2.9712054557253227
    f3824  r1041  1.0
    f3824  r1042  -1.0
    f3824  r1280  1.0
    f3825  OBJ  5.990844544374253
    f3825  r1041  -1.0
    f3825  r1042  1.0
    f3825  r1281  1.0
    f3826  OBJ  1.7070566561872171
    f3826  r1041  1.0
    f3826  r1053  -1.0
    f3826  r1282  1.0
    f3827  OBJ  6.312234646179124
    f3827  r1041  -1.0
    f3827  r1053  1.0
    f3827  r1283  1.0
    f3828  OBJ  9.525295460899232
    f3828  r1042  1.0
    f3828  r1043  -1.0
    f3828  r1284  1.0
    f3829  OBJ  4.184128114500217
    f3829  r1042  -1.0
    f3829  r1043  1.0
    f3829  r1285  1.0
    f3830  OBJ  7.213383032669854
    f3830  r1042  1.0
    f3830  r1054  -1.0
    f3830  r1286  1.0
    f3831  OBJ  2.817068174308163
    f3831  r1042  -1.0
    f3831  r1054  1.0
    f3831  r1287  1.0
    f3832  OBJ  8.168247031162272
    f3832  r1043  1.0
    f3832  r1055  -1.0
    f3832  r1288  1.0
    f3833  OBJ  9.067977953848253
    f3833  r1043  -1.0
    f3833  r1055  1.0
    f3833  r1289  1.0
    f3834  OBJ  8.33711188653524
    f3834  r1044  1.0
    f3834  r1045  -1.0
    f3834  r1290  1.0
    f3835  OBJ  4.966699573658781
    f3835  r1044  -1.0
    f3835  r1045  1.0
    f3835  r1291  1.0
    f3836  OBJ  4.134208441347036
    f3836  r1044  1.0
    f3836  r1056  -1.0
    f3836  r1292  1.0
    f3837  OBJ  1.7537281635671031
    f3837  r1044  -1.0
    f3837  r1056  1.0
    f3837  r1293  1.0
    f3838  OBJ  8.63183269121383
    f3838  r1045  1.0
    f3838  r1046  -1.0
    f3838  r1294  1.0
    f3839  OBJ  9.134382435850736
    f3839  r1045  -1.0
    f3839  r1046  1.0
    f3839  r1295  1.0
    f3840  OBJ  6.026333765246144
    f3840  r1045  1.0
    f3840  r1057  -1.0
    f3840  r1296  1.0
    f3841  OBJ  7.877137223459138
    f3841  r1045  -1.0
    f3841  r1057  1.0
    f3841  r1297  1.0
    f3842  OBJ  3.051016504982827
    f3842  r1046  1.0
    f3842  r1047  -1.0
    f3842  r1298  1.0
    f3843  OBJ  7.803565893682319
    f3843  r1046  -1.0
    f3843  r1047  1.0
    f3843  r1299  1.0
    f3844  OBJ  3.2478880841995856
    f3844  r1046  1.0
    f3844  r1058  -1.0
    f3844  r1300  1.0
    f3845  OBJ  7.561582696471492
    f3845  r1046  -1.0
    f3845  r1058  1.0
    f3845  r1301  1.0
    f3846  OBJ  1.1077465912219826
    f3846  r1047  1.0
    f3846  r1048  -1.0
    f3846  r1302  1.0
    f3847  OBJ  4.462274498932999
    f3847  r1047  -1.0
    f3847  r1048  1.0
    f3847  r1303  1.0
    f3848  OBJ  3.143718312821855
    f3848  r1047  1.0
    f3848  r1059  -1.0
    f3848  r1304  1.0
    f3849  OBJ  1.3637892144637211
    f3849  r1047  -1.0
    f3849  r1059  1.0
    f3849  r1305  1.0
    f3850  OBJ  3.33536780497219
    f3850  r1048  1.0
    f3850  r1049  -1.0
    f3850  r1306  1.0
    f3851  OBJ  9.266985127160817
    f3851  r1048  -1.0
    f3851  r1049  1.0
    f3851  r1307  1.0
    f3852  OBJ  3.722854116303524
    f3852  r1048  1.0
    f3852  r1060  -1.0
    f3852  r1308  1.0
    f3853  OBJ  2.0478493989999245
    f3853  r1048  -1.0
    f3853  r1060  1.0
    f3853  r1309  1.0
    f3854  OBJ  7.001245287843152
    f3854  r1049  1.0
    f3854  r1050  -1.0
    f3854  r1310  1.0
    f3855  OBJ  7.9504753566883855
    f3855  r1049  -1.0
    f3855  r1050  1.0
    f3855  r1311  1.0
    f3856  OBJ  4.103119615708474
    f3856  r1049  1.0
    f3856  r1061  -1.0
    f3856  r1312  1.0
    f3857  OBJ  9.309033217289178
    f3857  r1049  -1.0
    f3857  r1061  1.0
    f3857  r1313  1.0
    f3858  OBJ  7.2741644884964956
    f3858  r1050  1.0
    f3858  r1051  -1.0
    f3858  r1314  1.0
    f3859  OBJ  5.837914239590002
    f3859  r1050  -1.0
    f3859  r1051  1.0
    f3859  r1315  1.0
    f3860  OBJ  9.069344515184543
    f3860  r1050  1.0
    f3860  r1062  -1.0
    f3860  r1316  1.0
    f3861  OBJ  8.28092182168296
    f3861  r1050  -1.0
    f3861  r1062  1.0
    f3861  r1317  1.0
    f3862  OBJ  6.438311445129069
    f3862  r1051  1.0
    f3862  r1052  -1.0
    f3862  r1318  1.0
    f3863  OBJ  3.2615425620963867
    f3863  r1051  -1.0
    f3863  r1052  1.0
    f3863  r1319  1.0
    f3864  OBJ  5.702488824101116
    f3864  r1051  1.0
    f3864  r1063  -1.0
    f3864  r1320  1.0
    f3865  OBJ  6.5851428786607675
    f3865  r1051  -1.0
    f3865  r1063  1.0
    f3865  r1321  1.0
    f3866  OBJ  9.071908100696
    f3866  r1052  1.0
    f3866  r1053  -1.0
    f3866  r1322  1.0
    f3867  OBJ  9.449913545414963
    f3867  r1052  -1.0
    f3867  r1053  1.0
    f3867  r1323  1.0
    f3868  OBJ  1.5526027546476011
    f3868  r1052  1.0
    f3868  r1064  -1.0
    f3868  r1324  1.0
    f3869  OBJ  5.740635528499118
    f3869  r1052  -1.0
    f3869  r1064  1.0
    f3869  r1325  1.0
    f3870  OBJ  9.43475860238855
    f3870  r1053  1.0
    f3870  r1054  -1.0
    f3870  r1326  1.0
    f3871  OBJ  4.879177272008489
    f3871  r1053  -1.0
    f3871  r1054  1.0
    f3871  r1327  1.0
    f3872  OBJ  7.784157847221835
    f3872  r1053  1.0
    f3872  r1065  -1.0
    f3872  r1328  1.0
    f3873  OBJ  3.067777991068951
    f3873  r1053  -1.0
    f3873  r1065  1.0
    f3873  r1329  1.0
    f3874  OBJ  8.840366234762376
    f3874  r1054  1.0
    f3874  r1055  -1.0
    f3874  r1330  1.0
    f3875  OBJ  2.569338415546724
    f3875  r1054  -1.0
    f3875  r1055  1.0
    f3875  r1331  1.0
    f3876  OBJ  3.3569594822839144
    f3876  r1054  1.0
    f3876  r1066  -1.0
    f3876  r1332  1.0
    f3877  OBJ  3.2123559621221753
    f3877  r1054  -1.0
    f3877  r1066  1.0
    f3877  r1333  1.0
    f3878  OBJ  2.2788823876101647
    f3878  r1055  1.0
    f3878  r1067  -1.0
    f3878  r1334  1.0
    f3879  OBJ  7.024989198482375
    f3879  r1055  -1.0
    f3879  r1067  1.0
    f3879  r1335  1.0
    f3880  OBJ  8.584841705834307
    f3880  r1056  1.0
    f3880  r1057  -1.0
    f3880  r1336  1.0
    f3881  OBJ  2.4180513221150917
    f3881  r1056  -1.0
    f3881  r1057  1.0
    f3881  r1337  1.0
    f3882  OBJ  2.7928105422408227
    f3882  r1056  1.0
    f3882  r1068  -1.0
    f3882  r1338  1.0
    f3883  OBJ  4.576467726391256
    f3883  r1056  -1.0
    f3883  r1068  1.0
    f3883  r1339  1.0
    f3884  OBJ  3.707947218147749
    f3884  r1057  1.0
    f3884  r1058  -1.0
    f3884  r1340  1.0
    f3885  OBJ  6.741770927053644
    f3885  r1057  -1.0
    f3885  r1058  1.0
    f3885  r1341  1.0
    f3886  OBJ  2.053531136352788
    f3886  r1057  1.0
    f3886  r1069  -1.0
    f3886  r1342  1.0
    f3887  OBJ  6.243616247545115
    f3887  r1057  -1.0
    f3887  r1069  1.0
    f3887  r1343  1.0
    f3888  OBJ  5.533037581812857
    f3888  r1058  1.0
    f3888  r1059  -1.0
    f3888  r1344  1.0
    f3889  OBJ  2.057070778845458
    f3889  r1058  -1.0
    f3889  r1059  1.0
    f3889  r1345  1.0
    f3890  OBJ  5.03319964067469
    f3890  r1058  1.0
    f3890  r1070  -1.0
    f3890  r1346  1.0
    f3891  OBJ  4.372981205688504
    f3891  r1058  -1.0
    f3891  r1070  1.0
    f3891  r1347  1.0
    f3892  OBJ  1.6071602069885822
    f3892  r1059  1.0
    f3892  r1060  -1.0
    f3892  r1348  1.0
    f3893  OBJ  3.932915843468632
    f3893  r1059  -1.0
    f3893  r1060  1.0
    f3893  r1349  1.0
    f3894  OBJ  6.784274421345183
    f3894  r1059  1.0
    f3894  r1071  -1.0
    f3894  r1350  1.0
    f3895  OBJ  8.87767040252694
    f3895  r1059  -1.0
    f3895  r1071  1.0
    f3895  r1351  1.0
    f3896  OBJ  9.57364570157721
    f3896  r1060  1.0
    f3896  r1061  -1.0
    f3896  r1352  1.0
    f3897  OBJ  7.629171914559498
    f3897  r1060  -1.0
    f3897  r1061  1.0
    f3897  r1353  1.0
    f3898  OBJ  4.673521736950686
    f3898  r1060  1.0
    f3898  r1072  -1.0
    f3898  r1354  1.0
    f3899  OBJ  2.3395263729787823
    f3899  r1060  -1.0
    f3899  r1072  1.0
    f3899  r1355  1.0
    f3900  OBJ  7.148071082372267
    f3900  r1061  1.0
    f3900  r1062  -1.0
    f3900  r1356  1.0
    f3901  OBJ  6.157914246676193
    f3901  r1061  -1.0
    f3901  r1062  1.0
    f3901  r1357  1.0
    f3902  OBJ  8.750560649496279
    f3902  r1061  1.0
    f3902  r1073  -1.0
    f3902  r1358  1.0
    f3903  OBJ  3.3051466646524137
    f3903  r1061  -1.0
    f3903  r1073  1.0
    f3903  r1359  1.0
    f3904  OBJ  6.912073358897169
    f3904  r1062  1.0
    f3904  r1063  -1.0
    f3904  r1360  1.0
    f3905  OBJ  1.8413904953890992
    f3905  r1062  -1.0
    f3905  r1063  1.0
    f3905  r1361  1.0
    f3906  OBJ  3.7859444762361294
    f3906  r1062  1.0
    f3906  r1074  -1.0
    f3906  r1362  1.0
    f3907  OBJ  4.880219335322179
    f3907  r1062  -1.0
    f3907  r1074  1.0
    f3907  r1363  1.0
    f3908  OBJ  8.248199274184902
    f3908  r1063  1.0
    f3908  r1064  -1.0
    f3908  r1364  1.0
    f3909  OBJ  4.129360889985302
    f3909  r1063  -1.0
    f3909  r1064  1.0
    f3909  r1365  1.0
    f3910  OBJ  6.570008312930026
    f3910  r1063  1.0
    f3910  r1075  -1.0
    f3910  r1366  1.0
    f3911  OBJ  9.874236205574777
    f3911  r1063  -1.0
    f3911  r1075  1.0
    f3911  r1367  1.0
    f3912  OBJ  9.51646875545354
    f3912  r1064  1.0
    f3912  r1065  -1.0
    f3912  r1368  1.0
    f3913  OBJ  5.298509275495396
    f3913  r1064  -1.0
    f3913  r1065  1.0
    f3913  r1369  1.0
    f3914  OBJ  2.8837232785759013
    f3914  r1064  1.0
    f3914  r1076  -1.0
    f3914  r1370  1.0
    f3915  OBJ  6.539390050808525
    f3915  r1064  -1.0
    f3915  r1076  1.0
    f3915  r1371  1.0
    f3916  OBJ  8.141807889146136
    f3916  r1065  1.0
    f3916  r1066  -1.0
    f3916  r1372  1.0
    f3917  OBJ  6.344872540246349
    f3917  r1065  -1.0
    f3917  r1066  1.0
    f3917  r1373  1.0
    f3918  OBJ  7.7292342535858936
    f3918  r1065  1.0
    f3918  r1077  -1.0
    f3918  r1374  1.0
    f3919  OBJ  2.919929548367037
    f3919  r1065  -1.0
    f3919  r1077  1.0
    f3919  r1375  1.0
    f3920  OBJ  3.5722688038057053
    f3920  r1066  1.0
    f3920  r1067  -1.0
    f3920  r1376  1.0
    f3921  OBJ  2.4058364065093754
    f3921  r1066  -1.0
    f3921  r1067  1.0
    f3921  r1377  1.0
    f3922  OBJ  1.5181313304897963
    f3922  r1066  1.0
    f3922  r1078  -1.0
    f3922  r1378  1.0
    f3923  OBJ  5.14441361017963
    f3923  r1066  -1.0
    f3923  r1078  1.0
    f3923  r1379  1.0
    f3924  OBJ  7.958578806368944
    f3924  r1067  1.0
    f3924  r1079  -1.0
    f3924  r1380  1.0
    f3925  OBJ  4.369669474409982
    f3925  r1067  -1.0
    f3925  r1079  1.0
    f3925  r1381  1.0
    f3926  OBJ  9.578268517437737
    f3926  r1068  1.0
    f3926  r1069  -1.0
    f3926  r1382  1.0
    f3927  OBJ  4.162536277129916
    f3927  r1068  -1.0
    f3927  r1069  1.0
    f3927  r1383  1.0
    f3928  OBJ  4.426687129543275
    f3928  r1068  1.0
    f3928  r1080  -1.0
    f3928  r1384  1.0
    f3929  OBJ  8.671251806248794
    f3929  r1068  -1.0
    f3929  r1080  1.0
    f3929  r1385  1.0
    f3930  OBJ  6.942519417241746
    f3930  r1069  1.0
    f3930  r1070  -1.0
    f3930  r1386  1.0
    f3931  OBJ  5.8091713864273
    f3931  r1069  -1.0
    f3931  r1070  1.0
    f3931  r1387  1.0
    f3932  OBJ  3.1250306131869907
    f3932  r1069  1.0
    f3932  r1081  -1.0
    f3932  r1388  1.0
    f3933  OBJ  1.7881153042109728
    f3933  r1069  -1.0
    f3933  r1081  1.0
    f3933  r1389  1.0
    f3934  OBJ  2.4738175169074745
    f3934  r1070  1.0
    f3934  r1071  -1.0
    f3934  r1390  1.0
    f3935  OBJ  2.4884050604864716
    f3935  r1070  -1.0
    f3935  r1071  1.0
    f3935  r1391  1.0
    f3936  OBJ  4.770114184150721
    f3936  r1070  1.0
    f3936  r1082  -1.0
    f3936  r1392  1.0
    f3937  OBJ  3.9764102922479694
    f3937  r1070  -1.0
    f3937  r1082  1.0
    f3937  r1393  1.0
    f3938  OBJ  5.924309803353416
    f3938  r1071  1.0
    f3938  r1072  -1.0
    f3938  r1394  1.0
    f3939  OBJ  3.3385493242589894
    f3939  r1071  -1.0
    f3939  r1072  1.0
    f3939  r1395  1.0
    f3940  OBJ  7.144749280430248
    f3940  r1071  1.0
    f3940  r1083  -1.0
    f3940  r1396  1.0
    f3941  OBJ  9.515200012995304
    f3941  r1071  -1.0
    f3941  r1083  1.0
    f3941  r1397  1.0
    f3942  OBJ  8.36033005720306
    f3942  r1072  1.0
    f3942  r1073  -1.0
    f3942  r1398  1.0
    f3943  OBJ  6.18865062078726
    f3943  r1072  -1.0
    f3943  r1073  1.0
    f3943  r1399  1.0
    f3944  OBJ  3.3278283690821286
    f3944  r1072  1.0
    f3944  r1084  -1.0
    f3944  r1400  1.0
    f3945  OBJ  8.118879965779355
    f3945  r1072  -1.0
    f3945  r1084  1.0
    f3945  r1401  1.0
    f3946  OBJ  8.525642503999077
    f3946  r1073  1.0
    f3946  r1074  -1.0
    f3946  r1402  1.0
    f3947  OBJ  1.8471927545361946
    f3947  r1073  -1.0
    f3947  r1074  1.0
    f3947  r1403  1.0
    f3948  OBJ  8.617861454104808
    f3948  r1073  1.0
    f3948  r1085  -1.0
    f3948  r1404  1.0
    f3949  OBJ  9.28184385663278
    f3949  r1073  -1.0
    f3949  r1085  1.0
    f3949  r1405  1.0
    f3950  OBJ  2.8218006430295373
    f3950  r1074  1.0
    f3950  r1075  -1.0
    f3950  r1406  1.0
    f3951  OBJ  2.651246163103225
    f3951  r1074  -1.0
    f3951  r1075  1.0
    f3951  r1407  1.0
    f3952  OBJ  7.5372506585615735
    f3952  r1074  1.0
    f3952  r1086  -1.0
    f3952  r1408  1.0
    f3953  OBJ  5.323717629241309
    f3953  r1074  -1.0
    f3953  r1086  1.0
    f3953  r1409  1.0
    f3954  OBJ  1.6656547324045405
    f3954  r1075  1.0
    f3954  r1076  -1.0
    f3954  r1410  1.0
    f3955  OBJ  6.520511657077648
    f3955  r1075  -1.0
    f3955  r1076  1.0
    f3955  r1411  1.0
    f3956  OBJ  8.462742992442585
    f3956  r1075  1.0
    f3956  r1087  -1.0
    f3956  r1412  1.0
    f3957  OBJ  7.562753261045978
    f3957  r1075  -1.0
    f3957  r1087  1.0
    f3957  r1413  1.0
    f3958  OBJ  1.4579849945343457
    f3958  r1076  1.0
    f3958  r1077  -1.0
    f3958  r1414  1.0
    f3959  OBJ  1.3840722864476893
    f3959  r1076  -1.0
    f3959  r1077  1.0
    f3959  r1415  1.0
    f3960  OBJ  5.6617811913676315
    f3960  r1076  1.0
    f3960  r1088  -1.0
    f3960  r1416  1.0
    f3961  OBJ  6.919498005080287
    f3961  r1076  -1.0
    f3961  r1088  1.0
    f3961  r1417  1.0
    f3962  OBJ  9.285794023306087
    f3962  r1077  1.0
    f3962  r1078  -1.0
    f3962  r1418  1.0
    f3963  OBJ  7.3993322363938745
    f3963  r1077  -1.0
    f3963  r1078  1.0
    f3963  r1419  1.0
    f3964  OBJ  7.101977977434503
    f3964  r1077  1.0
    f3964  r1089  -1.0
    f3964  r1420  1.0
    f3965  OBJ  8.876980031369033
    f3965  r1077  -1.0
    f3965  r1089  1.0
    f3965  r1421  1.0
    f3966  OBJ  4.66136303553649
    f3966  r1078  1.0
    f3966  r1079  -1.0
    f3966  r1422  1.0
    f3967  OBJ  2.547443857546328
    f3967  r1078  -1.0
    f3967  r1079  1.0
    f3967  r1423  1.0
    f3968  OBJ  2.0348893291575196
    f3968  r1078  1.0
    f3968  r1090  -1.0
    f3968  r1424  1.0
    f3969  OBJ  4.213952179581336
    f3969  r1078  -1.0
    f3969  r1090  1.0
    f3969  r1425  1.0
    f3970  OBJ  8.779879443746765
    f3970  r1079  1.0
    f3970  r1091  -1.0
    f3970  r1426  1.0
    f3971  OBJ  5.940792123148839
    f3971  r1079  -1.0
    f3971  r1091  1.0
    f3971  r1427  1.0
    f3972  OBJ  1.3920125076769931
    f3972  r1080  1.0
    f3972  r1081  -1.0
    f3972  r1428  1.0
    f3973  OBJ  9.163801058965287
    f3973  r1080  -1.0
    f3973  r1081  1.0
    f3973  r1429  1.0
    f3974  OBJ  8.413501768673024
    f3974  r1080  1.0
    f3974  r1092  -1.0
    f3974  r1430  1.0
    f3975  OBJ  1.5022974905585167
    f3975  r1080  -1.0
    f3975  r1092  1.0
    f3975  r1431  1.0
    f3976  OBJ  8.073763821337996
    f3976  r1081  1.0
    f3976  r1082  -1.0
    f3976  r1432  1.0
    f3977  OBJ  2.641997978893971
    f3977  r1081  -1.0
    f3977  r1082  1.0
    f3977  r1433  1.0
    f3978  OBJ  1.4524969311091085
    f3978  r1081  1.0
    f3978  r1093  -1.0
    f3978  r1434  1.0
    f3979  OBJ  4.560439970223803
    f3979  r1081  -1.0
    f3979  r1093  1.0
    f3979  r1435  1.0
    f3980  OBJ  7.349986377101174
    f3980  r1082  1.0
    f3980  r1083  -1.0
    f3980  r1436  1.0
    f3981  OBJ  3.4211263859867955
    f3981  r1082  -1.0
    f3981  r1083  1.0
    f3981  r1437  1.0
    f3982  OBJ  4.886653339206574
    f3982  r1082  1.0
    f3982  r1094  -1.0
    f3982  r1438  1.0
    f3983  OBJ  8.553204349239795
    f3983  r1082  -1.0
    f3983  r1094  1.0
    f3983  r1439  1.0
    f3984  OBJ  2.0931257120590527
    f3984  r1083  1.0
    f3984  r1084  -1.0
    f3984  r1440  1.0
    f3985  OBJ  6.764007836463744
    f3985  r1083  -1.0
    f3985  r1084  1.0
    f3985  r1441  1.0
    f3986  OBJ  3.8351177230513684
    f3986  r1083  1.0
    f3986  r1095  -1.0
    f3986  r1442  1.0
    f3987  OBJ  1.553625881370926
    f3987  r1083  -1.0
    f3987  r1095  1.0
    f3987  r1443  1.0
    f3988  OBJ  7.872044218655729
    f3988  r1084  1.0
    f3988  r1085  -1.0
    f3988  r1444  1.0
    f3989  OBJ  7.06928082643932
    f3989  r1084  -1.0
    f3989  r1085  1.0
    f3989  r1445  1.0
    f3990  OBJ  5.150207075823104
    f3990  r1084  1.0
    f3990  r1096  -1.0
    f3990  r1446  1.0
    f3991  OBJ  5.202706668736231
    f3991  r1084  -1.0
    f3991  r1096  1.0
    f3991  r1447  1.0
    f3992  OBJ  4.495388412323753
    f3992  r1085  1.0
    f3992  r1086  -1.0
    f3992  r1448  1.0
    f3993  OBJ  7.119590207632811
    f3993  r1085  -1.0
    f3993  r1086  1.0
    f3993  r1449  1.0
    f3994  OBJ  1.0846305661855613
    f3994  r1085  1.0
    f3994  r1097  -1.0
    f3994  r1450  1.0
    f3995  OBJ  1.9779784306069956
    f3995  r1085  -1.0
    f3995  r1097  1.0
    f3995  r1451  1.0
    f3996  OBJ  1.7656223383448246
    f3996  r1086  1.0
    f3996  r1087  -1.0
    f3996  r1452  1.0
    f3997  OBJ  1.9757356636276593
    f3997  r1086  -1.0
    f3997  r1087  1.0
    f3997  r1453  1.0
    f3998  OBJ  5.984399077982553
    f3998  r1086  1.0
    f3998  r1098  -1.0
    f3998  r1454  1.0
    f3999  OBJ  4.751953812845244
    f3999  r1086  -1.0
    f3999  r1098  1.0
    f3999  r1455  1.0
    f4000  OBJ  6.911526938116024
    f4000  r1087  1.0
    f4000  r1088  -1.0
    f4000  r1456  1.0
    f4001  OBJ  5.701495629352302
    f4001  r1087  -1.0
    f4001  r1088  1.0
    f4001  r1457  1.0
    f4002  OBJ  8.044580428570983
    f4002  r1087  1.0
    f4002  r1099  -1.0
    f4002  r1458  1.0
    f4003  OBJ  7.324669472023794
    f4003  r1087  -1.0
    f4003  r1099  1.0
    f4003  r1459  1.0
    f4004  OBJ  1.314066547938094
    f4004  r1088  1.0
    f4004  r1089  -1.0
    f4004  r1460  1.0
    f4005  OBJ  1.7861996272793332
    f4005  r1088  -1.0
    f4005  r1089  1.0
    f4005  r1461  1.0
    f4006  OBJ  6.983858312706064
    f4006  r1088  1.0
    f4006  r1100  -1.0
    f4006  r1462  1.0
    f4007  OBJ  8.675731147502312
    f4007  r1088  -1.0
    f4007  r1100  1.0
    f4007  r1463  1.0
    f4008  OBJ  8.427046161750996
    f4008  r1089  1.0
    f4008  r1090  -1.0
    f4008  r1464  1.0
    f4009  OBJ  1.8228964051985819
    f4009  r1089  -1.0
    f4009  r1090  1.0
    f4009  r1465  1.0
    f4010  OBJ  6.409233468018879
    f4010  r1089  1.0
    f4010  r1101  -1.0
    f4010  r1466  1.0
    f4011  OBJ  2.3497677657611447
    f4011  r1089  -1.0
    f4011  r1101  1.0
    f4011  r1467  1.0
    f4012  OBJ  3.7086207054581948
    f4012  r1090  1.0
    f4012  r1091  -1.0
    f4012  r1468  1.0
    f4013  OBJ  8.65715624722977
    f4013  r1090  -1.0
    f4013  r1091  1.0
    f4013  r1469  1.0
    f4014  OBJ  6.595096110933911
    f4014  r1090  1.0
    f4014  r1102  -1.0
    f4014  r1470  1.0
    f4015  OBJ  8.537672872213488
    f4015  r1090  -1.0
    f4015  r1102  1.0
    f4015  r1471  1.0
    f4016  OBJ  6.4434897279176155
    f4016  r1091  1.0
    f4016  r1103  -1.0
    f4016  r1472  1.0
    f4017  OBJ  9.13032417858997
    f4017  r1091  -1.0
    f4017  r1103  1.0
    f4017  r1473  1.0
    f4018  OBJ  3.4661275108262677
    f4018  r1092  1.0
    f4018  r1093  -1.0
    f4018  r1474  1.0
    f4019  OBJ  5.314808375552716
    f4019  r1092  -1.0
    f4019  r1093  1.0
    f4019  r1475  1.0
    f4020  OBJ  9.415650543340698
    f4020  r1092  1.0
    f4020  r1104  -1.0
    f4020  r1476  1.0
    f4021  OBJ  7.876608463745178
    f4021  r1092  -1.0
    f4021  r1104  1.0
    f4021  r1477  1.0
    f4022  OBJ  1.4555185085717608
    f4022  r1093  1.0
    f4022  r1094  -1.0
    f4022  r1478  1.0
    f4023  OBJ  2.8941717934539652
    f4023  r1093  -1.0
    f4023  r1094  1.0
    f4023  r1479  1.0
    f4024  OBJ  4.342485411336144
    f4024  r1093  1.0
    f4024  r1105  -1.0
    f4024  r1480  1.0
    f4025  OBJ  6.743615544985133
    f4025  r1093  -1.0
    f4025  r1105  1.0
    f4025  r1481  1.0
    f4026  OBJ  3.61203237863454
    f4026  r1094  1.0
    f4026  r1095  -1.0
    f4026  r1482  1.0
    f4027  OBJ  8.55096368863703
    f4027  r1094  -1.0
    f4027  r1095  1.0
    f4027  r1483  1.0
    f4028  OBJ  8.27410362430896
    f4028  r1094  1.0
    f4028  r1106  -1.0
    f4028  r1484  1.0
    f4029  OBJ  4.760315867692679
    f4029  r1094  -1.0
    f4029  r1106  1.0
    f4029  r1485  1.0
    f4030  OBJ  3.271951507739692
    f4030  r1095  1.0
    f4030  r1096  -1.0
    f4030  r1486  1.0
    f4031  OBJ  3.1289069487998327
    f4031  r1095  -1.0
    f4031  r1096  1.0
    f4031  r1487  1.0
    f4032  OBJ  3.0383411253968777
    f4032  r1095  1.0
    f4032  r1107  -1.0
    f4032  r1488  1.0
    f4033  OBJ  5.480200952044394
    f4033  r1095  -1.0
    f4033  r1107  1.0
    f4033  r1489  1.0
    f4034  OBJ  5.89233280359704
    f4034  r1096  1.0
    f4034  r1097  -1.0
    f4034  r1490  1.0
    f4035  OBJ  9.034834307474533
    f4035  r1096  -1.0
    f4035  r1097  1.0
    f4035  r1491  1.0
    f4036  OBJ  5.48019352885476
    f4036  r1096  1.0
    f4036  r1108  -1.0
    f4036  r1492  1.0
    f4037  OBJ  6.063511377019814
    f4037  r1096  -1.0
    f4037  r1108  1.0
    f4037  r1493  1.0
    f4038  OBJ  3.056570100539143
    f4038  r1097  1.0
    f4038  r1098  -1.0
    f4038  r1494  1.0
    f4039  OBJ  9.839114102074996
    f4039  r1097  -1.0
    f4039  r1098  1.0
    f4039  r1495  1.0
    f4040  OBJ  5.288831991624837
    f4040  r1097  1.0
    f4040  r1109  -1.0
    f4040  r1496  1.0
    f4041  OBJ  2.3618639776040853
    f4041  r1097  -1.0
    f4041  r1109  1.0
    f4041  r1497  1.0
    f4042  OBJ  3.6106988058510683
    f4042  r1098  1.0
    f4042  r1099  -1.0
    f4042  r1498  1.0
    f4043  OBJ  7.580321328506547
    f4043  r1098  -1.0
    f4043  r1099  1.0
    f4043  r1499  1.0
    f4044  OBJ  3.4236954706385108
    f4044  r1098  1.0
    f4044  r1110  -1.0
    f4044  r1500  1.0
    f4045  OBJ  9.935351400755525
    f4045  r1098  -1.0
    f4045  r1110  1.0
    f4045  r1501  1.0
    f4046  OBJ  6.0414245812900464
    f4046  r1099  1.0
    f4046  r1100  -1.0
    f4046  r1502  1.0
    f4047  OBJ  8.128246327252945
    f4047  r1099  -1.0
    f4047  r1100  1.0
    f4047  r1503  1.0
    f4048  OBJ  6.405207842179179
    f4048  r1099  1.0
    f4048  r1111  -1.0
    f4048  r1504  1.0
    f4049  OBJ  7.175588659685827
    f4049  r1099  -1.0
    f4049  r1111  1.0
    f4049  r1505  1.0
    f4050  OBJ  4.55280268396465
    f4050  r1100  1.0
    f4050  r1101  -1.0
    f4050  r1506  1.0
    f4051  OBJ  8.284176006510918
    f4051  r1100  -1.0
    f4051  r1101  1.0
    f4051  r1507  1.0
    f4052  OBJ  8.258425480846048
    f4052  r1100  1.0
    f4052  r1112  -1.0
    f4052  r1508  1.0
    f4053  OBJ  8.243636724075234
    f4053  r1100  -1.0
    f4053  r1112  1.0
    f4053  r1509  1.0
    f4054  OBJ  6.657537466663689
    f4054  r1101  1.0
    f4054  r1102  -1.0
    f4054  r1510  1.0
    f4055  OBJ  8.164781925273541
    f4055  r1101  -1.0
    f4055  r1102  1.0
    f4055  r1511  1.0
    f4056  OBJ  8.20681290475072
    f4056  r1101  1.0
    f4056  r1113  -1.0
    f4056  r1512  1.0
    f4057  OBJ  3.094638847430028
    f4057  r1101  -1.0
    f4057  r1113  1.0
    f4057  r1513  1.0
    f4058  OBJ  1.4217384987424868
    f4058  r1102  1.0
    f4058  r1103  -1.0
    f4058  r1514  1.0
    f4059  OBJ  9.287341261502519
    f4059  r1102  -1.0
    f4059  r1103  1.0
    f4059  r1515  1.0
    f4060  OBJ  4.510003809796323
    f4060  r1102  1.0
    f4060  r1114  -1.0
    f4060  r1516  1.0
    f4061  OBJ  1.689584135205687
    f4061  r1102  -1.0
    f4061  r1114  1.0
    f4061  r1517  1.0
    f4062  OBJ  8.829369194969871
    f4062  r1103  1.0
    f4062  r1115  -1.0
    f4062  r1518  1.0
    f4063  OBJ  8.579225926976626
    f4063  r1103  -1.0
    f4063  r1115  1.0
    f4063  r1519  1.0
    f4064  OBJ  6.515070056482823
    f4064  r1104  1.0
    f4064  r1105  -1.0
    f4064  r1520  1.0
    f4065  OBJ  1.9333861611603584
    f4065  r1104  -1.0
    f4065  r1105  1.0
    f4065  r1521  1.0
    f4066  OBJ  8.821126256390787
    f4066  r1104  1.0
    f4066  r1116  -1.0
    f4066  r1522  1.0
    f4067  OBJ  5.380010869548395
    f4067  r1104  -1.0
    f4067  r1116  1.0
    f4067  r1523  1.0
    f4068  OBJ  1.79435476258808
    f4068  r1105  1.0
    f4068  r1106  -1.0
    f4068  r1524  1.0
    f4069  OBJ  2.5881345830087987
    f4069  r1105  -1.0
    f4069  r1106  1.0
    f4069  r1525  1.0
    f4070  OBJ  2.2709020232246275
    f4070  r1105  1.0
    f4070  r1117  -1.0
    f4070  r1526  1.0
    f4071  OBJ  8.817342286568334
    f4071  r1105  -1.0
    f4071  r1117  1.0
    f4071  r1527  1.0
    f4072  OBJ  8.986263428543289
    f4072  r1106  1.0
    f4072  r1107  -1.0
    f4072  r1528  1.0
    f4073  OBJ  9.38185667015476
    f4073  r1106  -1.0
    f4073  r1107  1.0
    f4073  r1529  1.0
    f4074  OBJ  3.9106694183611115
    f4074  r1106  1.0
    f4074  r1118  -1.0
    f4074  r1530  1.0
    f4075  OBJ  6.2581326213504145
    f4075  r1106  -1.0
    f4075  r1118  1.0
    f4075  r1531  1.0
    f4076  OBJ  6.5413224246684765
    f4076  r1107  1.0
    f4076  r1108  -1.0
    f4076  r1532  1.0
    f4077  OBJ  4.24723656890971
    f4077  r1107  -1.0
    f4077  r1108  1.0
    f4077  r1533  1.0
    f4078  OBJ  1.1530270433944918
    f4078  r1107  1.0
    f4078  r1119  -1.0
    f4078  r1534  1.0
    f4079  OBJ  1.5456931069157984
    f4079  r1107  -1.0
    f4079  r1119  1.0
    f4079  r1535  1.0
    f4080  OBJ  1.7241574018463028
    f4080  r1108  1.0
    f4080  r1109  -1.0
    f4080  r1536  1.0
    f4081  OBJ  5.060393063505103
    f4081  r1108  -1.0
    f4081  r1109  1.0
    f4081  r1537  1.0
    f4082  OBJ  4.717674001218046
    f4082  r1108  1.0
    f4082  r1120  -1.0
    f4082  r1538  1.0
    f4083  OBJ  1.247230558457763
    f4083  r1108  -1.0
    f4083  r1120  1.0
    f4083  r1539  1.0
    f4084  OBJ  1.54764450308056
    f4084  r1109  1.0
    f4084  r1110  -1.0
    f4084  r1540  1.0
    f4085  OBJ  4.436901121272687
    f4085  r1109  -1.0
    f4085  r1110  1.0
    f4085  r1541  1.0
    f4086  OBJ  6.816823571619188
    f4086  r1109  1.0
    f4086  r1121  -1.0
    f4086  r1542  1.0
    f4087  OBJ  5.525496290785183
    f4087  r1109  -1.0
    f4087  r1121  1.0
    f4087  r1543  1.0
    f4088  OBJ  7.7892030889215045
    f4088  r1110  1.0
    f4088  r1111  -1.0
    f4088  r1544  1.0
    f4089  OBJ  6.021613449681658
    f4089  r1110  -1.0
    f4089  r1111  1.0
    f4089  r1545  1.0
    f4090  OBJ  1.7925975732094421
    f4090  r1110  1.0
    f4090  r1122  -1.0
    f4090  r1546  1.0
    f4091  OBJ  1.9605881002043333
    f4091  r1110  -1.0
    f4091  r1122  1.0
    f4091  r1547  1.0
    f4092  OBJ  4.214847872386429
    f4092  r1111  1.0
    f4092  r1112  -1.0
    f4092  r1548  1.0
    f4093  OBJ  6.4358061135036415
    f4093  r1111  -1.0
    f4093  r1112  1.0
    f4093  r1549  1.0
    f4094  OBJ  8.791756014834748
    f4094  r1111  1.0
    f4094  r1123  -1.0
    f4094  r1550  1.0
    f4095  OBJ  8.906412266607497
    f4095  r1111  -1.0
    f4095  r1123  1.0
    f4095  r1551  1.0
    f4096  OBJ  9.642936026015834
    f4096  r1112  1.0
    f4096  r1113  -1.0
    f4096  r1552  1.0
    f4097  OBJ  8.74458457431033
    f4097  r1112  -1.0
    f4097  r1113  1.0
    f4097  r1553  1.0
    f4098  OBJ  4.632826881809093
    f4098  r1112  1.0
    f4098  r1124  -1.0
    f4098  r1554  1.0
    f4099  OBJ  6.036208381774288
    f4099  r1112  -1.0
    f4099  r1124  1.0
    f4099  r1555  1.0
    f4100  OBJ  1.5445529663505415
    f4100  r1113  1.0
    f4100  r1114  -1.0
    f4100  r1556  1.0
    f4101  OBJ  9.46800502409497
    f4101  r1113  -1.0
    f4101  r1114  1.0
    f4101  r1557  1.0
    f4102  OBJ  6.293069097224333
    f4102  r1113  1.0
    f4102  r1125  -1.0
    f4102  r1558  1.0
    f4103  OBJ  1.392109310130999
    f4103  r1113  -1.0
    f4103  r1125  1.0
    f4103  r1559  1.0
    f4104  OBJ  8.98243592093765
    f4104  r1114  1.0
    f4104  r1115  -1.0
    f4104  r1560  1.0
    f4105  OBJ  7.457874392090199
    f4105  r1114  -1.0
    f4105  r1115  1.0
    f4105  r1561  1.0
    f4106  OBJ  9.86636593405365
    f4106  r1114  1.0
    f4106  r1126  -1.0
    f4106  r1562  1.0
    f4107  OBJ  1.884113845238686
    f4107  r1114  -1.0
    f4107  r1126  1.0
    f4107  r1563  1.0
    f4108  OBJ  4.817695723273715
    f4108  r1115  1.0
    f4108  r1127  -1.0
    f4108  r1564  1.0
    f4109  OBJ  1.9663286839312208
    f4109  r1115  -1.0
    f4109  r1127  1.0
    f4109  r1565  1.0
    f4110  OBJ  9.466546608877756
    f4110  r1116  1.0
    f4110  r1117  -1.0
    f4110  r1566  1.0
    f4111  OBJ  2.35517321804957
    f4111  r1116  -1.0
    f4111  r1117  1.0
    f4111  r1567  1.0
    f4112  OBJ  7.463676282084244
    f4112  r1116  1.0
    f4112  r1128  -1.0
    f4112  r1568  1.0
    f4113  OBJ  7.092173550062428
    f4113  r1116  -1.0
    f4113  r1128  1.0
    f4113  r1569  1.0
    f4114  OBJ  6.419758665712502
    f4114  r1117  1.0
    f4114  r1118  -1.0
    f4114  r1570  1.0
    f4115  OBJ  5.28633868688531
    f4115  r1117  -1.0
    f4115  r1118  1.0
    f4115  r1571  1.0
    f4116  OBJ  4.866007560405688
    f4116  r1117  1.0
    f4116  r1129  -1.0
    f4116  r1572  1.0
    f4117  OBJ  8.167183958198226
    f4117  r1117  -1.0
    f4117  r1129  1.0
    f4117  r1573  1.0
    f4118  OBJ  6.429584491675617
    f4118  r1118  1.0
    f4118  r1119  -1.0
    f4118  r1574  1.0
    f4119  OBJ  4.055450924783071
    f4119  r1118  -1.0
    f4119  r1119  1.0
    f4119  r1575  1.0
    f4120  OBJ  7.581300347906965
    f4120  r1118  1.0
    f4120  r1130  -1.0
    f4120  r1576  1.0
    f4121  OBJ  7.0298196315608354
    f4121  r1118  -1.0
    f4121  r1130  1.0
    f4121  r1577  1.0
    f4122  OBJ  4.957681743166404
    f4122  r1119  1.0
    f4122  r1120  -1.0
    f4122  r1578  1.0
    f4123  OBJ  7.318285653973427
    f4123  r1119  -1.0
    f4123  r1120  1.0
    f4123  r1579  1.0
    f4124  OBJ  2.4897868945411625
    f4124  r1119  1.0
    f4124  r1131  -1.0
    f4124  r1580  1.0
    f4125  OBJ  4.850063341307448
    f4125  r1119  -1.0
    f4125  r1131  1.0
    f4125  r1581  1.0
    f4126  OBJ  8.033896025571028
    f4126  r1120  1.0
    f4126  r1121  -1.0
    f4126  r1582  1.0
    f4127  OBJ  8.097860416424329
    f4127  r1120  -1.0
    f4127  r1121  1.0
    f4127  r1583  1.0
    f4128  OBJ  7.774866557965757
    f4128  r1120  1.0
    f4128  r1132  -1.0
    f4128  r1584  1.0
    f4129  OBJ  9.98372389208314
    f4129  r1120  -1.0
    f4129  r1132  1.0
    f4129  r1585  1.0
    f4130  OBJ  4.51239723509016
    f4130  r1121  1.0
    f4130  r1122  -1.0
    f4130  r1586  1.0
    f4131  OBJ  9.22551467867278
    f4131  r1121  -1.0
    f4131  r1122  1.0
    f4131  r1587  1.0
    f4132  OBJ  7.985321819227965
    f4132  r1121  1.0
    f4132  r1133  -1.0
    f4132  r1588  1.0
    f4133  OBJ  7.853878487528075
    f4133  r1121  -1.0
    f4133  r1133  1.0
    f4133  r1589  1.0
    f4134  OBJ  3.8988307865943725
    f4134  r1122  1.0
    f4134  r1123  -1.0
    f4134  r1590  1.0
    f4135  OBJ  1.8213408431341964
    f4135  r1122  -1.0
    f4135  r1123  1.0
    f4135  r1591  1.0
    f4136  OBJ  7.923969680330949
    f4136  r1122  1.0
    f4136  r1134  -1.0
    f4136  r1592  1.0
    f4137  OBJ  1.563767453091939
    f4137  r1122  -1.0
    f4137  r1134  1.0
    f4137  r1593  1.0
    f4138  OBJ  6.935198814097371
    f4138  r1123  1.0
    f4138  r1124  -1.0
    f4138  r1594  1.0
    f4139  OBJ  1.140233599419127
    f4139  r1123  -1.0
    f4139  r1124  1.0
    f4139  r1595  1.0
    f4140  OBJ  2.667798011767858
    f4140  r1123  1.0
    f4140  r1135  -1.0
    f4140  r1596  1.0
    f4141  OBJ  4.993681071225831
    f4141  r1123  -1.0
    f4141  r1135  1.0
    f4141  r1597  1.0
    f4142  OBJ  8.51136799825362
    f4142  r1124  1.0
    f4142  r1125  -1.0
    f4142  r1598  1.0
    f4143  OBJ  3.6987857321639197
    f4143  r1124  -1.0
    f4143  r1125  1.0
    f4143  r1599  1.0
    f4144  OBJ  9.300556541774627
    f4144  r1124  1.0
    f4144  r1136  -1.0
    f4144  r1600  1.0
    f4145  OBJ  9.475496473088528
    f4145  r1124  -1.0
    f4145  r1136  1.0
    f4145  r1601  1.0
    f4146  OBJ  7.7584063045366145
    f4146  r1125  1.0
    f4146  r1126  -1.0
    f4146  r1602  1.0
    f4147  OBJ  4.126292753714269
    f4147  r1125  -1.0
    f4147  r1126  1.0
    f4147  r1603  1.0
    f4148  OBJ  5.0828380217659666
    f4148  r1125  1.0
    f4148  r1137  -1.0
    f4148  r1604  1.0
    f4149  OBJ  9.7307357511208
    f4149  r1125  -1.0
    f4149  r1137  1.0
    f4149  r1605  1.0
    f4150  OBJ  6.106322066837172
    f4150  r1126  1.0
    f4150  r1127  -1.0
    f4150  r1606  1.0
    f4151  OBJ  6.3511769264331015
    f4151  r1126  -1.0
    f4151  r1127  1.0
    f4151  r1607  1.0
    f4152  OBJ  6.085853555964545
    f4152  r1126  1.0
    f4152  r1138  -1.0
    f4152  r1608  1.0
    f4153  OBJ  2.4188610871705665
    f4153  r1126  -1.0
    f4153  r1138  1.0
    f4153  r1609  1.0
    f4154  OBJ  9.924103008796113
    f4154  r1127  1.0
    f4154  r1139  -1.0
    f4154  r1610  1.0
    f4155  OBJ  6.3299777034315134
    f4155  r1127  -1.0
    f4155  r1139  1.0
    f4155  r1611  1.0
    f4156  OBJ  7.109020812874268
    f4156  r1128  1.0
    f4156  r1129  -1.0
    f4156  r1612  1.0
    f4157  OBJ  8.310746585559563
    f4157  r1128  -1.0
    f4157  r1129  1.0
    f4157  r1613  1.0
    f4158  OBJ  5.443692129422634
    f4158  r1128  1.0
    f4158  r1140  -1.0
    f4158  r1614  1.0
    f4159  OBJ  3.231987722633258
    f4159  r1128  -1.0
    f4159  r1140  1.0
    f4159  r1615  1.0
    f4160  OBJ  9.430566867020026
    f4160  r1129  1.0
    f4160  r1130  -1.0
    f4160  r1616  1.0
    f4161  OBJ  2.595050864337804
    f4161  r1129  -1.0
    f4161  r1130  1.0
    f4161  r1617  1.0
    f4162  OBJ  4.318987023072978
    f4162  r1129  1.0
    f4162  r1141  -1.0
    f4162  r1618  1.0
    f4163  OBJ  7.329669428774082
    f4163  r1129  -1.0
    f4163  r1141  1.0
    f4163  r1619  1.0
    f4164  OBJ  4.9836887656897915
    f4164  r1130  1.0
    f4164  r1131  -1.0
    f4164  r1620  1.0
    f4165  OBJ  6.352318630146749
    f4165  r1130  -1.0
    f4165  r1131  1.0
    f4165  r1621  1.0
    f4166  OBJ  2.99987842617096
    f4166  r1130  1.0
    f4166  r1142  -1.0
    f4166  r1622  1.0
    f4167  OBJ  8.620083490919386
    f4167  r1130  -1.0
    f4167  r1142  1.0
    f4167  r1623  1.0
    f4168  OBJ  8.771843830234175
    f4168  r1131  1.0
    f4168  r1132  -1.0
    f4168  r1624  1.0
    f4169  OBJ  4.955466875694067
    f4169  r1131  -1.0
    f4169  r1132  1.0
    f4169  r1625  1.0
    f4170  OBJ  9.247771892131468
    f4170  r1131  1.0
    f4170  r1143  -1.0
    f4170  r1626  1.0
    f4171  OBJ  8.81945506426993
    f4171  r1131  -1.0
    f4171  r1143  1.0
    f4171  r1627  1.0
    f4172  OBJ  6.830438423101554
    f4172  r1132  1.0
    f4172  r1133  -1.0
    f4172  r1628  1.0
    f4173  OBJ  3.051525755682319
    f4173  r1132  -1.0
    f4173  r1133  1.0
    f4173  r1629  1.0
    f4174  OBJ  1.2806710336649478
    f4174  r1132  1.0
    f4174  r1144  -1.0
    f4174  r1630  1.0
    f4175  OBJ  9.385515893642298
    f4175  r1132  -1.0
    f4175  r1144  1.0
    f4175  r1631  1.0
    f4176  OBJ  9.347005011305704
    f4176  r1133  1.0
    f4176  r1134  -1.0
    f4176  r1632  1.0
    f4177  OBJ  6.523754702624132
    f4177  r1133  -1.0
    f4177  r1134  1.0
    f4177  r1633  1.0
    f4178  OBJ  5.84234211010877
    f4178  r1133  1.0
    f4178  r1145  -1.0
    f4178  r1634  1.0
    f4179  OBJ  7.604297408003552
    f4179  r1133  -1.0
    f4179  r1145  1.0
    f4179  r1635  1.0
    f4180  OBJ  4.560010615077432
    f4180  r1134  1.0
    f4180  r1135  -1.0
    f4180  r1636  1.0
    f4181  OBJ  3.8763856694749403
    f4181  r1134  -1.0
    f4181  r1135  1.0
    f4181  r1637  1.0
    f4182  OBJ  4.127448896846589
    f4182  r1134  1.0
    f4182  r1146  -1.0
    f4182  r1638  1.0
    f4183  OBJ  4.125540637571846
    f4183  r1134  -1.0
    f4183  r1146  1.0
    f4183  r1639  1.0
    f4184  OBJ  5.870489008294482
    f4184  r1135  1.0
    f4184  r1136  -1.0
    f4184  r1640  1.0
    f4185  OBJ  1.1227156697234932
    f4185  r1135  -1.0
    f4185  r1136  1.0
    f4185  r1641  1.0
    f4186  OBJ  3.021900054708767
    f4186  r1135  1.0
    f4186  r1147  -1.0
    f4186  r1642  1.0
    f4187  OBJ  6.057863150573489
    f4187  r1135  -1.0
    f4187  r1147  1.0
    f4187  r1643  1.0
    f4188  OBJ  8.96832750186815
    f4188  r1136  1.0
    f4188  r1137  -1.0
    f4188  r1644  1.0
    f4189  OBJ  5.719635655221788
    f4189  r1136  -1.0
    f4189  r1137  1.0
    f4189  r1645  1.0
    f4190  OBJ  3.5255293439735524
    f4190  r1136  1.0
    f4190  r1148  -1.0
    f4190  r1646  1.0
    f4191  OBJ  9.48611550989987
    f4191  r1136  -1.0
    f4191  r1148  1.0
    f4191  r1647  1.0
    f4192  OBJ  8.695746371993316
    f4192  r1137  1.0
    f4192  r1138  -1.0
    f4192  r1648  1.0
    f4193  OBJ  3.418278390810974
    f4193  r1137  -1.0
    f4193  r1138  1.0
    f4193  r1649  1.0
    f4194  OBJ  9.934860761595974
    f4194  r1137  1.0
    f4194  r1149  -1.0
    f4194  r1650  1.0
    f4195  OBJ  7.258274874710123
    f4195  r1137  -1.0
    f4195  r1149  1.0
    f4195  r1651  1.0
    f4196  OBJ  3.3328534298199513
    f4196  r1138  1.0
    f4196  r1139  -1.0
    f4196  r1652  1.0
    f4197  OBJ  6.492333955930169
    f4197  r1138  -1.0
    f4197  r1139  1.0
    f4197  r1653  1.0
    f4198  OBJ  3.9443539764031295
    f4198  r1138  1.0
    f4198  r1150  -1.0
    f4198  r1654  1.0
    f4199  OBJ  9.315480371727524
    f4199  r1138  -1.0
    f4199  r1150  1.0
    f4199  r1655  1.0
    f4200  OBJ  6.528412566194859
    f4200  r1139  1.0
    f4200  r1151  -1.0
    f4200  r1656  1.0
    f4201  OBJ  1.4574915159359643
    f4201  r1139  -1.0
    f4201  r1151  1.0
    f4201  r1657  1.0
    f4202  OBJ  5.63981982753051
    f4202  r1140  1.0
    f4202  r1141  -1.0
    f4202  r1658  1.0
    f4203  OBJ  5.910777857561307
    f4203  r1140  -1.0
    f4203  r1141  1.0
    f4203  r1659  1.0
    f4204  OBJ  8.376216960334341
    f4204  r1141  1.0
    f4204  r1142  -1.0
    f4204  r1660  1.0
    f4205  OBJ  9.490699764840153
    f4205  r1141  -1.0
    f4205  r1142  1.0
    f4205  r1661  1.0
    f4206  OBJ  7.1149043862629755
    f4206  r1142  1.0
    f4206  r1143  -1.0
    f4206  r1662  1.0
    f4207  OBJ  6.221105241873805
    f4207  r1142  -1.0
    f4207  r1143  1.0
    f4207  r1663  1.0
    f4208  OBJ  5.784367932215563
    f4208  r1143  1.0
    f4208  r1144  -1.0
    f4208  r1664  1.0
    f4209  OBJ  2.5502291518798677
    f4209  r1143  -1.0
    f4209  r1144  1.0
    f4209  r1665  1.0
    f4210  OBJ  7.63824342000365
    f4210  r1144  1.0
    f4210  r1145  -1.0
    f4210  r1666  1.0
    f4211  OBJ  5.508061229245426
    f4211  r1144  -1.0
    f4211  r1145  1.0
    f4211  r1667  1.0
    f4212  OBJ  4.575305739515346
    f4212  r1145  1.0
    f4212  r1146  -1.0
    f4212  r1668  1.0
    f4213  OBJ  7.753010370046059
    f4213  r1145  -1.0
    f4213  r1146  1.0
    f4213  r1669  1.0
    f4214  OBJ  4.2151623050292955
    f4214  r1146  1.0
    f4214  r1147  -1.0
    f4214  r1670  1.0
    f4215  OBJ  7.337043397927561
    f4215  r1146  -1.0
    f4215  r1147  1.0
    f4215  r1671  1.0
    f4216  OBJ  3.937409412500358
    f4216  r1147  1.0
    f4216  r1148  -1.0
    f4216  r1672  1.0
    f4217  OBJ  2.7093259789121125
    f4217  r1147  -1.0
    f4217  r1148  1.0
    f4217  r1673  1.0
    f4218  OBJ  6.030144895898163
    f4218  r1148  1.0
    f4218  r1149  -1.0
    f4218  r1674  1.0
    f4219  OBJ  9.248603140452367
    f4219  r1148  -1.0
    f4219  r1149  1.0
    f4219  r1675  1.0
    f4220  OBJ  2.7012102773291957
    f4220  r1149  1.0
    f4220  r1150  -1.0
    f4220  r1676  1.0
    f4221  OBJ  2.3516175236739865
    f4221  r1149  -1.0
    f4221  r1150  1.0
    f4221  r1677  1.0
    f4222  OBJ  3.8723982737810747
    f4222  r1150  1.0
    f4222  r1151  -1.0
    f4222  r1678  1.0
    f4223  OBJ  8.735968157581555
    f4223  r1150  -1.0
    f4223  r1151  1.0
    f4223  r1679  1.0
RHS
    RHS  r37  -9.42611236022209
    RHS  r58  9.42611236022209
    RHS  r196  -12.518893241486229
    RHS  r250  12.518893241486229
    RHS  r323  13.502154746714567
    RHS  r343  -13.502154746714567
    RHS  r448  -5.615301075827624
    RHS  r553  5.615301075827624
    RHS  r656  11.446346493426152
    RHS  r683  -11.446346493426152
    RHS  r764  8.272025042373361
    RHS  r828  -8.272025042373361
    RHS  r882  -8.926115543297419
    RHS  r969  8.926115543297419
    RHS  r1093  12.91910091751987
    RHS  r1141  -12.91910091751987
    RHS  r1152  38.32385371687251
    RHS  r1153  35.08631956202718
    RHS  r1154  34.75964600079416
    RHS  r1155  33.13957973661917
    RHS  r1156  41.879430601544
    RHS  r1157  36.31742504139528
    RHS  r1158  25.93093903494609
    RHS  r1159  49.453925227593444
    RHS  r1160  26.134530691594996
    RHS  r1161  41.825619675361125
    RHS  r1162  39.42331346585709
    RHS  r1163  20.631500601603648
    RHS  r1164  29.801339612221046
    RHS  r1165  52.06091456406692
    RHS  r1166  53.50989812475823
    RHS  r1167  54.494586640643504
    RHS  r1168  25.610075846056915
    RHS  r1169  49.82299260021072
    RHS  r1170  34.03256428702631
    RHS  r1171  29.054223361563132
    RHS  r1172  27.70976518127107
    RHS  r1173  55.20642602287326
    RHS  r1174  59.20355733298241
    RHS  r1175  42.09552913319296
    RHS  r1176  57.67981706995163
    RHS  r1177  25.500556495019588
    RHS  r1178  20.206926521701355
    RHS  r1179  38.50684914132721
    RHS  r1180  55.67243710395943
    RHS  r1181  40.473648016289076
    RHS  r1182  30.3731355183207
    RHS  r1183  56.812974513529184
    RHS  r1184  45.75994752627092
    RHS  r1185  33.861988758065756
    RHS  r1186  43.1723550694316
    RHS  r1187  45.97756689433086
    RHS  r1188  23.131692518920616
    RHS  r1189  42.02465676563384
    RHS  r1190  44.17008331262742
    RHS  r1191  23.359984495879477
    RHS  r1192  27.182174846037856
    RHS  r1193  21.336176763889263
    RHS  r1194  28.86728321589786
    RHS  r1195  21.275832579115907
    RHS  r1196  43.475763872089836
    RHS  r1197  52.643788699241696
    RHS  r1198  24.320876210720694
    RHS  r1199  55.027020867932
    RHS  r1200  29.615976589671117
    RHS  r1201  20.023230567445136
    RHS  r1202  36.73583579283417
    RHS  r1203  32.03278484892533
    RHS  r1204  34.231382580135396
    RHS  r1205  32.7286294264125
    RHS  r1206  51.216889648813236
    RHS  r1207  34.828425210574714
    RHS  r1208  53.55065531154393
    RHS  r1209  47.02067146420998
    RHS  r1210  47.28768611084072
    RHS  r1211  50.77215285663124
    RHS  r1212  26.944361774047746
    RHS  r1213  57.035521699450065
    RHS  r1214  42.85653207443751
    RHS  r1215  20.74685960486417
    RHS  r1216  27.947035882873273
    RHS  r1217  56.3530791615102
    RHS  r1218  45.44449847727021
    RHS  r1219  20.145364126331696
    RHS  r1220  24.064731111868618
    RHS  r1221  58.40237492658463
    RHS  r1222  28.61537957391894
    RHS  r1223  37.9057482769077
    RHS  r1224  42.46512505159742
    RHS  r1225  20.423446379979314
    RHS  r1226  36.845920507860626
    RHS  r1227  43.08098107746501
    RHS  r1228  21.55193443175437
    RHS  r1229  39.62539714245665
    RHS  r1230  50.991761890454626
    RHS  r1231  46.3174896263743
    RHS  r1232  28.38539230490728
    RHS  r1233  37.77487024882173
    RHS  r1234  27.34337000278963
    RHS  r1235  36.12745193688522
    RHS  r1236  33.982455233660346
    RHS  r1237  37.24431472724546
    RHS  r1238  49.01477177776631
    RHS  r1239  27.42168036312369
    RHS  r1240  57.346913030689535
    RHS  r1241  50.729010087408966
    RHS  r1242  58.11612796863416
    RHS  r1243  34.447522668823225
    RHS  r1244  45.012574360843864
    RHS  r1245  46.7466772048313
    RHS  r1246  58.521015383579254
    RHS  r1247  47.75098623072469
    RHS  r1248  40.513474808578856
    RHS  r1249  26.080872888392094
    RHS  r1250  51.43176640769818
    RHS  r1251  56.75091598310368
    RHS  r1252  45.915320060396425
    RHS  r1253  41.24208083767935
    RHS  r1254  20.612887076897103
    RHS  r1255  59.69112031343667
    RHS  r1256  53.67097666429417
    RHS  r1257  45.2823393552206
    RHS  r1258  40.212818791357854
    RHS  r1259  48.438091329227575
    RHS  r1260  54.316186142207606
    RHS  r1261  33.98286060088961
    RHS  r1262  26.132179637801087
    RHS  r1263  34.41093719832004
    RHS  r1264  25.14654580356456
    RHS  r1265  38.441123183450316
    RHS  r1266  50.06490632810545
    RHS  r1267  35.240183961607585
    RHS  r1268  38.60431579579878
    RHS  r1269  27.143079745226597
    RHS  r1270  58.80290885505956
    RHS  r1271  27.599263638766416
    RHS  r1272  55.984490087587815
    RHS  r1273  30.339740442004217
    RHS  r1274  55.77545065913132
    RHS  r1275  26.222716005323015
    RHS  r1276  44.476628960331226
    RHS  r1277  43.33229631239671
    RHS  r1278  26.229980720068763
    RHS  r1279  44.05900814784736
    RHS  r1280  41.265340000066615
    RHS  r1281  55.5127900603824
    RHS  r1282  23.606098289914822
    RHS  r1283  39.61380225393254
    RHS  r1284  20.950131180997907
    RHS  r1285  53.3398195132951
    RHS  r1286  22.35260910941177
    RHS  r1287  54.25057994534268
    RHS  r1288  49.051324435269926
    RHS  r1289  57.32269560245959
    RHS  r1290  41.81829538776034
    RHS  r1291  24.24527305700231
    RHS  r1292  49.207470206138424
    RHS  r1293  21.645597293695246
    RHS  r1294  24.68753137455519
    RHS  r1295  32.2913421630002
    RHS  r1296  41.50524076021104
    RHS  r1297  23.93782224072176
    RHS  r1298  40.7648260368194
    RHS  r1299  28.13869016639275
    RHS  r1300  31.22497429333145
    RHS  r1301  57.267525552554076
    RHS  r1302  42.16554101302599
    RHS  r1303  59.80956937675018
    RHS  r1304  48.43751037059261
    RHS  r1305  35.620458745321166
    RHS  r1306  53.32036369497784
    RHS  r1307  47.06780187018049
    RHS  r1308  30.57011922990048
    RHS  r1309  31.943254042605524
    RHS  r1310  33.802592651276925
    RHS  r1311  35.58522884940525
    RHS  r1312  56.933260870897506
    RHS  r1313  56.369926016040175
    RHS  r1314  22.326722147327676
    RHS  r1315  37.37594169363508
    RHS  r1316  26.53827956194075
    RHS  r1317  52.56497158353568
    RHS  r1318  40.40859571137494
    RHS  r1319  37.62322307960431
    RHS  r1320  50.115019458280024
    RHS  r1321  54.14774865776964
    RHS  r1322  20.286189456483577
    RHS  r1323  26.39403542003732
    RHS  r1324  23.162053784424895
    RHS  r1325  57.73917898353485
    RHS  r1326  34.11843438885954
    RHS  r1327  33.03973383195333
    RHS  r1328  32.407595192788925
    RHS  r1329  26.699616870864602
    RHS  r1330  27.727799950990537
    RHS  r1331  34.63951127274319
    RHS  r1332  56.090476979410965
    RHS  r1333  35.8798737284966
    RHS  r1334  22.805921057290973
    RHS  r1335  34.203663272042704
    RHS  r1336  36.69097452275522
    RHS  r1337  51.77467709448701
    RHS  r1338  48.07635918991902
    RHS  r1339  41.592635326108095
    RHS  r1340  32.41114093159374
    RHS  r1341  24.471233672431488
    RHS  r1342  27.63744105698382
    RHS  r1343  34.19344218652978
    RHS  r1344  54.80579174502789
    RHS  r1345  20.638874735703972
    RHS  r1346  36.25446137074419
    RHS  r1347  46.32346274389527
    RHS  r1348  23.897822353701823
    RHS  r1349  39.60982528656566
    RHS  r1350  51.890516363428816
    RHS  r1351  42.40126455805712
    RHS  r1352  33.834463370634566
    RHS  r1353  56.35789382382521
    RHS  r1354  40.488076543606795
    RHS  r1355  42.93932646901334
    RHS  r1356  33.504549167527884
    RHS  r1357  51.037956894000104
    RHS  r1358  33.79066330545459
    RHS  r1359  42.83061855163045
    RHS  r1360  37.005887873410785
    RHS  r1361  36.62096613498418
    RHS  r1362  28.781476594629805
    RHS  r1363  31.171041300650653
    RHS  r1364  40.85216210817849
    RHS  r1365  41.98957605197927
    RHS  r1366  28.77659529577235
    RHS  r1367  46.17897416773043
    RHS  r1368  55.9876504958227
    RHS  r1369  45.457258324141065
    RHS  r1370  44.238398624921345
    RHS  r1371  53.00066891741583
    RHS  r1372  44.288538895608085
    RHS  r1373  30.054075783779936
    RHS  r1374  24.921540577505507
    RHS  r1375  31.362851708507304
    RHS  r1376  38.82079021519759
    RHS  r1377  32.3238137701762
    RHS  r1378  26.697413795906243
    RHS  r1379  57.44966189216415
    RHS  r1380  54.86447564431171
    RHS  r1381  25.289446309566866
    RHS  r1382  38.58237693324945
    RHS  r1383  59.72598549984675
    RHS  r1384  56.578644462031
    RHS  r1385  30.70672385730829
    RHS  r1386  27.822068858502178
    RHS  r1387  28.521598483925285
    RHS  r1388  20.27305537689287
    RHS  r1389  52.552698788925966
    RHS  r1390  55.2883682026201
    RHS  r1391  20.97672679971971
    RHS  r1392  56.147912323235055
    RHS  r1393  31.649320270705555
    RHS  r1394  34.056472664563486
    RHS  r1395  47.48115994620706
    RHS  r1396  23.160052815440814
    RHS  r1397  51.68030175792475
    RHS  r1398  27.26552727252962
    RHS  r1399  22.893906331678366
    RHS  r1400  33.66843688103259
    RHS  r1401  28.46063060739432
    RHS  r1402  34.674406561871685
    RHS  r1403  22.701037228094016
    RHS  r1404  36.24577623259808
    RHS  r1405  48.820782928562224
    RHS  r1406  34.45922472088208
    RHS  r1407  38.25433423853603
    RHS  r1408  32.80386675683952
    RHS  r1409  27.614526305362
    RHS  r1410  54.01867984023039
    RHS  r1411  44.19957665211717
    RHS  r1412  48.84063371695055
    RHS  r1413  40.968352315601706
    RHS  r1414  44.58468297015195
    RHS  r1415  36.43322555939304
    RHS  r1416  39.774677786697126
    RHS  r1417  44.360102848835865
    RHS  r1418  32.98432097802793
    RHS  r1419  34.08674799403756
    RHS  r1420  23.022620033590854
    RHS  r1421  51.62805233543551
    RHS  r1422  25.405160004163506
    RHS  r1423  39.33595791058468
    RHS  r1424  33.68340846090642
    RHS  r1425  23.56222928280382
    RHS  r1426  36.99523205120279
    RHS  r1427  41.43023340733886
    RHS  r1428  48.812363084318626
    RHS  r1429  23.880204161380547
    RHS  r1430  35.52226543069338
    RHS  r1431  58.41473025991092
    RHS  r1432  40.47615914669201
    RHS  r1433  38.09359161071828
    RHS  r1434  40.33563193152995
    RHS  r1435  24.024115203864717
    RHS  r1436  57.92109327319433
    RHS  r1437  27.892289535011415
    RHS  r1438  47.176551042788034
    RHS  r1439  27.58484264761836
    RHS  r1440  42.77062520100111
    RHS  r1441  23.567891433482853
    RHS  r1442  26.52430567460653
    RHS  r1443  47.701189565603116
    RHS  r1444  24.915379620269196
    RHS  r1445  41.48792353117877
    RHS  r1446  44.364755202808645
    RHS  r1447  48.60668564803467
    RHS  r1448  52.68321264125236
    RHS  r1449  49.30305943566743
    RHS  r1450  44.84108869115187
    RHS  r1451  35.320709288737575
    RHS  r1452  47.55387429263358
    RHS  r1453  28.65561118414493
    RHS  r1454  31.14968110473985
    RHS  r1455  30.753693002191397
    RHS  r1456  31.250431849529686
    RHS  r1457  33.00144241136988
    RHS  r1458  47.237357831969035
    RHS  r1459  58.56675429314042
    RHS  r1460  42.97629983023725
    RHS  r1461  56.704242694658035
    RHS  r1462  41.37760829170357
    RHS  r1463  42.72127777010999
    RHS  r1464  38.58341511104293
    RHS  r1465  24.885378518711025
    RHS  r1466  50.012529817350625
    RHS  r1467  29.414086887150702
    RHS  r1468  33.07610620359884
    RHS  r1469  20.068557526110297
    RHS  r1470  34.15254713194285
    RHS  r1471  39.554435877884174
    RHS  r1472  31.11124705605874
    RHS  r1473  28.445844994002325
    RHS  r1474  44.746816136275314
    RHS  r1475  43.54456001461322
    RHS  r1476  42.50847113290999
    RHS  r1477  34.026480919398665
    RHS  r1478  30.3562395631473
    RHS  r1479  39.45890905491445
    RHS  r1480  31.05449705015794
    RHS  r1481  28.194427626737667
    RHS  r1482  45.45243163067461
    RHS  r1483  35.05218874232334
    RHS  r1484  23.38129686228922
    RHS  r1485  56.05148114374118
    RHS  r1486  32.91755508234587
    RHS  r1487  33.73419528704265
    RHS  r1488  39.47722215762795
    RHS  r1489  50.25839491479556
    RHS  r1490  47.40255259146693
    RHS  r1491  27.006611547724933
    RHS  r1492  45.71582946204799
    RHS  r1493  35.64788055459322
    RHS  r1494  52.456643315033695
    RHS  r1495  59.258195346209774
    RHS  r1496  58.859718546075484
    RHS  r1497  47.49718221471736
    RHS  r1498  38.11700804213154
    RHS  r1499  51.033846565304216
    RHS  r1500  55.99596462457977
    RHS  r1501  37.03698327068608
    RHS  r1502  27.29059425289758
    RHS  r1503  30.566782870027218
    RHS  r1504  34.524972154057124
    RHS  r1505  34.2039951068346
    RHS  r1506  38.40674337335578
    RHS  r1507  30.859047751813918
    RHS  r1508  42.742521138857285
    RHS  r1509  25.429973005070423
    RHS  r1510  42.985366043202745
    RHS  r1511  30.758620050596022
    RHS  r1512  42.55740469645245
    RHS  r1513  28.98181092873799
    RHS  r1514  43.274339365119694
    RHS  r1515  36.61208872754614
    RHS  r1516  55.64956864043906
    RHS  r1517  26.91884650838628
    RHS  r1518  34.98074545433947
    RHS  r1519  36.004608927033246
    RHS  r1520  34.974451742103774
    RHS  r1521  34.262613054143486
    RHS  r1522  44.405984216502866
    RHS  r1523  20.514852629454307
    RHS  r1524  35.56746471812559
    RHS  r1525  36.13117048549037
    RHS  r1526  54.594427892069014
    RHS  r1527  58.24922946118987
    RHS  r1528  52.604319918263506
    RHS  r1529  53.718291042795315
    RHS  r1530  59.57643300583363
    RHS  r1531  59.77385742744596
    RHS  r1532  45.47861818750199
    RHS  r1533  22.43493742446361
    RHS  r1534  54.51697749945568
    RHS  r1535  39.70120988332316
    RHS  r1536  21.17022030740618
    RHS  r1537  26.320160831580083
    RHS  r1538  41.91107753048925
    RHS  r1539  48.38293942768475
    RHS  r1540  58.44730132093125
    RHS  r1541  52.6008526794425
    RHS  r1542  55.61293132400506
    RHS  r1543  22.339639758985346
    RHS  r1544  37.3733877560567
    RHS  r1545  52.17857448136942
    RHS  r1546  52.341145521408215
    RHS  r1547  28.18395515210294
    RHS  r1548  43.16160182517305
    RHS  r1549  29.746889796526613
    RHS  r1550  25.79057476319487
    RHS  r1551  53.1853447600832
    RHS  r1552  35.071599638785244
    RHS  r1553  55.91290879857694
    RHS  r1554  21.457248068389653
    RHS  r1555  56.93816898665587
    RHS  r1556  52.24426085586766
    RHS  r1557  39.04010585088664
    RHS  r1558  41.10594375082319
    RHS  r1559  31.19396285506553
    RHS  r1560  40.672794673330316
    RHS  r1561  49.07154174612011
    RHS  r1562  47.69714246171453
    RHS  r1563  42.93060031064571
    RHS  r1564  25.37116733451136
    RHS  r1565  31.15709717320005
    RHS  r1566  58.84351728468201
    RHS  r1567  35.02698637623112
    RHS  r1568  35.59899739202931
    RHS  r1569  36.129370525983035
    RHS  r1570  54.14278439085722
    RHS  r1571  35.569752506572776
    RHS  r1572  42.64809048718116
    RHS  r1573  35.85149390356524
    RHS  r1574  28.60644288869535
    RHS  r1575  32.146928837862575
    RHS  r1576  28.989984232125757
    RHS  r1577  52.03425631837754
    RHS  r1578  59.843941432877045
    RHS  r1579  50.79117838392001
    RHS  r1580  40.419800271860865
    RHS  r1581  43.93362589504869
    RHS  r1582  40.20473453950751
    RHS  r1583  54.07974367250531
    RHS  r1584  25.365097754577157
    RHS  r1585  21.70977876578838
    RHS  r1586  48.62433489005039
    RHS  r1587  38.38024883752507
    RHS  r1588  49.95510555121371
    RHS  r1589  56.857327983832164
    RHS  r1590  27.62514783378601
    RHS  r1591  50.40991980551469
    RHS  r1592  49.150881727009654
    RHS  r1593  45.12346288882786
    RHS  r1594  35.5343543198434
    RHS  r1595  44.02264191883245
    RHS  r1596  41.065353090467795
    RHS  r1597  23.567536767370726
    RHS  r1598  42.86963453346945
    RHS  r1599  20.035855234009734
    RHS  r1600  32.892250828893175
    RHS  r1601  47.056119104098876
    RHS  r1602  56.36191852353586
    RHS  r1603  55.49599981142238
    RHS  r1604  33.12226201896528
    RHS  r1605  20.08646658702373
    RHS  r1606  56.339018816881755
    RHS  r1607  24.271099623810176
    RHS  r1608  47.538453010934276
    RHS  r1609  28.414743061206785
    RHS  r1610  53.52483454348465
    RHS  r1611  23.85075572055465
    RHS  r1612  57.69523465494933
    RHS  r1613  24.508088183934152
    RHS  r1614  44.40815219075688
    RHS  r1615  54.273160480922265
    RHS  r1616  26.51402482917826
    RHS  r1617  36.53045280476906
    RHS  r1618  31.81368593982696
    RHS  r1619  57.49708220497459
    RHS  r1620  44.21668249004942
    RHS  r1621  56.186505126969934
    RHS  r1622  59.34898480169989
    RHS  r1623  42.632688187205886
    RHS  r1624  52.049799929242376
    RHS  r1625  40.266566085471425
    RHS  r1626  36.834326590432234
    RHS  r1627  59.08588066600123
    RHS  r1628  34.733624895502764
    RHS  r1629  35.41805429321015
    RHS  r1630  33.56792455203434
    RHS  r1631  28.89637519841552
    RHS  r1632  33.838991581959995
    RHS  r1633  30.911782555667674
    RHS  r1634  54.58709644919479
    RHS  r1635  50.09737865682301
    RHS  r1636  42.35766824071836
    RHS  r1637  52.49993797347841
    RHS  r1638  49.85459018021372
    RHS  r1639  57.734566335642924
    RHS  r1640  26.361064045536658
    RHS  r1641  31.94517309138309
    RHS  r1642  54.45418108181126
    RHS  r1643  34.08138175653022
    RHS  r1644  20.100795601005768
    RHS  r1645  29.80515798089926
    RHS  r1646  26.772638166295852
    RHS  r1647  45.796694098379575
    RHS  r1648  55.19267364514586
    RHS  r1649  37.26333968964981
    RHS  r1650  41.175153520065614
    RHS  r1651  34.442553364415716
    RHS  r1652  30.254002415854057
    RHS  r1653  22.762352953005156
    RHS  r1654  59.450506524711066
    RHS  r1655  37.92167096373046
    RHS  r1656  48.80793493639936
    RHS  r1657  44.31501112623411
    RHS  r1658  58.79847876714413
    RHS  r1659  54.39697562990791
    RHS  r1660  50.37353007662762
    RHS  r1661  33.76755121018596
    RHS  r1662  59.63344998805593
    RHS  r1663  26.171656394364177
    RHS  r1664  43.60454021417033
    RHS  r1665  39.84298610947262
    RHS  r1666  21.967454096052556
    RHS  r1667  52.709773713876814
    RHS  r1668  28.196095164272293
    RHS  r1669  39.94801214983899
    RHS  r1670  39.256595138339286
    RHS  r1671  33.58512459532612
    RHS  r1672  34.64158192699128
    RHS  r1673  51.122084998378305
    RHS  r1674  57.15992698125611
    RHS  r1675  46.892183730339994
    RHS  r1676  41.13241961197077
    RHS  r1677  27.434881156859138
    RHS  r1678  20.99745553091946
    RHS  r1679  45.131597293131605
RANGES
BOUNDS
ENDATA
