NAME gasblend_6p
OBJSENSE
    MAX
ROWS
 N  OBJ
 E  vol_REG91_0
 G  ron_REG91_0
 L  rvp_REG91_0
 L  sul_REG91_0
 L  bz_REG91_0
 L  aro_REG91_0
 L  ole_REG91_0
 L  eth_REG91_0
 E  vol_PREM95_0
 G  ron_PREM95_0
 L  rvp_PREM95_0
 L  sul_PREM95_0
 L  bz_PREM95_0
 L  aro_PREM95_0
 L  ole_PREM95_0
 L  eth_PREM95_0
 E  cbal_BUTANE_0
 E  cbal_LSRN_0
 E  cbal_REFORMATE_0
 E  cbal_FCCGAS_0
 E  cbal_ALKYLATE_0
 E  cbal_ISOMERATE_0
 E  cbal_ETHANOL_0
 E  vol_REG91_1
 G  ron_REG91_1
 L  rvp_REG91_1
 L  sul_REG91_1
 L  bz_REG91_1
 L  aro_REG91_1
 L  ole_REG91_1
 L  eth_REG91_1
 E  vol_PREM95_1
 G  ron_PREM95_1
 L  rvp_PREM95_1
 L  sul_PREM95_1
 L  bz_PREM95_1
 L  aro_PREM95_1
 L  ole_PREM95_1
 L  eth_PREM95_1
 E  cbal_BUTANE_1
 E  cbal_LSRN_1
 E  cbal_REFORMATE_1
 E  cbal_FCCGAS_1
 E  cbal_ALKYLATE_1
 E  cbal_ISOMERATE_1
 E  cbal_ETHANOL_1
 E  vol_REG91_2
 G  ron_REG91_2
 L  rvp_REG91_2
 L  sul_REG91_2
 L  bz_REG91_2
 L  aro_REG91_2
 L  ole_REG91_2
 L  eth_REG91_2
 E  vol_PREM95_2
 G  ron_PREM95_2
 L  rvp_PREM95_2
 L  sul_PREM95_2
 L  bz_PREM95_2
 L  aro_PREM95_2
 L  ole_PREM95_2
 L  eth_PREM95_2
 E  cbal_BUTANE_2
 E  cbal_LSRN_2
 E  cbal_REFORMATE_2
 E  cbal_FCCGAS_2
 E  cbal_ALKYLATE_2
 E  cbal_ISOMERATE_2
 E  cbal_ETHANOL_2
 E  vol_REG91_3
 G  ron_REG91_3
 L  rvp_REG91_3
 L  sul_REG91_3
 L  bz_REG91_3
 L  aro_REG91_3
 L  ole_REG91_3
 L  eth_REG91_3
 E  vol_PREM95_3
 G  ron_PREM95_3
 L  rvp_PREM95_3
 L  sul_PREM95_3
 L  bz_PREM95_3
 L  aro_PREM95_3
 L  ole_PREM95_3
 L  eth_PREM95_3
 E  cbal_BUTANE_3
 E  cbal_LSRN_3
 E  cbal_REFORMATE_3
 E  cbal_FCCGAS_3
 E  cbal_ALKYLATE_3
 E  cbal_ISOMERATE_3
 E  cbal_ETHANOL_3
 E  vol_REG91_4
 G  ron_REG91_4
 L  rvp_REG91_4
 L  sul_REG91_4
 L  bz_REG91_4
 L  aro_REG91_4
 L  ole_REG91_4
 L  eth_REG91_4
 E  vol_PREM95_4
 G  ron_PREM95_4
 L  rvp_PREM95_4
 L  sul_PREM95_4
 L  bz_PREM95_4
 L  aro_PREM95_4
 L  ole_PREM95_4
 L  eth_PREM95_4
 E  cbal_BUTANE_4
 E  cbal_LSRN_4
 E  cbal_REFORMATE_4
 E  cbal_FCCGAS_4
 E  cbal_ALKYLATE_4
 E  cbal_ISOMERATE_4
 E  cbal_ETHANOL_4
 E  vol_REG91_5
 G  ron_REG91_5
 L  rvp_REG91_5
 L  sul_REG91_5
 L  bz_REG91_5
 L  aro_REG91_5
 L  ole_REG91_5
 L  eth_REG91_5
 E  vol_PREM95_5
 G  ron_PREM95_5
 L  rvp_PREM95_5
 L  sul_PREM95_5
 L  bz_PREM95_5
 L  aro_PREM95_5
 L  ole_PREM95_5
 L  eth_PREM95_5
 E  cbal_BUTANE_5
 E  cbal_LSRN_5
 E  cbal_REFORMATE_5
 E  cbal_FCCGAS_5
 E  cbal_ALKYLATE_5
 E  cbal_ISOMERATE_5
 E  cbal_ETHANOL_5
COLUMNS
    sale_REG91_0  OBJ  103.97870044681956
    sale_REG91_0  vol_REG91_0  -1.0
    b_BUTANE_REG91_0  vol_REG91_0  1.0
    b_BUTANE_REG91_0  ron_REG91_0  2.0
    b_BUTANE_REG91_0  rvp_REG91_0  124.04972267457791
    b_BUTANE_REG91_0  bz_REG91_0  -1.0
    b_BUTANE_REG91_0  aro_REG91_0  -35.0
    b_BUTANE_REG91_0  ole_REG91_0  -18.0
    b_BUTANE_REG91_0  eth_REG91_0  -0.1
    b_BUTANE_REG91_0  cbal_BUTANE_0  -1.0
    b_LSRN_REG91_0  vol_REG91_0  1.0
    b_LSRN_REG91_0  ron_REG91_0  -23.0
    b_LSRN_REG91_0  rvp_REG91_0  4.4443058870966965
    b_LSRN_REG91_0  sul_REG91_0  20.0
    b_LSRN_REG91_0  bz_REG91_0  0.19999999999999996
    b_LSRN_REG91_0  aro_REG91_0  -32.0
    b_LSRN_REG91_0  ole_REG91_0  -17.0
    b_LSRN_REG91_0  eth_REG91_0  -0.1
    b_LSRN_REG91_0  cbal_LSRN_0  -1.0
    b_REFORMATE_REG91_0  vol_REG91_0  1.0
    b_REFORMATE_REG91_0  ron_REG91_0  7.0
    b_REFORMATE_REG91_0  rvp_REG91_0  -9.034318350071029
    b_REFORMATE_REG91_0  sul_REG91_0  -9.0
    b_REFORMATE_REG91_0  bz_REG91_0  2.2
    b_REFORMATE_REG91_0  aro_REG91_0  27.0
    b_REFORMATE_REG91_0  ole_REG91_0  -17.0
    b_REFORMATE_REG91_0  eth_REG91_0  -0.1
    b_REFORMATE_REG91_0  cbal_REFORMATE_0  -1.0
    b_FCCGAS_REG91_0  vol_REG91_0  1.0
    b_FCCGAS_REG91_0  ron_REG91_0  0.5
    b_FCCGAS_REG91_0  rvp_REG91_0  -3.176891319444122
    b_FCCGAS_REG91_0  sul_REG91_0  30.0
    b_FCCGAS_REG91_0  bz_REG91_0  -0.09999999999999998
    b_FCCGAS_REG91_0  aro_REG91_0  -7.0
    b_FCCGAS_REG91_0  ole_REG91_0  10.0
    b_FCCGAS_REG91_0  eth_REG91_0  -0.1
    b_FCCGAS_REG91_0  cbal_FCCGAS_0  -1.0
    b_ALKYLATE_REG91_0  vol_REG91_0  1.0
    b_ALKYLATE_REG91_0  ron_REG91_0  4.0
    b_ALKYLATE_REG91_0  rvp_REG91_0  -7.165717905695734
    b_ALKYLATE_REG91_0  sul_REG91_0  -5.0
    b_ALKYLATE_REG91_0  bz_REG91_0  -1.0
    b_ALKYLATE_REG91_0  aro_REG91_0  -35.0
    b_ALKYLATE_REG91_0  ole_REG91_0  -18.0
    b_ALKYLATE_REG91_0  eth_REG91_0  -0.1
    b_ALKYLATE_REG91_0  cbal_ALKYLATE_0  -1.0
    b_ISOMERATE_REG91_0  vol_REG91_0  1.0
    b_ISOMERATE_REG91_0  ron_REG91_0  -4.0
    b_ISOMERATE_REG91_0  rvp_REG91_0  9.096318719387348
    b_ISOMERATE_REG91_0  sul_REG91_0  -9.0
    b_ISOMERATE_REG91_0  bz_REG91_0  -1.0
    b_ISOMERATE_REG91_0  aro_REG91_0  -35.0
    b_ISOMERATE_REG91_0  ole_REG91_0  -18.0
    b_ISOMERATE_REG91_0  eth_REG91_0  -0.1
    b_ISOMERATE_REG91_0  cbal_ISOMERATE_0  -1.0
    b_ETHANOL_REG91_0  vol_REG91_0  1.0
    b_ETHANOL_REG91_0  ron_REG91_0  18.0
    b_ETHANOL_REG91_0  rvp_REG91_0  21.487351322208227
    b_ETHANOL_REG91_0  sul_REG91_0  -5.0
    b_ETHANOL_REG91_0  bz_REG91_0  -1.0
    b_ETHANOL_REG91_0  aro_REG91_0  -35.0
    b_ETHANOL_REG91_0  ole_REG91_0  -18.0
    b_ETHANOL_REG91_0  eth_REG91_0  0.9
    b_ETHANOL_REG91_0  cbal_ETHANOL_0  -1.0
    sale_PREM95_0  OBJ  115.51504146214447
    sale_PREM95_0  vol_PREM95_0  -1.0
    b_BUTANE_PREM95_0  vol_PREM95_0  1.0
    b_BUTANE_PREM95_0  ron_PREM95_0  -2.0
    b_BUTANE_PREM95_0  rvp_PREM95_0  125.12462981871758
    b_BUTANE_PREM95_0  bz_PREM95_0  -1.0
    b_BUTANE_PREM95_0  aro_PREM95_0  -35.0
    b_BUTANE_PREM95_0  ole_PREM95_0  -18.0
    b_BUTANE_PREM95_0  eth_PREM95_0  -0.1
    b_BUTANE_PREM95_0  cbal_BUTANE_0  -1.0
    b_LSRN_PREM95_0  vol_PREM95_0  1.0
    b_LSRN_PREM95_0  ron_PREM95_0  -27.0
    b_LSRN_PREM95_0  rvp_PREM95_0  5.519213031236365
    b_LSRN_PREM95_0  sul_PREM95_0  20.0
    b_LSRN_PREM95_0  bz_PREM95_0  0.19999999999999996
    b_LSRN_PREM95_0  aro_PREM95_0  -32.0
    b_LSRN_PREM95_0  ole_PREM95_0  -17.0
    b_LSRN_PREM95_0  eth_PREM95_0  -0.1
    b_LSRN_PREM95_0  cbal_LSRN_0  -1.0
    b_REFORMATE_PREM95_0  vol_PREM95_0  1.0
    b_REFORMATE_PREM95_0  ron_PREM95_0  3.0
    b_REFORMATE_PREM95_0  rvp_PREM95_0  -7.959411205931361
    b_REFORMATE_PREM95_0  sul_PREM95_0  -9.0
    b_REFORMATE_PREM95_0  bz_PREM95_0  2.2
    b_REFORMATE_PREM95_0  aro_PREM95_0  27.0
    b_REFORMATE_PREM95_0  ole_PREM95_0  -17.0
    b_REFORMATE_PREM95_0  eth_PREM95_0  -0.1
    b_REFORMATE_PREM95_0  cbal_REFORMATE_0  -1.0
    b_FCCGAS_PREM95_0  vol_PREM95_0  1.0
    b_FCCGAS_PREM95_0  ron_PREM95_0  -3.5
    b_FCCGAS_PREM95_0  rvp_PREM95_0  -2.1019841753044535
    b_FCCGAS_PREM95_0  sul_PREM95_0  30.0
    b_FCCGAS_PREM95_0  bz_PREM95_0  -0.09999999999999998
    b_FCCGAS_PREM95_0  aro_PREM95_0  -7.0
    b_FCCGAS_PREM95_0  ole_PREM95_0  10.0
    b_FCCGAS_PREM95_0  eth_PREM95_0  -0.1
    b_FCCGAS_PREM95_0  cbal_FCCGAS_0  -1.0
    b_ALKYLATE_PREM95_0  vol_PREM95_0  1.0
    b_ALKYLATE_PREM95_0  rvp_PREM95_0  -6.090810761556066
    b_ALKYLATE_PREM95_0  sul_PREM95_0  -5.0
    b_ALKYLATE_PREM95_0  bz_PREM95_0  -1.0
    b_ALKYLATE_PREM95_0  aro_PREM95_0  -35.0
    b_ALKYLATE_PREM95_0  ole_PREM95_0  -18.0
    b_ALKYLATE_PREM95_0  eth_PREM95_0  -0.1
    b_ALKYLATE_PREM95_0  cbal_ALKYLATE_0  -1.0
    b_ISOMERATE_PREM95_0  vol_PREM95_0  1.0
    b_ISOMERATE_PREM95_0  ron_PREM95_0  -8.0
    b_ISOMERATE_PREM95_0  rvp_PREM95_0  10.171225863527017
    b_ISOMERATE_PREM95_0  sul_PREM95_0  -9.0
    b_ISOMERATE_PREM95_0  bz_PREM95_0  -1.0
    b_ISOMERATE_PREM95_0  aro_PREM95_0  -35.0
    b_ISOMERATE_PREM95_0  ole_PREM95_0  -18.0
    b_ISOMERATE_PREM95_0  eth_PREM95_0  -0.1
    b_ISOMERATE_PREM95_0  cbal_ISOMERATE_0  -1.0
    b_ETHANOL_PREM95_0  vol_PREM95_0  1.0
    b_ETHANOL_PREM95_0  ron_PREM95_0  14.0
    b_ETHANOL_PREM95_0  rvp_PREM95_0  22.562258466347895
    b_ETHANOL_PREM95_0  sul_PREM95_0  -5.0
    b_ETHANOL_PREM95_0  bz_PREM95_0  -1.0
    b_ETHANOL_PREM95_0  aro_PREM95_0  -35.0
    b_ETHANOL_PREM95_0  ole_PREM95_0  -18.0
    b_ETHANOL_PREM95_0  eth_PREM95_0  0.9
    b_ETHANOL_PREM95_0  cbal_ETHANOL_0  -1.0
    buy_BUTANE_0  OBJ  -43.2
    buy_BUTANE_0  cbal_BUTANE_0  1.0
    sellcomp_BUTANE_0  OBJ  36.0
    sellcomp_BUTANE_0  cbal_BUTANE_0  -1.0
    inv_BUTANE_0  OBJ  -0.2
    inv_BUTANE_0  cbal_BUTANE_0  -1.0
    inv_BUTANE_0  cbal_BUTANE_1  1.0
    buy_LSRN_0  OBJ  -66.96000000000001
    buy_LSRN_0  cbal_LSRN_0  1.0
    sellcomp_LSRN_0  OBJ  55.800000000000004
    sellcomp_LSRN_0  cbal_LSRN_0  -1.0
    inv_LSRN_0  OBJ  -0.2
    inv_LSRN_0  cbal_LSRN_0  -1.0
    inv_LSRN_0  cbal_LSRN_1  1.0
    buy_REFORMATE_0  OBJ  -95.04
    buy_REFORMATE_0  cbal_REFORMATE_0  1.0
    sellcomp_REFORMATE_0  OBJ  79.2
    sellcomp_REFORMATE_0  cbal_REFORMATE_0  -1.0
    inv_REFORMATE_0  OBJ  -0.2
    inv_REFORMATE_0  cbal_REFORMATE_0  -1.0
    inv_REFORMATE_0  cbal_REFORMATE_1  1.0
    buy_FCCGAS_0  OBJ  -86.4
    buy_FCCGAS_0  cbal_FCCGAS_0  1.0
    sellcomp_FCCGAS_0  OBJ  72.0
    sellcomp_FCCGAS_0  cbal_FCCGAS_0  -1.0
    inv_FCCGAS_0  OBJ  -0.2
    inv_FCCGAS_0  cbal_FCCGAS_0  -1.0
    inv_FCCGAS_0  cbal_FCCGAS_1  1.0
    buy_ALKYLATE_0  OBJ  -102.60000000000001
    buy_ALKYLATE_0  cbal_ALKYLATE_0  1.0
    sellcomp_ALKYLATE_0  OBJ  85.5
    sellcomp_ALKYLATE_0  cbal_ALKYLATE_0  -1.0
    inv_ALKYLATE_0  OBJ  -0.2
    inv_ALKYLATE_0  cbal_ALKYLATE_0  -1.0
    inv_ALKYLATE_0  cbal_ALKYLATE_1  1.0
    buy_ISOMERATE_0  OBJ  -86.4
    buy_ISOMERATE_0  cbal_ISOMERATE_0  1.0
    sellcomp_ISOMERATE_0  OBJ  72.0
    sellcomp_ISOMERATE_0  cbal_ISOMERATE_0  -1.0
    inv_ISOMERATE_0  OBJ  -0.2
    inv_ISOMERATE_0  cbal_ISOMERATE_0  -1.0
    inv_ISOMERATE_0  cbal_ISOMERATE_1  1.0
    buy_ETHANOL_0  OBJ  -91.80000000000001
    buy_ETHANOL_0  cbal_ETHANOL_0  1.0
    sellcomp_ETHANOL_0  OBJ  76.5
    sellcomp_ETHANOL_0  cbal_ETHANOL_0  -1.0
    inv_ETHANOL_0  OBJ  -0.2
    inv_ETHANOL_0  cbal_ETHANOL_0  -1.0
    inv_ETHANOL_0  cbal_ETHANOL_1  1.0
    sale_REG91_1  OBJ  107.1161426045891
    sale_REG91_1  vol_REG91_1  -1.0
    b_BUTANE_REG91_1  vol_REG91_1  1.0
    b_BUTANE_REG91_1  ron_REG91_1  2.0
    b_BUTANE_REG91_1  rvp_REG91_1  124.04972267457791
    b_BUTANE_REG91_1  bz_REG91_1  -1.0
    b_BUTANE_REG91_1  aro_REG91_1  -35.0
    b_BUTANE_REG91_1  ole_REG91_1  -18.0
    b_BUTANE_REG91_1  eth_REG91_1  -0.1
    b_BUTANE_REG91_1  cbal_BUTANE_1  -1.0
    b_LSRN_REG91_1  vol_REG91_1  1.0
    b_LSRN_REG91_1  ron_REG91_1  -23.0
    b_LSRN_REG91_1  rvp_REG91_1  4.4443058870966965
    b_LSRN_REG91_1  sul_REG91_1  20.0
    b_LSRN_REG91_1  bz_REG91_1  0.19999999999999996
    b_LSRN_REG91_1  aro_REG91_1  -32.0
    b_LSRN_REG91_1  ole_REG91_1  -17.0
    b_LSRN_REG91_1  eth_REG91_1  -0.1
    b_LSRN_REG91_1  cbal_LSRN_1  -1.0
    b_REFORMATE_REG91_1  vol_REG91_1  1.0
    b_REFORMATE_REG91_1  ron_REG91_1  7.0
    b_REFORMATE_REG91_1  rvp_REG91_1  -9.034318350071029
    b_REFORMATE_REG91_1  sul_REG91_1  -9.0
    b_REFORMATE_REG91_1  bz_REG91_1  2.2
    b_REFORMATE_REG91_1  aro_REG91_1  27.0
    b_REFORMATE_REG91_1  ole_REG91_1  -17.0
    b_REFORMATE_REG91_1  eth_REG91_1  -0.1
    b_REFORMATE_REG91_1  cbal_REFORMATE_1  -1.0
    b_FCCGAS_REG91_1  vol_REG91_1  1.0
    b_FCCGAS_REG91_1  ron_REG91_1  0.5
    b_FCCGAS_REG91_1  rvp_REG91_1  -3.176891319444122
    b_FCCGAS_REG91_1  sul_REG91_1  30.0
    b_FCCGAS_REG91_1  bz_REG91_1  -0.09999999999999998
    b_FCCGAS_REG91_1  aro_REG91_1  -7.0
    b_FCCGAS_REG91_1  ole_REG91_1  10.0
    b_FCCGAS_REG91_1  eth_REG91_1  -0.1
    b_FCCGAS_REG91_1  cbal_FCCGAS_1  -1.0
    b_ALKYLATE_REG91_1  vol_REG91_1  1.0
    b_ALKYLATE_REG91_1  ron_REG91_1  4.0
    b_ALKYLATE_REG91_1  rvp_REG91_1  -7.165717905695734
    b_ALKYLATE_REG91_1  sul_REG91_1  -5.0
    b_ALKYLATE_REG91_1  bz_REG91_1  -1.0
    b_ALKYLATE_REG91_1  aro_REG91_1  -35.0
    b_ALKYLATE_REG91_1  ole_REG91_1  -18.0
    b_ALKYLATE_REG91_1  eth_REG91_1  -0.1
    b_ALKYLATE_REG91_1  cbal_ALKYLATE_1  -1.0
    b_ISOMERATE_REG91_1  vol_REG91_1  1.0
    b_ISOMERATE_REG91_1  ron_REG91_1  -4.0
    b_ISOMERATE_REG91_1  rvp_REG91_1  9.096318719387348
    b_ISOMERATE_REG91_1  sul_REG91_1  -9.0
    b_ISOMERATE_REG91_1  bz_REG91_1  -1.0
    b_ISOMERATE_REG91_1  aro_REG91_1  -35.0
    b_ISOMERATE_REG91_1  ole_REG91_1  -18.0
    b_ISOMERATE_REG91_1  eth_REG91_1  -0.1
    b_ISOMERATE_REG91_1  cbal_ISOMERATE_1  -1.0
    b_ETHANOL_REG91_1  vol_REG91_1  1.0
    b_ETHANOL_REG91_1  ron_REG91_1  18.0
    b_ETHANOL_REG91_1  rvp_REG91_1  21.487351322208227
    b_ETHANOL_REG91_1  sul_REG91_1  -5.0
    b_ETHANOL_REG91_1  bz_REG91_1  -1.0
    b_ETHANOL_REG91_1  aro_REG91_1  -35.0
    b_ETHANOL_REG91_1  ole_REG91_1  -18.0
    b_ETHANOL_REG91_1  eth_REG91_1  0.9
    b_ETHANOL_REG91_1  cbal_ETHANOL_1  -1.0
    sale_PREM95_1  OBJ  111.92625510213152
    sale_PREM95_1  vol_PREM95_1  -1.0
    b_BUTANE_PREM95_1  vol_PREM95_1  1.0
    b_BUTANE_PREM95_1  ron_PREM95_1  -2.0
    b_BUTANE_PREM95_1  rvp_PREM95_1  125.12462981871758
    b_BUTANE_PREM95_1  bz_PREM95_1  -1.0
    b_BUTANE_PREM95_1  aro_PREM95_1  -35.0
    b_BUTANE_PREM95_1  ole_PREM95_1  -18.0
    b_BUTANE_PREM95_1  eth_PREM95_1  -0.1
    b_BUTANE_PREM95_1  cbal_BUTANE_1  -1.0
    b_LSRN_PREM95_1  vol_PREM95_1  1.0
    b_LSRN_PREM95_1  ron_PREM95_1  -27.0
    b_LSRN_PREM95_1  rvp_PREM95_1  5.519213031236365
    b_LSRN_PREM95_1  sul_PREM95_1  20.0
    b_LSRN_PREM95_1  bz_PREM95_1  0.19999999999999996
    b_LSRN_PREM95_1  aro_PREM95_1  -32.0
    b_LSRN_PREM95_1  ole_PREM95_1  -17.0
    b_LSRN_PREM95_1  eth_PREM95_1  -0.1
    b_LSRN_PREM95_1  cbal_LSRN_1  -1.0
    b_REFORMATE_PREM95_1  vol_PREM95_1  1.0
    b_REFORMATE_PREM95_1  ron_PREM95_1  3.0
    b_REFORMATE_PREM95_1  rvp_PREM95_1  -7.959411205931361
    b_REFORMATE_PREM95_1  sul_PREM95_1  -9.0
    b_REFORMATE_PREM95_1  bz_PREM95_1  2.2
    b_REFORMATE_PREM95_1  aro_PREM95_1  27.0
    b_REFORMATE_PREM95_1  ole_PREM95_1  -17.0
    b_REFORMATE_PREM95_1  eth_PREM95_1  -0.1
    b_REFORMATE_PREM95_1  cbal_REFORMATE_1  -1.0
    b_FCCGAS_PREM95_1  vol_PREM95_1  1.0
    b_FCCGAS_PREM95_1  ron_PREM95_1  -3.5
    b_FCCGAS_PREM95_1  rvp_PREM95_1  -2.1019841753044535
    b_FCCGAS_PREM95_1  sul_PREM95_1  30.0
    b_FCCGAS_PREM95_1  bz_PREM95_1  -0.09999999999999998
    b_FCCGAS_PREM95_1  aro_PREM95_1  -7.0
    b_FCCGAS_PREM95_1  ole_PREM95_1  10.0
    b_FCCGAS_PREM95_1  eth_PREM95_1  -0.1
    b_FCCGAS_PREM95_1  cbal_FCCGAS_1  -1.0
    b_ALKYLATE_PREM95_1  vol_PREM95_1  1.0
    b_ALKYLATE_PREM95_1  rvp_PREM95_1  -6.090810761556066
    b_ALKYLATE_PREM95_1  sul_PREM95_1  -5.0
    b_ALKYLATE_PREM95_1  bz_PREM95_1  -1.0
    b_ALKYLATE_PREM95_1  aro_PREM95_1  -35.0
    b_ALKYLATE_PREM95_1  ole_PREM95_1  -18.0
    b_ALKYLATE_PREM95_1  eth_PREM95_1  -0.1
    b_ALKYLATE_PREM95_1  cbal_ALKYLATE_1  -1.0
    b_ISOMERATE_PREM95_1  vol_PREM95_1  1.0
    b_ISOMERATE_PREM95_1  ron_PREM95_1  -8.0
    b_ISOMERATE_PREM95_1  rvp_PREM95_1  10.171225863527017
    b_ISOMERATE_PREM95_1  sul_PREM95_1  -9.0
    b_ISOMERATE_PREM95_1  bz_PREM95_1  -1.0
    b_ISOMERATE_PREM95_1  aro_PREM95_1  -35.0
    b_ISOMERATE_PREM95_1  ole_PREM95_1  -18.0
    b_ISOMERATE_PREM95_1  eth_PREM95_1  -0.1
    b_ISOMERATE_PREM95_1  cbal_ISOMERATE_1  -1.0
    b_ETHANOL_PREM95_1  vol_PREM95_1  1.0
    b_ETHANOL_PREM95_1  ron_PREM95_1  14.0
    b_ETHANOL_PREM95_1  rvp_PREM95_1  22.562258466347895
    b_ETHANOL_PREM95_1  sul_PREM95_1  -5.0
    b_ETHANOL_PREM95_1  bz_PREM95_1  -1.0
    b_ETHANOL_PREM95_1  aro_PREM95_1  -35.0
    b_ETHANOL_PREM95_1  ole_PREM95_1  -18.0
    b_ETHANOL_PREM95_1  eth_PREM95_1  0.9
    b_ETHANOL_PREM95_1  cbal_ETHANOL_1  -1.0
    buy_BUTANE_1  OBJ  -43.2
    buy_BUTANE_1  cbal_BUTANE_1  1.0
    sellcomp_BUTANE_1  OBJ  36.0
    sellcomp_BUTANE_1  cbal_BUTANE_1  -1.0
    inv_BUTANE_1  OBJ  -0.2
    inv_BUTANE_1  cbal_BUTANE_1  -1.0
    inv_BUTANE_1  cbal_BUTANE_2  1.0
    buy_LSRN_1  OBJ  -66.96000000000001
    buy_LSRN_1  cbal_LSRN_1  1.0
    sellcomp_LSRN_1  OBJ  55.800000000000004
    sellcomp_LSRN_1  cbal_LSRN_1  -1.0
    inv_LSRN_1  OBJ  -0.2
    inv_LSRN_1  cbal_LSRN_1  -1.0
    inv_LSRN_1  cbal_LSRN_2  1.0
    buy_REFORMATE_1  OBJ  -95.04
    buy_REFORMATE_1  cbal_REFORMATE_1  1.0
    sellcomp_REFORMATE_1  OBJ  79.2
    sellcomp_REFORMATE_1  cbal_REFORMATE_1  -1.0
    inv_REFORMATE_1  OBJ  -0.2
    inv_REFORMATE_1  cbal_REFORMATE_1  -1.0
    inv_REFORMATE_1  cbal_REFORMATE_2  1.0
    buy_FCCGAS_1  OBJ  -86.4
    buy_FCCGAS_1  cbal_FCCGAS_1  1.0
    sellcomp_FCCGAS_1  OBJ  72.0
    sellcomp_FCCGAS_1  cbal_FCCGAS_1  -1.0
    inv_FCCGAS_1  OBJ  -0.2
    inv_FCCGAS_1  cbal_FCCGAS_1  -1.0
    inv_FCCGAS_1  cbal_FCCGAS_2  1.0
    buy_ALKYLATE_1  OBJ  -102.60000000000001
    buy_ALKYLATE_1  cbal_ALKYLATE_1  1.0
    sellcomp_ALKYLATE_1  OBJ  85.5
    sellcomp_ALKYLATE_1  cbal_ALKYLATE_1  -1.0
    inv_ALKYLATE_1  OBJ  -0.2
    inv_ALKYLATE_1  cbal_ALKYLATE_1  -1.0
    inv_ALKYLATE_1  cbal_ALKYLATE_2  1.0
    buy_ISOMERATE_1  OBJ  -86.4
    buy_ISOMERATE_1  cbal_ISOMERATE_1  1.0
    sellcomp_ISOMERATE_1  OBJ  72.0
    sellcomp_ISOMERATE_1  cbal_ISOMERATE_1  -1.0
    inv_ISOMERATE_1  OBJ  -0.2
    inv_ISOMERATE_1  cbal_ISOMERATE_1  -1.0
    inv_ISOMERATE_1  cbal_ISOMERATE_2  1.0
    buy_ETHANOL_1  OBJ  -91.80000000000001
    buy_ETHANOL_1  cbal_ETHANOL_1  1.0
    sellcomp_ETHANOL_1  OBJ  76.5
    sellcomp_ETHANOL_1  cbal_ETHANOL_1  -1.0
    inv_ETHANOL_1  OBJ  -0.2
    inv_ETHANOL_1  cbal_ETHANOL_1  -1.0
    inv_ETHANOL_1  cbal_ETHANOL_2  1.0
    sale_REG91_2  OBJ  103.81949251699697
    sale_REG91_2  vol_REG91_2  -1.0
    b_BUTANE_REG91_2  vol_REG91_2  1.0
    b_BUTANE_REG91_2  ron_REG91_2  2.0
    b_BUTANE_REG91_2  rvp_REG91_2  124.04972267457791
    b_BUTANE_REG91_2  bz_REG91_2  -1.0
    b_BUTANE_REG91_2  aro_REG91_2  -35.0
    b_BUTANE_REG91_2  ole_REG91_2  -18.0
    b_BUTANE_REG91_2  eth_REG91_2  -0.1
    b_BUTANE_REG91_2  cbal_BUTANE_2  -1.0
    b_LSRN_REG91_2  vol_REG91_2  1.0
    b_LSRN_REG91_2  ron_REG91_2  -23.0
    b_LSRN_REG91_2  rvp_REG91_2  4.4443058870966965
    b_LSRN_REG91_2  sul_REG91_2  20.0
    b_LSRN_REG91_2  bz_REG91_2  0.19999999999999996
    b_LSRN_REG91_2  aro_REG91_2  -32.0
    b_LSRN_REG91_2  ole_REG91_2  -17.0
    b_LSRN_REG91_2  eth_REG91_2  -0.1
    b_LSRN_REG91_2  cbal_LSRN_2  -1.0
    b_REFORMATE_REG91_2  vol_REG91_2  1.0
    b_REFORMATE_REG91_2  ron_REG91_2  7.0
    b_REFORMATE_REG91_2  rvp_REG91_2  -9.034318350071029
    b_REFORMATE_REG91_2  sul_REG91_2  -9.0
    b_REFORMATE_REG91_2  bz_REG91_2  2.2
    b_REFORMATE_REG91_2  aro_REG91_2  27.0
    b_REFORMATE_REG91_2  ole_REG91_2  -17.0
    b_REFORMATE_REG91_2  eth_REG91_2  -0.1
    b_REFORMATE_REG91_2  cbal_REFORMATE_2  -1.0
    b_FCCGAS_REG91_2  vol_REG91_2  1.0
    b_FCCGAS_REG91_2  ron_REG91_2  0.5
    b_FCCGAS_REG91_2  rvp_REG91_2  -3.176891319444122
    b_FCCGAS_REG91_2  sul_REG91_2  30.0
    b_FCCGAS_REG91_2  bz_REG91_2  -0.09999999999999998
    b_FCCGAS_REG91_2  aro_REG91_2  -7.0
    b_FCCGAS_REG91_2  ole_REG91_2  10.0
    b_FCCGAS_REG91_2  eth_REG91_2  -0.1
    b_FCCGAS_REG91_2  cbal_FCCGAS_2  -1.0
    b_ALKYLATE_REG91_2  vol_REG91_2  1.0
    b_ALKYLATE_REG91_2  ron_REG91_2  4.0
    b_ALKYLATE_REG91_2  rvp_REG91_2  -7.165717905695734
    b_ALKYLATE_REG91_2  sul_REG91_2  -5.0
    b_ALKYLATE_REG91_2  bz_REG91_2  -1.0
    b_ALKYLATE_REG91_2  aro_REG91_2  -35.0
    b_ALKYLATE_REG91_2  ole_REG91_2  -18.0
    b_ALKYLATE_REG91_2  eth_REG91_2  -0.1
    b_ALKYLATE_REG91_2  cbal_ALKYLATE_2  -1.0
    b_ISOMERATE_REG91_2  vol_REG91_2  1.0
    b_ISOMERATE_REG91_2  ron_REG91_2  -4.0
    b_ISOMERATE_REG91_2  rvp_REG91_2  9.096318719387348
    b_ISOMERATE_REG91_2  sul_REG91_2  -9.0
    b_ISOMERATE_REG91_2  bz_REG91_2  -1.0
    b_ISOMERATE_REG91_2  aro_REG91_2  -35.0
    b_ISOMERATE_REG91_2  ole_REG91_2  -18.0
    b_ISOMERATE_REG91_2  eth_REG91_2  -0.1
    b_ISOMERATE_REG91_2  cbal_ISOMERATE_2  -1.0
    b_ETHANOL_REG91_2  vol_REG91_2  1.0
    b_ETHANOL_REG91_2  ron_REG91_2  18.0
    b_ETHANOL_REG91_2  rvp_REG91_2  21.487351322208227
    b_ETHANOL_REG91_2  sul_REG91_2  -5.0
    b_ETHANOL_REG91_2  bz_REG91_2  -1.0
    b_ETHANOL_REG91_2  aro_REG91_2  -35.0
    b_ETHANOL_REG91_2  ole_REG91_2  -18.0
    b_ETHANOL_REG91_2  eth_REG91_2  0.9
    b_ETHANOL_REG91_2  cbal_ETHANOL_2  -1.0
    sale_PREM95_2  OBJ  114.05921724158111
    sale_PREM95_2  vol_PREM95_2  -1.0
    b_BUTANE_PREM95_2  vol_PREM95_2  1.0
    b_BUTANE_PREM95_2  ron_PREM95_2  -2.0
    b_BUTANE_PREM95_2  rvp_PREM95_2  125.12462981871758
    b_BUTANE_PREM95_2  bz_PREM95_2  -1.0
    b_BUTANE_PREM95_2  aro_PREM95_2  -35.0
    b_BUTANE_PREM95_2  ole_PREM95_2  -18.0
    b_BUTANE_PREM95_2  eth_PREM95_2  -0.1
    b_BUTANE_PREM95_2  cbal_BUTANE_2  -1.0
    b_LSRN_PREM95_2  vol_PREM95_2  1.0
    b_LSRN_PREM95_2  ron_PREM95_2  -27.0
    b_LSRN_PREM95_2  rvp_PREM95_2  5.519213031236365
    b_LSRN_PREM95_2  sul_PREM95_2  20.0
    b_LSRN_PREM95_2  bz_PREM95_2  0.19999999999999996
    b_LSRN_PREM95_2  aro_PREM95_2  -32.0
    b_LSRN_PREM95_2  ole_PREM95_2  -17.0
    b_LSRN_PREM95_2  eth_PREM95_2  -0.1
    b_LSRN_PREM95_2  cbal_LSRN_2  -1.0
    b_REFORMATE_PREM95_2  vol_PREM95_2  1.0
    b_REFORMATE_PREM95_2  ron_PREM95_2  3.0
    b_REFORMATE_PREM95_2  rvp_PREM95_2  -7.959411205931361
    b_REFORMATE_PREM95_2  sul_PREM95_2  -9.0
    b_REFORMATE_PREM95_2  bz_PREM95_2  2.2
    b_REFORMATE_PREM95_2  aro_PREM95_2  27.0
    b_REFORMATE_PREM95_2  ole_PREM95_2  -17.0
    b_REFORMATE_PREM95_2  eth_PREM95_2  -0.1
    b_REFORMATE_PREM95_2  cbal_REFORMATE_2  -1.0
    b_FCCGAS_PREM95_2  vol_PREM95_2  1.0
    b_FCCGAS_PREM95_2  ron_PREM95_2  -3.5
    b_FCCGAS_PREM95_2  rvp_PREM95_2  -2.1019841753044535
    b_FCCGAS_PREM95_2  sul_PREM95_2  30.0
    b_FCCGAS_PREM95_2  bz_PREM95_2  -0.09999999999999998
    b_FCCGAS_PREM95_2  aro_PREM95_2  -7.0
    b_FCCGAS_PREM95_2  ole_PREM95_2  10.0
    b_FCCGAS_PREM95_2  eth_PREM95_2  -0.1
    b_FCCGAS_PREM95_2  cbal_FCCGAS_2  -1.0
    b_ALKYLATE_PREM95_2  vol_PREM95_2  1.0
    b_ALKYLATE_PREM95_2  rvp_PREM95_2  -6.090810761556066
    b_ALKYLATE_PREM95_2  sul_PREM95_2  -5.0
    b_ALKYLATE_PREM95_2  bz_PREM95_2  -1.0
    b_ALKYLATE_PREM95_2  aro_PREM95_2  -35.0
    b_ALKYLATE_PREM95_2  ole_PREM95_2  -18.0
    b_ALKYLATE_PREM95_2  eth_PREM95_2  -0.1
    b_ALKYLATE_PREM95_2  cbal_ALKYLATE_2  -1.0
    b_ISOMERATE_PREM95_2  vol_PREM95_2  1.0
    b_ISOMERATE_PREM95_2  ron_PREM95_2  -8.0
    b_ISOMERATE_PREM95_2  rvp_PREM95_2  10.171225863527017
    b_ISOMERATE_PREM95_2  sul_PREM95_2  -9.0
    b_ISOMERATE_PREM95_2  bz_PREM95_2  -1.0
    b_ISOMERATE_PREM95_2  aro_PREM95_2  -35.0
    b_ISOMERATE_PREM95_2  ole_PREM95_2  -18.0
    b_ISOMERATE_PREM95_2  eth_PREM95_2  -0.1
    b_ISOMERATE_PREM95_2  cbal_ISOMERATE_2  -1.0
    b_ETHANOL_PREM95_2  vol_PREM95_2  1.0
    b_ETHANOL_PREM95_2  ron_PREM95_2  14.0
    b_ETHANOL_PREM95_2  rvp_PREM95_2  22.562258466347895
    b_ETHANOL_PREM95_2  sul_PREM95_2  -5.0
    b_ETHANOL_PREM95_2  bz_PREM95_2  -1.0
    b_ETHANOL_PREM95_2  aro_PREM95_2  -35.0
    b_ETHANOL_PREM95_2  ole_PREM95_2  -18.0
    b_ETHANOL_PREM95_2  eth_PREM95_2  0.9
    b_ETHANOL_PREM95_2  cbal_ETHANOL_2  -1.0
    buy_BUTANE_2  OBJ  -43.2
    buy_BUTANE_2  cbal_BUTANE_2  1.0
    sellcomp_BUTANE_2  OBJ  36.0
    sellcomp_BUTANE_2  cbal_BUTANE_2  -1.0
    inv_BUTANE_2  OBJ  -0.2
    inv_BUTANE_2  cbal_BUTANE_2  -1.0
    inv_BUTANE_2  cbal_BUTANE_3  1.0
    buy_LSRN_2  OBJ  -66.96000000000001
    buy_LSRN_2  cbal_LSRN_2  1.0
    sellcomp_LSRN_2  OBJ  55.800000000000004
    sellcomp_LSRN_2  cbal_LSRN_2  -1.0
    inv_LSRN_2  OBJ  -0.2
    inv_LSRN_2  cbal_LSRN_2  -1.0
    inv_LSRN_2  cbal_LSRN_3  1.0
    buy_REFORMATE_2  OBJ  -95.04
    buy_REFORMATE_2  cbal_REFORMATE_2  1.0
    sellcomp_REFORMATE_2  OBJ  79.2
    sellcomp_REFORMATE_2  cbal_REFORMATE_2  -1.0
    inv_REFORMATE_2  OBJ  -0.2
    inv_REFORMATE_2  cbal_REFORMATE_2  -1.0
    inv_REFORMATE_2  cbal_REFORMATE_3  1.0
    buy_FCCGAS_2  OBJ  -86.4
    buy_FCCGAS_2  cbal_FCCGAS_2  1.0
    sellcomp_FCCGAS_2  OBJ  72.0
    sellcomp_FCCGAS_2  cbal_FCCGAS_2  -1.0
    inv_FCCGAS_2  OBJ  -0.2
    inv_FCCGAS_2  cbal_FCCGAS_2  -1.0
    inv_FCCGAS_2  cbal_FCCGAS_3  1.0
    buy_ALKYLATE_2  OBJ  -102.60000000000001
    buy_ALKYLATE_2  cbal_ALKYLATE_2  1.0
    sellcomp_ALKYLATE_2  OBJ  85.5
    sellcomp_ALKYLATE_2  cbal_ALKYLATE_2  -1.0
    inv_ALKYLATE_2  OBJ  -0.2
    inv_ALKYLATE_2  cbal_ALKYLATE_2  -1.0
    inv_ALKYLATE_2  cbal_ALKYLATE_3  1.0
    buy_ISOMERATE_2  OBJ  -86.4
    buy_ISOMERATE_2  cbal_ISOMERATE_2  1.0
    sellcomp_ISOMERATE_2  OBJ  72.0
    sellcomp_ISOMERATE_2  cbal_ISOMERATE_2  -1.0
    inv_ISOMERATE_2  OBJ  -0.2
    inv_ISOMERATE_2  cbal_ISOMERATE_2  -1.0
    inv_ISOMERATE_2  cbal_ISOMERATE_3  1.0
    buy_ETHANOL_2  OBJ  -91.80000000000001
    buy_ETHANOL_2  cbal_ETHANOL_2  1.0
    sellcomp_ETHANOL_2  OBJ  76.5
    sellcomp_ETHANOL_2  cbal_ETHANOL_2  -1.0
    inv_ETHANOL_2  OBJ  -0.2
    inv_ETHANOL_2  cbal_ETHANOL_2  -1.0
    inv_ETHANOL_2  cbal_ETHANOL_3  1.0
    sale_REG91_3  OBJ  101.72733669118762
    sale_REG91_3  vol_REG91_3  -1.0
    b_BUTANE_REG91_3  vol_REG91_3  1.0
    b_BUTANE_REG91_3  ron_REG91_3  2.0
    b_BUTANE_REG91_3  rvp_REG91_3  124.04972267457791
    b_BUTANE_REG91_3  bz_REG91_3  -1.0
    b_BUTANE_REG91_3  aro_REG91_3  -35.0
    b_BUTANE_REG91_3  ole_REG91_3  -18.0
    b_BUTANE_REG91_3  eth_REG91_3  -0.1
    b_BUTANE_REG91_3  cbal_BUTANE_3  -1.0
    b_LSRN_REG91_3  vol_REG91_3  1.0
    b_LSRN_REG91_3  ron_REG91_3  -23.0
    b_LSRN_REG91_3  rvp_REG91_3  4.4443058870966965
    b_LSRN_REG91_3  sul_REG91_3  20.0
    b_LSRN_REG91_3  bz_REG91_3  0.19999999999999996
    b_LSRN_REG91_3  aro_REG91_3  -32.0
    b_LSRN_REG91_3  ole_REG91_3  -17.0
    b_LSRN_REG91_3  eth_REG91_3  -0.1
    b_LSRN_REG91_3  cbal_LSRN_3  -1.0
    b_REFORMATE_REG91_3  vol_REG91_3  1.0
    b_REFORMATE_REG91_3  ron_REG91_3  7.0
    b_REFORMATE_REG91_3  rvp_REG91_3  -9.034318350071029
    b_REFORMATE_REG91_3  sul_REG91_3  -9.0
    b_REFORMATE_REG91_3  bz_REG91_3  2.2
    b_REFORMATE_REG91_3  aro_REG91_3  27.0
    b_REFORMATE_REG91_3  ole_REG91_3  -17.0
    b_REFORMATE_REG91_3  eth_REG91_3  -0.1
    b_REFORMATE_REG91_3  cbal_REFORMATE_3  -1.0
    b_FCCGAS_REG91_3  vol_REG91_3  1.0
    b_FCCGAS_REG91_3  ron_REG91_3  0.5
    b_FCCGAS_REG91_3  rvp_REG91_3  -3.176891319444122
    b_FCCGAS_REG91_3  sul_REG91_3  30.0
    b_FCCGAS_REG91_3  bz_REG91_3  -0.09999999999999998
    b_FCCGAS_REG91_3  aro_REG91_3  -7.0
    b_FCCGAS_REG91_3  ole_REG91_3  10.0
    b_FCCGAS_REG91_3  eth_REG91_3  -0.1
    b_FCCGAS_REG91_3  cbal_FCCGAS_3  -1.0
    b_ALKYLATE_REG91_3  vol_REG91_3  1.0
    b_ALKYLATE_REG91_3  ron_REG91_3  4.0
    b_ALKYLATE_REG91_3  rvp_REG91_3  -7.165717905695734
    b_ALKYLATE_REG91_3  sul_REG91_3  -5.0
    b_ALKYLATE_REG91_3  bz_REG91_3  -1.0
    b_ALKYLATE_REG91_3  aro_REG91_3  -35.0
    b_ALKYLATE_REG91_3  ole_REG91_3  -18.0
    b_ALKYLATE_REG91_3  eth_REG91_3  -0.1
    b_ALKYLATE_REG91_3  cbal_ALKYLATE_3  -1.0
    b_ISOMERATE_REG91_3  vol_REG91_3  1.0
    b_ISOMERATE_REG91_3  ron_REG91_3  -4.0
    b_ISOMERATE_REG91_3  rvp_REG91_3  9.096318719387348
    b_ISOMERATE_REG91_3  sul_REG91_3  -9.0
    b_ISOMERATE_REG91_3  bz_REG91_3  -1.0
    b_ISOMERATE_REG91_3  aro_REG91_3  -35.0
    b_ISOMERATE_REG91_3  ole_REG91_3  -18.0
    b_ISOMERATE_REG91_3  eth_REG91_3  -0.1
    b_ISOMERATE_REG91_3  cbal_ISOMERATE_3  -1.0
    b_ETHANOL_REG91_3  vol_REG91_3  1.0
    b_ETHANOL_REG91_3  ron_REG91_3  18.0
    b_ETHANOL_REG91_3  rvp_REG91_3  21.487351322208227
    b_ETHANOL_REG91_3  sul_REG91_3  -5.0
    b_ETHANOL_REG91_3  bz_REG91_3  -1.0
    b_ETHANOL_REG91_3  aro_REG91_3  -35.0
    b_ETHANOL_REG91_3  ole_REG91_3  -18.0
    b_ETHANOL_REG91_3  eth_REG91_3  0.9
    b_ETHANOL_REG91_3  cbal_ETHANOL_3  -1.0
    sale_PREM95_3  OBJ  114.57486136077655
    sale_PREM95_3  vol_PREM95_3  -1.0
    b_BUTANE_PREM95_3  vol_PREM95_3  1.0
    b_BUTANE_PREM95_3  ron_PREM95_3  -2.0
    b_BUTANE_PREM95_3  rvp_PREM95_3  125.12462981871758
    b_BUTANE_PREM95_3  bz_PREM95_3  -1.0
    b_BUTANE_PREM95_3  aro_PREM95_3  -35.0
    b_BUTANE_PREM95_3  ole_PREM95_3  -18.0
    b_BUTANE_PREM95_3  eth_PREM95_3  -0.1
    b_BUTANE_PREM95_3  cbal_BUTANE_3  -1.0
    b_LSRN_PREM95_3  vol_PREM95_3  1.0
    b_LSRN_PREM95_3  ron_PREM95_3  -27.0
    b_LSRN_PREM95_3  rvp_PREM95_3  5.519213031236365
    b_LSRN_PREM95_3  sul_PREM95_3  20.0
    b_LSRN_PREM95_3  bz_PREM95_3  0.19999999999999996
    b_LSRN_PREM95_3  aro_PREM95_3  -32.0
    b_LSRN_PREM95_3  ole_PREM95_3  -17.0
    b_LSRN_PREM95_3  eth_PREM95_3  -0.1
    b_LSRN_PREM95_3  cbal_LSRN_3  -1.0
    b_REFORMATE_PREM95_3  vol_PREM95_3  1.0
    b_REFORMATE_PREM95_3  ron_PREM95_3  3.0
    b_REFORMATE_PREM95_3  rvp_PREM95_3  -7.959411205931361
    b_REFORMATE_PREM95_3  sul_PREM95_3  -9.0
    b_REFORMATE_PREM95_3  bz_PREM95_3  2.2
    b_REFORMATE_PREM95_3  aro_PREM95_3  27.0
    b_REFORMATE_PREM95_3  ole_PREM95_3  -17.0
    b_REFORMATE_PREM95_3  eth_PREM95_3  -0.1
    b_REFORMATE_PREM95_3  cbal_REFORMATE_3  -1.0
    b_FCCGAS_PREM95_3  vol_PREM95_3  1.0
    b_FCCGAS_PREM95_3  ron_PREM95_3  -3.5
    b_FCCGAS_PREM95_3  rvp_PREM95_3  -2.1019841753044535
    b_FCCGAS_PREM95_3  sul_PREM95_3  30.0
    b_FCCGAS_PREM95_3  bz_PREM95_3  -0.09999999999999998
    b_FCCGAS_PREM95_3  aro_PREM95_3  -7.0
    b_FCCGAS_PREM95_3  ole_PREM95_3  10.0
    b_FCCGAS_PREM95_3  eth_PREM95_3  -0.1
    b_FCCGAS_PREM95_3  cbal_FCCGAS_3  -1.0
    b_ALKYLATE_PREM95_3  vol_PREM95_3  1.0
    b_ALKYLATE_PREM95_3  rvp_PREM95_3  -6.090810761556066
    b_ALKYLATE_PREM95_3  sul_PREM95_3  -5.0
    b_ALKYLATE_PREM95_3  bz_PREM95_3  -1.0
    b_ALKYLATE_PREM95_3  aro_PREM95_3  -35.0
    b_ALKYLATE_PREM95_3  ole_PREM95_3  -18.0
    b_ALKYLATE_PREM95_3  eth_PREM95_3  -0.1
    b_ALKYLATE_PREM95_3  cbal_ALKYLATE_3  -1.0
    b_ISOMERATE_PREM95_3  vol_PREM95_3  1.0
    b_ISOMERATE_PREM95_3  ron_PREM95_3  -8.0
    b_ISOMERATE_PREM95_3  rvp_PREM95_3  10.171225863527017
    b_ISOMERATE_PREM95_3  sul_PREM95_3  -9.0
    b_ISOMERATE_PREM95_3  bz_PREM95_3  -1.0
    b_ISOMERATE_PREM95_3  aro_PREM95_3  -35.0
    b_ISOMERATE_PREM95_3  ole_PREM95_3  -18.0
    b_ISOMERATE_PREM95_3  eth_PREM95_3  -0.1
    b_ISOMERATE_PREM95_3  cbal_ISOMERATE_3  -1.0
    b_ETHANOL_PREM95_3  vol_PREM95_3  1.0
    b_ETHANOL_PREM95_3  ron_PREM95_3  14.0
    b_ETHANOL_PREM95_3  rvp_PREM95_3  22.562258466347895
    b_ETHANOL_PREM95_3  sul_PREM95_3  -5.0
    b_ETHANOL_PREM95_3  bz_PREM95_3  -1.0
    b_ETHANOL_PREM95_3  aro_PREM95_3  -35.0
    b_ETHANOL_PREM95_3  ole_PREM95_3  -18.0
    b_ETHANOL_PREM95_3  eth_PREM95_3  0.9
    b_ETHANOL_PREM95_3  cbal_ETHANOL_3  -1.0
    buy_BUTANE_3  OBJ  -43.2
    buy_BUTANE_3  cbal_BUTANE_3  1.0
    sellcomp_BUTANE_3  OBJ  36.0
    sellcomp_BUTANE_3  cbal_BUTANE_3  -1.0
    inv_BUTANE_3  OBJ  -0.2
    inv_BUTANE_3  cbal_BUTANE_3  -1.0
    inv_BUTANE_3  cbal_BUTANE_4  1.0
    buy_LSRN_3  OBJ  -66.96000000000001
    buy_LSRN_3  cbal_LSRN_3  1.0
    sellcomp_LSRN_3  OBJ  55.800000000000004
    sellcomp_LSRN_3  cbal_LSRN_3  -1.0
    inv_LSRN_3  OBJ  -0.2
    inv_LSRN_3  cbal_LSRN_3  -1.0
    inv_LSRN_3  cbal_LSRN_4  1.0
    buy_REFORMATE_3  OBJ  -95.04
    buy_REFORMATE_3  cbal_REFORMATE_3  1.0
    sellcomp_REFORMATE_3  OBJ  79.2
    sellcomp_REFORMATE_3  cbal_REFORMATE_3  -1.0
    inv_REFORMATE_3  OBJ  -0.2
    inv_REFORMATE_3  cbal_REFORMATE_3  -1.0
    inv_REFORMATE_3  cbal_REFORMATE_4  1.0
    buy_FCCGAS_3  OBJ  -86.4
    buy_FCCGAS_3  cbal_FCCGAS_3  1.0
    sellcomp_FCCGAS_3  OBJ  72.0
    sellcomp_FCCGAS_3  cbal_FCCGAS_3  -1.0
    inv_FCCGAS_3  OBJ  -0.2
    inv_FCCGAS_3  cbal_FCCGAS_3  -1.0
    inv_FCCGAS_3  cbal_FCCGAS_4  1.0
    buy_ALKYLATE_3  OBJ  -102.60000000000001
    buy_ALKYLATE_3  cbal_ALKYLATE_3  1.0
    sellcomp_ALKYLATE_3  OBJ  85.5
    sellcomp_ALKYLATE_3  cbal_ALKYLATE_3  -1.0
    inv_ALKYLATE_3  OBJ  -0.2
    inv_ALKYLATE_3  cbal_ALKYLATE_3  -1.0
    inv_ALKYLATE_3  cbal_ALKYLATE_4  1.0
    buy_ISOMERATE_3  OBJ  -86.4
    buy_ISOMERATE_3  cbal_ISOMERATE_3  1.0
    sellcomp_ISOMERATE_3  OBJ  72.0
    sellcomp_ISOMERATE_3  cbal_ISOMERATE_3  -1.0
    inv_ISOMERATE_3  OBJ  -0.2
    inv_ISOMERATE_3  cbal_ISOMERATE_3  -1.0
    inv_ISOMERATE_3  cbal_ISOMERATE_4  1.0
    buy_ETHANOL_3  OBJ  -91.80000000000001
    buy_ETHANOL_3  cbal_ETHANOL_3  1.0
    sellcomp_ETHANOL_3  OBJ  76.5
    sellcomp_ETHANOL_3  cbal_ETHANOL_3  -1.0
    inv_ETHANOL_3  OBJ  -0.2
    inv_ETHANOL_3  cbal_ETHANOL_3  -1.0
    inv_ETHANOL_3  cbal_ETHANOL_4  1.0
    sale_REG91_4  OBJ  104.59734219127874
    sale_REG91_4  vol_REG91_4  -1.0
    b_BUTANE_REG91_4  vol_REG91_4  1.0
    b_BUTANE_REG91_4  ron_REG91_4  2.0
    b_BUTANE_REG91_4  rvp_REG91_4  124.04972267457791
    b_BUTANE_REG91_4  bz_REG91_4  -1.0
    b_BUTANE_REG91_4  aro_REG91_4  -35.0
    b_BUTANE_REG91_4  ole_REG91_4  -18.0
    b_BUTANE_REG91_4  eth_REG91_4  -0.1
    b_BUTANE_REG91_4  cbal_BUTANE_4  -1.0
    b_LSRN_REG91_4  vol_REG91_4  1.0
    b_LSRN_REG91_4  ron_REG91_4  -23.0
    b_LSRN_REG91_4  rvp_REG91_4  4.4443058870966965
    b_LSRN_REG91_4  sul_REG91_4  20.0
    b_LSRN_REG91_4  bz_REG91_4  0.19999999999999996
    b_LSRN_REG91_4  aro_REG91_4  -32.0
    b_LSRN_REG91_4  ole_REG91_4  -17.0
    b_LSRN_REG91_4  eth_REG91_4  -0.1
    b_LSRN_REG91_4  cbal_LSRN_4  -1.0
    b_REFORMATE_REG91_4  vol_REG91_4  1.0
    b_REFORMATE_REG91_4  ron_REG91_4  7.0
    b_REFORMATE_REG91_4  rvp_REG91_4  -9.034318350071029
    b_REFORMATE_REG91_4  sul_REG91_4  -9.0
    b_REFORMATE_REG91_4  bz_REG91_4  2.2
    b_REFORMATE_REG91_4  aro_REG91_4  27.0
    b_REFORMATE_REG91_4  ole_REG91_4  -17.0
    b_REFORMATE_REG91_4  eth_REG91_4  -0.1
    b_REFORMATE_REG91_4  cbal_REFORMATE_4  -1.0
    b_FCCGAS_REG91_4  vol_REG91_4  1.0
    b_FCCGAS_REG91_4  ron_REG91_4  0.5
    b_FCCGAS_REG91_4  rvp_REG91_4  -3.176891319444122
    b_FCCGAS_REG91_4  sul_REG91_4  30.0
    b_FCCGAS_REG91_4  bz_REG91_4  -0.09999999999999998
    b_FCCGAS_REG91_4  aro_REG91_4  -7.0
    b_FCCGAS_REG91_4  ole_REG91_4  10.0
    b_FCCGAS_REG91_4  eth_REG91_4  -0.1
    b_FCCGAS_REG91_4  cbal_FCCGAS_4  -1.0
    b_ALKYLATE_REG91_4  vol_REG91_4  1.0
    b_ALKYLATE_REG91_4  ron_REG91_4  4.0
    b_ALKYLATE_REG91_4  rvp_REG91_4  -7.165717905695734
    b_ALKYLATE_REG91_4  sul_REG91_4  -5.0
    b_ALKYLATE_REG91_4  bz_REG91_4  -1.0
    b_ALKYLATE_REG91_4  aro_REG91_4  -35.0
    b_ALKYLATE_REG91_4  ole_REG91_4  -18.0
    b_ALKYLATE_REG91_4  eth_REG91_4  -0.1
    b_ALKYLATE_REG91_4  cbal_ALKYLATE_4  -1.0
    b_ISOMERATE_REG91_4  vol_REG91_4  1.0
    b_ISOMERATE_REG91_4  ron_REG91_4  -4.0
    b_ISOMERATE_REG91_4  rvp_REG91_4  9.096318719387348
    b_ISOMERATE_REG91_4  sul_REG91_4  -9.0
    b_ISOMERATE_REG91_4  bz_REG91_4  -1.0
    b_ISOMERATE_REG91_4  aro_REG91_4  -35.0
    b_ISOMERATE_REG91_4  ole_REG91_4  -18.0
    b_ISOMERATE_REG91_4  eth_REG91_4  -0.1
    b_ISOMERATE_REG91_4  cbal_ISOMERATE_4  -1.0
    b_ETHANOL_REG91_4  vol_REG91_4  1.0
    b_ETHANOL_REG91_4  ron_REG91_4  18.0
    b_ETHANOL_REG91_4  rvp_REG91_4  21.487351322208227
    b_ETHANOL_REG91_4  sul_REG91_4  -5.0
    b_ETHANOL_REG91_4  bz_REG91_4  -1.0
    b_ETHANOL_REG91_4  aro_REG91_4  -35.0
    b_ETHANOL_REG91_4  ole_REG91_4  -18.0
    b_ETHANOL_REG91_4  eth_REG91_4  0.9
    b_ETHANOL_REG91_4  cbal_ETHANOL_4  -1.0
    sale_PREM95_4  OBJ  110.20651836569222
    sale_PREM95_4  vol_PREM95_4  -1.0
    b_BUTANE_PREM95_4  vol_PREM95_4  1.0
    b_BUTANE_PREM95_4  ron_PREM95_4  -2.0
    b_BUTANE_PREM95_4  rvp_PREM95_4  125.12462981871758
    b_BUTANE_PREM95_4  bz_PREM95_4  -1.0
    b_BUTANE_PREM95_4  aro_PREM95_4  -35.0
    b_BUTANE_PREM95_4  ole_PREM95_4  -18.0
    b_BUTANE_PREM95_4  eth_PREM95_4  -0.1
    b_BUTANE_PREM95_4  cbal_BUTANE_4  -1.0
    b_LSRN_PREM95_4  vol_PREM95_4  1.0
    b_LSRN_PREM95_4  ron_PREM95_4  -27.0
    b_LSRN_PREM95_4  rvp_PREM95_4  5.519213031236365
    b_LSRN_PREM95_4  sul_PREM95_4  20.0
    b_LSRN_PREM95_4  bz_PREM95_4  0.19999999999999996
    b_LSRN_PREM95_4  aro_PREM95_4  -32.0
    b_LSRN_PREM95_4  ole_PREM95_4  -17.0
    b_LSRN_PREM95_4  eth_PREM95_4  -0.1
    b_LSRN_PREM95_4  cbal_LSRN_4  -1.0
    b_REFORMATE_PREM95_4  vol_PREM95_4  1.0
    b_REFORMATE_PREM95_4  ron_PREM95_4  3.0
    b_REFORMATE_PREM95_4  rvp_PREM95_4  -7.959411205931361
    b_REFORMATE_PREM95_4  sul_PREM95_4  -9.0
    b_REFORMATE_PREM95_4  bz_PREM95_4  2.2
    b_REFORMATE_PREM95_4  aro_PREM95_4  27.0
    b_REFORMATE_PREM95_4  ole_PREM95_4  -17.0
    b_REFORMATE_PREM95_4  eth_PREM95_4  -0.1
    b_REFORMATE_PREM95_4  cbal_REFORMATE_4  -1.0
    b_FCCGAS_PREM95_4  vol_PREM95_4  1.0
    b_FCCGAS_PREM95_4  ron_PREM95_4  -3.5
    b_FCCGAS_PREM95_4  rvp_PREM95_4  -2.1019841753044535
    b_FCCGAS_PREM95_4  sul_PREM95_4  30.0
    b_FCCGAS_PREM95_4  bz_PREM95_4  -0.09999999999999998
    b_FCCGAS_PREM95_4  aro_PREM95_4  -7.0
    b_FCCGAS_PREM95_4  ole_PREM95_4  10.0
    b_FCCGAS_PREM95_4  eth_PREM95_4  -0.1
    b_FCCGAS_PREM95_4  cbal_FCCGAS_4  -1.0
    b_ALKYLATE_PREM95_4  vol_PREM95_4  1.0
    b_ALKYLATE_PREM95_4  rvp_PREM95_4  -6.090810761556066
    b_ALKYLATE_PREM95_4  sul_PREM95_4  -5.0
    b_ALKYLATE_PREM95_4  bz_PREM95_4  -1.0
    b_ALKYLATE_PREM95_4  aro_PREM95_4  -35.0
    b_ALKYLATE_PREM95_4  ole_PREM95_4  -18.0
    b_ALKYLATE_PREM95_4  eth_PREM95_4  -0.1
    b_ALKYLATE_PREM95_4  cbal_ALKYLATE_4  -1.0
    b_ISOMERATE_PREM95_4  vol_PREM95_4  1.0
    b_ISOMERATE_PREM95_4  ron_PREM95_4  -8.0
    b_ISOMERATE_PREM95_4  rvp_PREM95_4  10.171225863527017
    b_ISOMERATE_PREM95_4  sul_PREM95_4  -9.0
    b_ISOMERATE_PREM95_4  bz_PREM95_4  -1.0
    b_ISOMERATE_PREM95_4  aro_PREM95_4  -35.0
    b_ISOMERATE_PREM95_4  ole_PREM95_4  -18.0
    b_ISOMERATE_PREM95_4  eth_PREM95_4  -0.1
    b_ISOMERATE_PREM95_4  cbal_ISOMERATE_4  -1.0
    b_ETHANOL_PREM95_4  vol_PREM95_4  1.0
    b_ETHANOL_PREM95_4  ron_PREM95_4  14.0
    b_ETHANOL_PREM95_4  rvp_PREM95_4  22.562258466347895
    b_ETHANOL_PREM95_4  sul_PREM95_4  -5.0
    b_ETHANOL_PREM95_4  bz_PREM95_4  -1.0
    b_ETHANOL_PREM95_4  aro_PREM95_4  -35.0
    b_ETHANOL_PREM95_4  ole_PREM95_4  -18.0
    b_ETHANOL_PREM95_4  eth_PREM95_4  0.9
    b_ETHANOL_PREM95_4  cbal_ETHANOL_4  -1.0
    buy_BUTANE_4  OBJ  -43.2
    buy_BUTANE_4  cbal_BUTANE_4  1.0
    sellcomp_BUTANE_4  OBJ  36.0
    sellcomp_BUTANE_4  cbal_BUTANE_4  -1.0
    inv_BUTANE_4  OBJ  -0.2
    inv_BUTANE_4  cbal_BUTANE_4  -1.0
    inv_BUTANE_4  cbal_BUTANE_5  1.0
    buy_LSRN_4  OBJ  -66.96000000000001
    buy_LSRN_4  cbal_LSRN_4  1.0
    sellcomp_LSRN_4  OBJ  55.800000000000004
    sellcomp_LSRN_4  cbal_LSRN_4  -1.0
    inv_LSRN_4  OBJ  -0.2
    inv_LSRN_4  cbal_LSRN_4  -1.0
    inv_LSRN_4  cbal_LSRN_5  1.0
    buy_REFORMATE_4  OBJ  -95.04
    buy_REFORMATE_4  cbal_REFORMATE_4  1.0
    sellcomp_REFORMATE_4  OBJ  79.2
    sellcomp_REFORMATE_4  cbal_REFORMATE_4  -1.0
    inv_REFORMATE_4  OBJ  -0.2
    inv_REFORMATE_4  cbal_REFORMATE_4  -1.0
    inv_REFORMATE_4  cbal_REFORMATE_5  1.0
    buy_FCCGAS_4  OBJ  -86.4
    buy_FCCGAS_4  cbal_FCCGAS_4  1.0
    sellcomp_FCCGAS_4  OBJ  72.0
    sellcomp_FCCGAS_4  cbal_FCCGAS_4  -1.0
    inv_FCCGAS_4  OBJ  -0.2
    inv_FCCGAS_4  cbal_FCCGAS_4  -1.0
    inv_FCCGAS_4  cbal_FCCGAS_5  1.0
    buy_ALKYLATE_4  OBJ  -102.60000000000001
    buy_ALKYLATE_4  cbal_ALKYLATE_4  1.0
    sellcomp_ALKYLATE_4  OBJ  85.5
    sellcomp_ALKYLATE_4  cbal_ALKYLATE_4  -1.0
    inv_ALKYLATE_4  OBJ  -0.2
    inv_ALKYLATE_4  cbal_ALKYLATE_4  -1.0
    inv_ALKYLATE_4  cbal_ALKYLATE_5  1.0
    buy_ISOMERATE_4  OBJ  -86.4
    buy_ISOMERATE_4  cbal_ISOMERATE_4  1.0
    sellcomp_ISOMERATE_4  OBJ  72.0
    sellcomp_ISOMERATE_4  cbal_ISOMERATE_4  -1.0
    inv_ISOMERATE_4  OBJ  -0.2
    inv_ISOMERATE_4  cbal_ISOMERATE_4  -1.0
    inv_ISOMERATE_4  cbal_ISOMERATE_5  1.0
    buy_ETHANOL_4  OBJ  -91.80000000000001
    buy_ETHANOL_4  cbal_ETHANOL_4  1.0
    sellcomp_ETHANOL_4  OBJ  76.5
    sellcomp_ETHANOL_4  cbal_ETHANOL_4  -1.0
    inv_ETHANOL_4  OBJ  -0.2
    inv_ETHANOL_4  cbal_ETHANOL_4  -1.0
    inv_ETHANOL_4  cbal_ETHANOL_5  1.0
    sale_REG91_5  OBJ  105.9117719783168
    sale_REG91_5  vol_REG91_5  -1.0
    b_BUTANE_REG91_5  vol_REG91_5  1.0
    b_BUTANE_REG91_5  ron_REG91_5  2.0
    b_BUTANE_REG91_5  rvp_REG91_5  124.04972267457791
    b_BUTANE_REG91_5  bz_REG91_5  -1.0
    b_BUTANE_REG91_5  aro_REG91_5  -35.0
    b_BUTANE_REG91_5  ole_REG91_5  -18.0
    b_BUTANE_REG91_5  eth_REG91_5  -0.1
    b_BUTANE_REG91_5  cbal_BUTANE_5  -1.0
    b_LSRN_REG91_5  vol_REG91_5  1.0
    b_LSRN_REG91_5  ron_REG91_5  -23.0
    b_LSRN_REG91_5  rvp_REG91_5  4.4443058870966965
    b_LSRN_REG91_5  sul_REG91_5  20.0
    b_LSRN_REG91_5  bz_REG91_5  0.19999999999999996
    b_LSRN_REG91_5  aro_REG91_5  -32.0
    b_LSRN_REG91_5  ole_REG91_5  -17.0
    b_LSRN_REG91_5  eth_REG91_5  -0.1
    b_LSRN_REG91_5  cbal_LSRN_5  -1.0
    b_REFORMATE_REG91_5  vol_REG91_5  1.0
    b_REFORMATE_REG91_5  ron_REG91_5  7.0
    b_REFORMATE_REG91_5  rvp_REG91_5  -9.034318350071029
    b_REFORMATE_REG91_5  sul_REG91_5  -9.0
    b_REFORMATE_REG91_5  bz_REG91_5  2.2
    b_REFORMATE_REG91_5  aro_REG91_5  27.0
    b_REFORMATE_REG91_5  ole_REG91_5  -17.0
    b_REFORMATE_REG91_5  eth_REG91_5  -0.1
    b_REFORMATE_REG91_5  cbal_REFORMATE_5  -1.0
    b_FCCGAS_REG91_5  vol_REG91_5  1.0
    b_FCCGAS_REG91_5  ron_REG91_5  0.5
    b_FCCGAS_REG91_5  rvp_REG91_5  -3.176891319444122
    b_FCCGAS_REG91_5  sul_REG91_5  30.0
    b_FCCGAS_REG91_5  bz_REG91_5  -0.09999999999999998
    b_FCCGAS_REG91_5  aro_REG91_5  -7.0
    b_FCCGAS_REG91_5  ole_REG91_5  10.0
    b_FCCGAS_REG91_5  eth_REG91_5  -0.1
    b_FCCGAS_REG91_5  cbal_FCCGAS_5  -1.0
    b_ALKYLATE_REG91_5  vol_REG91_5  1.0
    b_ALKYLATE_REG91_5  ron_REG91_5  4.0
    b_ALKYLATE_REG91_5  rvp_REG91_5  -7.165717905695734
    b_ALKYLATE_REG91_5  sul_REG91_5  -5.0
    b_ALKYLATE_REG91_5  bz_REG91_5  -1.0
    b_ALKYLATE_REG91_5  aro_REG91_5  -35.0
    b_ALKYLATE_REG91_5  ole_REG91_5  -18.0
    b_ALKYLATE_REG91_5  eth_REG91_5  -0.1
    b_ALKYLATE_REG91_5  cbal_ALKYLATE_5  -1.0
    b_ISOMERATE_REG91_5  vol_REG91_5  1.0
    b_ISOMERATE_REG91_5  ron_REG91_5  -4.0
    b_ISOMERATE_REG91_5  rvp_REG91_5  9.096318719387348
    b_ISOMERATE_REG91_5  sul_REG91_5  -9.0
    b_ISOMERATE_REG91_5  bz_REG91_5  -1.0
    b_ISOMERATE_REG91_5  aro_REG91_5  -35.0
    b_ISOMERATE_REG91_5  ole_REG91_5  -18.0
    b_ISOMERATE_REG91_5  eth_REG91_5  -0.1
    b_ISOMERATE_REG91_5  cbal_ISOMERATE_5  -1.0
    b_ETHANOL_REG91_5  vol_REG91_5  1.0
    b_ETHANOL_REG91_5  ron_REG91_5  18.0
    b_ETHANOL_REG91_5  rvp_REG91_5  21.487351322208227
    b_ETHANOL_REG91_5  sul_REG91_5  -5.0
    b_ETHANOL_REG91_5  bz_REG91_5  -1.0
    b_ETHANOL_REG91_5  aro_REG91_5  -35.0
    b_ETHANOL_REG91_5  ole_REG91_5  -18.0
    b_ETHANOL_REG91_5  eth_REG91_5  0.9
    b_ETHANOL_REG91_5  cbal_ETHANOL_5  -1.0
    sale_PREM95_5  OBJ  110.6860191916833
    sale_PREM95_5  vol_PREM95_5  -1.0
    b_BUTANE_PREM95_5  vol_PREM95_5  1.0
    b_BUTANE_PREM95_5  ron_PREM95_5  -2.0
    b_BUTANE_PREM95_5  rvp_PREM95_5  125.12462981871758
    b_BUTANE_PREM95_5  bz_PREM95_5  -1.0
    b_BUTANE_PREM95_5  aro_PREM95_5  -35.0
    b_BUTANE_PREM95_5  ole_PREM95_5  -18.0
    b_BUTANE_PREM95_5  eth_PREM95_5  -0.1
    b_BUTANE_PREM95_5  cbal_BUTANE_5  -1.0
    b_LSRN_PREM95_5  vol_PREM95_5  1.0
    b_LSRN_PREM95_5  ron_PREM95_5  -27.0
    b_LSRN_PREM95_5  rvp_PREM95_5  5.519213031236365
    b_LSRN_PREM95_5  sul_PREM95_5  20.0
    b_LSRN_PREM95_5  bz_PREM95_5  0.19999999999999996
    b_LSRN_PREM95_5  aro_PREM95_5  -32.0
    b_LSRN_PREM95_5  ole_PREM95_5  -17.0
    b_LSRN_PREM95_5  eth_PREM95_5  -0.1
    b_LSRN_PREM95_5  cbal_LSRN_5  -1.0
    b_REFORMATE_PREM95_5  vol_PREM95_5  1.0
    b_REFORMATE_PREM95_5  ron_PREM95_5  3.0
    b_REFORMATE_PREM95_5  rvp_PREM95_5  -7.959411205931361
    b_REFORMATE_PREM95_5  sul_PREM95_5  -9.0
    b_REFORMATE_PREM95_5  bz_PREM95_5  2.2
    b_REFORMATE_PREM95_5  aro_PREM95_5  27.0
    b_REFORMATE_PREM95_5  ole_PREM95_5  -17.0
    b_REFORMATE_PREM95_5  eth_PREM95_5  -0.1
    b_REFORMATE_PREM95_5  cbal_REFORMATE_5  -1.0
    b_FCCGAS_PREM95_5  vol_PREM95_5  1.0
    b_FCCGAS_PREM95_5  ron_PREM95_5  -3.5
    b_FCCGAS_PREM95_5  rvp_PREM95_5  -2.1019841753044535
    b_FCCGAS_PREM95_5  sul_PREM95_5  30.0
    b_FCCGAS_PREM95_5  bz_PREM95_5  -0.09999999999999998
    b_FCCGAS_PREM95_5  aro_PREM95_5  -7.0
    b_FCCGAS_PREM95_5  ole_PREM95_5  10.0
    b_FCCGAS_PREM95_5  eth_PREM95_5  -0.1
    b_FCCGAS_PREM95_5  cbal_FCCGAS_5  -1.0
    b_ALKYLATE_PREM95_5  vol_PREM95_5  1.0
    b_ALKYLATE_PREM95_5  rvp_PREM95_5  -6.090810761556066
    b_ALKYLATE_PREM95_5  sul_PREM95_5  -5.0
    b_ALKYLATE_PREM95_5  bz_PREM95_5  -1.0
    b_ALKYLATE_PREM95_5  aro_PREM95_5  -35.0
    b_ALKYLATE_PREM95_5  ole_PREM95_5  -18.0
    b_ALKYLATE_PREM95_5  eth_PREM95_5  -0.1
    b_ALKYLATE_PREM95_5  cbal_ALKYLATE_5  -1.0
    b_ISOMERATE_PREM95_5  vol_PREM95_5  1.0
    b_ISOMERATE_PREM95_5  ron_PREM95_5  -8.0
    b_ISOMERATE_PREM95_5  rvp_PREM95_5  10.171225863527017
    b_ISOMERATE_PREM95_5  sul_PREM95_5  -9.0
    b_ISOMERATE_PREM95_5  bz_PREM95_5  -1.0
    b_ISOMERATE_PREM95_5  aro_PREM95_5  -35.0
    b_ISOMERATE_PREM95_5  ole_PREM95_5  -18.0
    b_ISOMERATE_PREM95_5  eth_PREM95_5  -0.1
    b_ISOMERATE_PREM95_5  cbal_ISOMERATE_5  -1.0
    b_ETHANOL_PREM95_5  vol_PREM95_5  1.0
    b_ETHANOL_PREM95_5  ron_PREM95_5  14.0
    b_ETHANOL_PREM95_5  rvp_PREM95_5  22.562258466347895
    b_ETHANOL_PREM95_5  sul_PREM95_5  -5.0
    b_ETHANOL_PREM95_5  bz_PREM95_5  -1.0
    b_ETHANOL_PREM95_5  aro_PREM95_5  -35.0
    b_ETHANOL_PREM95_5  ole_PREM95_5  -18.0
    b_ETHANOL_PREM95_5  eth_PREM95_5  0.9
    b_ETHANOL_PREM95_5  cbal_ETHANOL_5  -1.0
    buy_BUTANE_5  OBJ  -43.2
    buy_BUTANE_5  cbal_BUTANE_5  1.0
    sellcomp_BUTANE_5  OBJ  36.0
    sellcomp_BUTANE_5  cbal_BUTANE_5  -1.0
    inv_BUTANE_5  OBJ  -0.2
    inv_BUTANE_5  cbal_BUTANE_5  -1.0
    buy_LSRN_5  OBJ  -66.96000000000001
    buy_LSRN_5  cbal_LSRN_5  1.0
    sellcomp_LSRN_5  OBJ  55.800000000000004
    sellcomp_LSRN_5  cbal_LSRN_5  -1.0
    inv_LSRN_5  OBJ  -0.2
    inv_LSRN_5  cbal_LSRN_5  -1.0
    buy_REFORMATE_5  OBJ  -95.04
    buy_REFORMATE_5  cbal_REFORMATE_5  1.0
    sellcomp_REFORMATE_5  OBJ  79.2
    sellcomp_REFORMATE_5  cbal_REFORMATE_5  -1.0
    inv_REFORMATE_5  OBJ  -0.2
    inv_REFORMATE_5  cbal_REFORMATE_5  -1.0
    buy_FCCGAS_5  OBJ  -86.4
    buy_FCCGAS_5  cbal_FCCGAS_5  1.0
    sellcomp_FCCGAS_5  OBJ  72.0
    sellcomp_FCCGAS_5  cbal_FCCGAS_5  -1.0
    inv_FCCGAS_5  OBJ  -0.2
    inv_FCCGAS_5  cbal_FCCGAS_5  -1.0
    buy_ALKYLATE_5  OBJ  -102.60000000000001
    buy_ALKYLATE_5  cbal_ALKYLATE_5  1.0
    sellcomp_ALKYLATE_5  OBJ  85.5
    sellcomp_ALKYLATE_5  cbal_ALKYLATE_5  -1.0
    inv_ALKYLATE_5  OBJ  -0.2
    inv_ALKYLATE_5  cbal_ALKYLATE_5  -1.0
    buy_ISOMERATE_5  OBJ  -86.4
    buy_ISOMERATE_5  cbal_ISOMERATE_5  1.0
    sellcomp_ISOMERATE_5  OBJ  72.0
    sellcomp_ISOMERATE_5  cbal_ISOMERATE_5  -1.0
    inv_ISOMERATE_5  OBJ  -0.2
    inv_ISOMERATE_5  cbal_ISOMERATE_5  -1.0
    buy_ETHANOL_5  OBJ  -91.80000000000001
    buy_ETHANOL_5  cbal_ETHANOL_5  1.0
    sellcomp_ETHANOL_5  OBJ  76.5
    sellcomp_ETHANOL_5  cbal_ETHANOL_5  -1.0
    inv_ETHANOL_5  OBJ  -0.2
    inv_ETHANOL_5  cbal_ETHANOL_5  -1.0
RHS
    RHS  cbal_BUTANE_0  -18.88990610554618
    RHS  cbal_LSRN_0  -94.34373924989994
    RHS  cbal_REFORMATE_0  -149.56898601000668
    RHS  cbal_FCCGAS_0  -151.73886043089038
    RHS  cbal_ALKYLATE_0  -50.30565585123269
    RHS  cbal_ISOMERATE_0  -41.038010365184626
    RHS  cbal_ETHANOL_0  -37.230618730129926
    RHS  cbal_BUTANE_1  -12.595056079757068
    RHS  cbal_LSRN_1  -48.53538801494012
    RHS  cbal_REFORMATE_1  -91.32357749290495
    RHS  cbal_FCCGAS_1  -100.02362423614774
    RHS  cbal_ALKYLATE_1  -41.21386285536149
    RHS  cbal_ISOMERATE_1  -32.66054722937638
    RHS  cbal_ETHANOL_1  -27.37337370814508
    RHS  cbal_BUTANE_2  -12.7894681944654
    RHS  cbal_LSRN_2  -57.93358400147662
    RHS  cbal_REFORMATE_2  -85.5236516805373
    RHS  cbal_FCCGAS_2  -108.73749938252443
    RHS  cbal_ALKYLATE_2  -32.880917967273476
    RHS  cbal_ISOMERATE_2  -28.21698174748544
    RHS  cbal_ETHANOL_2  -24.291561560990104
    RHS  cbal_BUTANE_3  -10.08469639944548
    RHS  cbal_LSRN_3  -64.94137277169415
    RHS  cbal_REFORMATE_3  -84.36990176767394
    RHS  cbal_FCCGAS_3  -103.99466048736478
    RHS  cbal_ALKYLATE_3  -30.272035003469735
    RHS  cbal_ISOMERATE_3  -29.56727364345309
    RHS  cbal_ETHANOL_3  -24.380846226831583
    RHS  cbal_BUTANE_4  -12.11250741516416
    RHS  cbal_LSRN_4  -70.91815102877456
    RHS  cbal_REFORMATE_4  -93.68099725008236
    RHS  cbal_FCCGAS_4  -103.6894095912871
    RHS  cbal_ALKYLATE_4  -38.335883583335345
    RHS  cbal_ISOMERATE_4  -29.613596598092524
    RHS  cbal_ETHANOL_4  -26.484686170244764
    RHS  cbal_BUTANE_5  -9.68365500296882
    RHS  cbal_LSRN_5  -57.91407826047035
    RHS  cbal_REFORMATE_5  -94.96309881419614
    RHS  cbal_FCCGAS_5  -105.81878552813265
    RHS  cbal_ALKYLATE_5  -36.5363926020906
    RHS  cbal_ISOMERATE_5  -32.938621114979924
    RHS  cbal_ETHANOL_5  -23.639716462339784
RANGES
BOUNDS
 LO BND  sale_REG91_0  120.0
 UP BND  sale_REG91_0  260.0
 LO BND  sale_PREM95_0  40.0
 UP BND  sale_PREM95_0  120.0
 UP BND  buy_BUTANE_0  40.0
 UP BND  inv_BUTANE_0  36.0
 FX BND  buy_LSRN_0  0.0
 UP BND  inv_LSRN_0  180.0
 FX BND  buy_REFORMATE_0  0.0
 UP BND  inv_REFORMATE_0  270.0
 FX BND  buy_FCCGAS_0  0.0
 UP BND  inv_FCCGAS_0  330.0
 UP BND  buy_ALKYLATE_0  40.0
 UP BND  inv_ALKYLATE_0  105.0
 FX BND  buy_ISOMERATE_0  0.0
 UP BND  inv_ISOMERATE_0  90.0
 UP BND  buy_ETHANOL_0  40.0
 UP BND  inv_ETHANOL_0  75.0
 LO BND  sale_REG91_1  120.0
 UP BND  sale_REG91_1  260.0
 LO BND  sale_PREM95_1  40.0
 UP BND  sale_PREM95_1  120.0
 UP BND  buy_BUTANE_1  40.0
 UP BND  inv_BUTANE_1  36.0
 FX BND  buy_LSRN_1  0.0
 UP BND  inv_LSRN_1  180.0
 FX BND  buy_REFORMATE_1  0.0
 UP BND  inv_REFORMATE_1  270.0
 FX BND  buy_FCCGAS_1  0.0
 UP BND  inv_FCCGAS_1  330.0
 UP BND  buy_ALKYLATE_1  40.0
 UP BND  inv_ALKYLATE_1  105.0
 FX BND  buy_ISOMERATE_1  0.0
 UP BND  inv_ISOMERATE_1  90.0
 UP BND  buy_ETHANOL_1  40.0
 UP BND  inv_ETHANOL_1  75.0
 LO BND  sale_REG91_2  120.0
 UP BND  sale_REG91_2  260.0
 LO BND  sale_PREM95_2  40.0
 UP BND  sale_PREM95_2  120.0
 UP BND  buy_BUTANE_2  40.0
 UP BND  inv_BUTANE_2  36.0
 FX BND  buy_LSRN_2  0.0
 UP BND  inv_LSRN_2  180.0
 FX BND  buy_REFORMATE_2  0.0
 UP BND  inv_REFORMATE_2  270.0
 FX BND  buy_FCCGAS_2  0.0
 UP BND  inv_FCCGAS_2  330.0
 UP BND  buy_ALKYLATE_2  40.0
 UP BND  inv_ALKYLATE_2  105.0
 FX BND  buy_ISOMERATE_2  0.0
 UP BND  inv_ISOMERATE_2  90.0
 UP BND  buy_ETHANOL_2  40.0
 UP BND  inv_ETHANOL_2  75.0
 LO BND  sale_REG91_3  120.0
 UP BND  sale_REG91_3  260.0
 LO BND  sale_PREM95_3  40.0
 UP BND  sale_PREM95_3  120.0
 UP BND  buy_BUTANE_3  40.0
 UP BND  inv_BUTANE_3  36.0
 FX BND  buy_LSRN_3  0.0
 UP BND  inv_LSRN_3  180.0
 FX BND  buy_REFORMATE_3  0.0
 UP BND  inv_REFORMATE_3  270.0
 FX BND  buy_FCCGAS_3  0.0
 UP BND  inv_FCCGAS_3  330.0
 UP BND  buy_ALKYLATE_3  40.0
 UP BND  inv_ALKYLATE_3  105.0
 FX BND  buy_ISOMERATE_3  0.0
 UP BND  inv_ISOMERATE_3  90.0
 UP BND  buy_ETHANOL_3  40.0
 UP BND  inv_ETHANOL_3  75.0
 LO BND  sale_REG91_4  120.0
 UP BND  sale_REG91_4  260.0
 LO BND  sale_PREM95_4  40.0
 UP BND  sale_PREM95_4  120.0
 UP BND  buy_BUTANE_4  40.0
 UP BND  inv_BUTANE_4  36.0
 FX BND  buy_LSRN_4  0.0
 UP BND  inv_LSRN_4  180.0
 FX BND  buy_REFORMATE_4  0.0
 UP BND  inv_REFORMATE_4  270.0
 FX BND  buy_FCCGAS_4  0.0
 UP BND  inv_FCCGAS_4  330.0
 UP BND  buy_ALKYLATE_4  40.0
 UP BND  inv_ALKYLATE_4  105.0
 FX BND  buy_ISOMERATE_4  0.0
 UP BND  inv_ISOMERATE_4  90.0
 UP BND  buy_ETHANOL_4  40.0
 UP BND  inv_ETHANOL_4  75.0
 LO BND  sale_REG91_5  120.0
 UP BND  sale_REG91_5  260.0
 LO BND  sale_PREM95_5  40.0
 UP BND  sale_PREM95_5  120.0
 UP BND  buy_BUTANE_5  40.0
 UP BND  inv_BUTANE_5  36.0
 FX BND  buy_LSRN_5  0.0
 UP BND  inv_LSRN_5  180.0
 FX BND  buy_REFORMATE_5  0.0
 UP BND  inv_REFORMATE_5  270.0
 FX BND  buy_FCCGAS_5  0.0
 UP BND  inv_FCCGAS_5  330.0
 UP BND  buy_ALKYLATE_5  40.0
 UP BND  inv_ALKYLATE_5  105.0
 FX BND  buy_ISOMERATE_5  0.0
 UP BND  inv_ISOMERATE_5  90.0
 UP BND  buy_ETHANOL_5  40.0
 UP BND  inv_ETHANOL_5  75.0
ENDATA
